[TITLE]
;;Project Title/Notes

;;____________________________________________________________________________________________________
[OPTIONS]
FLOW_UNITS           CMS
INFILTRATION         CURVE_NUMBER
FLOW_ROUTING         DYNWAVE
LINK_OFFSETS         DEPTH
MIN_SLOPE            0
ALLOW_PONDING        NO
SKIP_STEADY_STATE    NO
START_DATE           01/05/2018
START_TIME           00:00:00
REPORT_START_DATE    01/05/2018
REPORT_START_TIME    00:00:00
END_DATE             01/05/2018
END_TIME             18:00:00
SWEEP_START          01/01
SWEEP_END            12/31
DRY_DAYS             0
REPORT_STEP          00:05:00
WET_STEP             00:05:00
DRY_STEP             01:00:00
ROUTING_STEP         0:00:20
RULE_STEP            00:00:00
INERTIAL_DAMPING     PARTIAL
NORMAL_FLOW_LIMITED  BOTH
FORCE_MAIN_EQUATION  H-W
VARIABLE_STEP        0.75
LENGTHENING_STEP     0
MIN_SURFAREA         1.167
MAX_TRIALS           8
HEAD_TOLERANCE       0.0015
SYS_FLOW_TOL         5
LAT_FLOW_TOL         5
MINIMUM_STEP         0.5
THREADS              1

;;____________________________________________________________________________________________________
[EVAPORATION]
CONSTANT  4
DRY_ONLY  NO

;;____________________________________________________________________________________________________
[RAINGAGES]
R01 VOLUME 0:05 0 TIMESERIES 2018_01_05_S1
R02 VOLUME 0:05 0 TIMESERIES 2018_01_05_S2
R03 VOLUME 0:05 0 TIMESERIES 2018_01_05_S3
R04 VOLUME 0:05 0 TIMESERIES 2018_01_05_S4
R05 VOLUME 0:05 0 TIMESERIES 2018_01_05_S5
R06 VOLUME 0:05 0 TIMESERIES 2018_01_05_S6
R07 VOLUME 0:05 0 TIMESERIES 2018_01_05_S7
R08 VOLUME 0:05 0 TIMESERIES 2018_01_05_S8
R09 VOLUME 0:05 0 TIMESERIES 2018_01_05_S9
R10 VOLUME 0:05 0 TIMESERIES 2018_01_05_S10
R11 VOLUME 0:05 0 TIMESERIES 2018_01_05_S11
R12 VOLUME 0:05 0 TIMESERIES 2018_01_05_S12
R13 VOLUME 0:05 0 TIMESERIES 2018_01_05_S13
R14 VOLUME 0:05 0 TIMESERIES 2018_01_05_S14
R15 VOLUME 0:05 0 TIMESERIES 2018_01_05_S15
R16 VOLUME 0:05 0 TIMESERIES 2018_01_05_S16
R17 VOLUME 0:05 0 TIMESERIES 2018_01_05_S17
R18 VOLUME 0:05 0 TIMESERIES 2018_01_05_S18
R19 VOLUME 0:05 0 TIMESERIES 2018_01_05_S19
R20 VOLUME 0:05 0 TIMESERIES 2018_01_05_S20
R21 VOLUME 0:05 0 TIMESERIES 2018_01_05_S21
R22 VOLUME 0:05 0 TIMESERIES 2018_01_05_S22
R23 VOLUME 0:05 0 TIMESERIES 2018_01_05_S23
R24 VOLUME 0:05 0 TIMESERIES 2018_01_05_S24
R25 VOLUME 0:05 0 TIMESERIES 2018_01_05_S25
R26 VOLUME 0:05 0 TIMESERIES 2018_01_05_S26
R27 VOLUME 0:05 0 TIMESERIES 2018_01_05_S27
R28 VOLUME 0:05 0 TIMESERIES 2018_01_05_S28

;;____________________________________________________________________________________________________
[SUBCATCHMENTS]
S01 R01 J1 35.9 6 3211 3 0
S02 R02 J2 92.9 54 3640 2.6 0
S03 R03 J4 40.8 64.5 3640 2.2 0
S04 R04 J6 20.1 70.5 2457 2.4 0
S05 R05 J7 17.4 67.5 1508 3.5 0
S06 R06 J8 61.1 70.5 3692 1.9 0
S07 R07 J9 60.2 70.5 3458 2 0
S08 R08 J11 29 70.5 2600 2.8 0
S09 R09 J14 31.1 19.5 1482 3 0
S10 R10 J15 35.6 70.5 1820 2.2 0
S11 R11 J17 67.4 70.5 702 3.5 0
S12 R12 J18 15.2 16.5 2860 4 0
S13 R13 J16 177.1 10.5 5408 1.3 0
S14 R14 J12 27 73.5 1391 3 0
S15 R15 J24 59.2 24 1703 2.5 0
S16 R16 J25 28.6 45 1703 2.3 0
S17 R17 J23 53.4 73.5 1560 2.4 0
S18 R18 J10 25.4 73.5 1872 2.9 0
S19 R19 J8 27.8 73.5 1820 3.2 0
S20 R20 J7 28.2 70.5 1820 3.3 0
S21 R21 J22 76.7 70.5 1976 2.8 0
S22 R22 J26 87.9 82.5 2405 2.4 0
S23 R23 J21 60.3 69 2262 2.1 0
S24 R24 J4 21.6 70.5 3255.2 2 0
S25 R25 J5 14 76.5 1274 3.6 0
S26 R26 J20 30.9 94.5 2470 2.1 0
S27 R27 J3 82 97.5 2782 1.9 0
S28 R28 J1 18.8 3 1235 2.4 0


;;____________________________________________________________________________________________________
[SUBAREAS]
S01 0.011 0.06 14.4 40 30 PERVIOUS 45
S02 0.011 0.06 14.4 40 50 PERVIOUS 45
S03 0.011 0.06 14.4 40 50 PERVIOUS 45
S04 0.011 0.06 14.4 40 50 PERVIOUS 45
S05 0.011 0.06 14.4 40 50 PERVIOUS 45
S06 0.011 0.06 14.4 40 50 PERVIOUS 45
S07 0.011 0.06 14.4 40 50 PERVIOUS 45
S08 0.011 0.06 14.4 40 50 PERVIOUS 45
S09 0.011 0.06 14.4 40 30 PERVIOUS 45
S10 0.011 0.06 14.4 40 50 PERVIOUS 45
S11 0.011 0.06 14.4 40 50 PERVIOUS 45
S12 0.011 0.06 14.4 40 30 PERVIOUS 45
S13 0.011 0.06 14.4 40 30 PERVIOUS 45
S14 0.011 0.06 14.4 40 50 PERVIOUS 45
S15 0.011 0.06 14.4 40 30 PERVIOUS 45
S16 0.011 0.06 14.4 40 50 PERVIOUS 45
S17 0.011 0.06 14.4 40 50 PERVIOUS 45
S18 0.011 0.06 14.4 40 50 PERVIOUS 45
S19 0.011 0.06 14.4 40 50 PERVIOUS 45
S20 0.011 0.06 14.4 40 50 PERVIOUS 45
S21 0.011 0.06 14.4 40 50 PERVIOUS 45
S22 0.011 0.06 14.4 40 60 PERVIOUS 45
S23 0.011 0.06 14.4 40 50 PERVIOUS 45
S24 0.011 0.06 14.4 40 50 PERVIOUS 45
S25 0.011 0.06 14.4 40 50 PERVIOUS 45
S26 0.011 0.06 14.4 40 60 PERVIOUS 45
S27 0.011 0.06 14.4 40 60 PERVIOUS 45
S28 0.011 0.06 14.4 40 30 PERVIOUS 45


;;____________________________________________________________________________________________________
[INFILTRATION]
S01 39 0.5 4
S02 39 0.5 4
S03 39 0.5 4
S04 39 0.5 4
S05 39 0.5 4
S06 39 0.5 4
S07 39 0.5 4
S08 39 0.5 4
S09 39 0.5 4
S10 39 0.5 4
S11 39 0.5 4
S12 39 0.5 4
S13 39 0.5 4
S14 39 0.5 4
S15 39 0.5 4
S16 39 0.5 4
S17 39 0.5 4
S18 39 0.5 4
S19 39 0.5 4
S20 39 0.5 4
S21 39 0.5 4
S22 39 0.5 4
S23 39 0.5 4
S24 39 0.5 4
S25 39 0.5 4
S26 39 0.5 4
S27 39 0.5 4
S28 39 0.5 4


;;____________________________________________________________________________________________________
[JUNCTIONS]
;;Name           Elevation  MaxDepth   InitDepth  SurDepth   Aponded   
;;-------------- ---------- ---------- ---------- ---------- ----------
J1               28.6       0          0          0          0         
J10              41.7       0          0          0          0         
J11              43.4       0          0          0          0         
J12              44.5       0          0          0          0         
J13              45.2       0          0          0          0         
J14              54.6       0          0          0          0         
J15              60.3       0          0          0          0         
J16              49         0          0          0          0         
J17              55.5       0          0          0          0         
J18              65.1       0          0          0          0         
J2               31.6       0          0          0          0         
J20              37.3       0          0          0          0         
J21              42.7       0          0          0          0         
J22              46.8       0          0          0          0         
J23              49.5       0          0          0          0         
J24              50.1       0          0          0          0         
J25              53.6       0          0          0          0         
J26              53.8       0          0          0          0         
J3               31.8       0          0          0          0         
J4               33.2       0          0          0          0         
J5               35.8       0          0          0          0         
J6               38         0          0          0          0         
J7               38.5       0          0          0          0         
J8               39.9       0          0          0          0         
J9               40.6       0          0          0          0

;;____________________________________________________________________________________________________
[OUTFALLS]
;;Name           Elevation  Type       Stage Data       Gated    Route To        
;;-------------- ---------- ---------- ---------------- -------- ----------------
O1               28         FREE                        NO

;;____________________________________________________________________________________________________
[CONDUITS]
;;Name           From Node        To Node          Length     Roughness  InOffset   OutOffset  InitFlow   MaxFlow   
;;-------------- ---------------- ---------------- ---------- ---------- ---------- ---------- ---------- ----------
C1               J1               O1               130        0.05       0          0          0          0         
C10              J10              J9               320        0.01       0          0          0          0         
C11              J11              J10              315        0.01       0          0          0          0         
C12              J12              J11              130        0.01       0          0          0          0         
C13              J13              J12              110        0.01       0          0          0          0         
C14              J13              J14              550        0.01       0          0          0          0         
C15              J15              J14              540        0.01       0          0          0          0         
C16              J16              J13              590        0.01       0          0          0          0         
C17              J17              J16              770        0.01       0          0          0          0         
C18              J18              J17              505        0.01       0          0          0          0         
C2               J2               J1               330        0.01       0          0          0          0         
C20              J20              J4               600        0.01       0          0          0          0         
C21              J21              J20              620        0.01       0          0          0          0         
C22              J22              J21              850        0.01       0          0          0          0         
C23              J23              J22              530        0.01       0          0          0          0         
C24              J24              J23              440        0.01       0          0          0          0         
C25              J25              J24              190        0.01       0          0          0          0         
C26              J26              J22              600        0.01       0          0          0          0         
C3               J3               J2               95         0.01       0          0          0          0         
C4               J4               J3               660        0.01       0          0          0          0         
C5               J5               J4               175        0.01       0          0          0          0         
C6               J6               J5               280        0.01       0          0          0          0         
C7               J7               J6               120        0.01       0          0          0          0         
C8               J8               J7               300        0.01       0          0          0          0         
C9               J9               J8               250        0.01       0          0          0          0

;;____________________________________________________________________________________________________
[XSECTIONS]
;;Link           Shape        Geom1            Geom2      Geom3      Geom4      Barrels    Culvert   
;;-------------- ------------ ---------------- ---------- ---------- ---------- ---------- ----------
C1               PARABOLIC    5                12         0          0          1                    
C10              RECT_CLOSED  1.5              1.7        0          0          1                    
C11              RECT_CLOSED  1.25             1.5        0          0          1                    
C12              RECT_CLOSED  1.25             1.5        0          0          1                    
C13              RECT_CLOSED  1.95             3.85       0          0          1                    
C14              CIRCULAR     0.6              0          0          0          1                    
C15              RECT_CLOSED  1.95             3.85       0          0          1                    
C16              PARABOLIC    1.95             3.85       0          0          1                    
C17              RECT_CLOSED  1.95             3.85       0          0          1                    
C18              RECT_CLOSED  1.95             3.85       0          0          1                    
C2               PARABOLIC    5                12         0          0          1                    
C20              RECT_CLOSED  1.25             4.5        0          0          1                    
C21              CIRCULAR     1.5              0          0          0          1                    
C22              CIRCULAR     1.8              0          0          0          1                    
C23              CIRCULAR     1.25             0          0          0          1                    
C24              CIRCULAR     1.5              0          0          0          1                    
C25              RECT_CLOSED  1.95             3.85       0          0          1                    
C26              CIRCULAR     1.25             0          0          0          1                    
C3               RECT_CLOSED  3.70             6          0          0          1                    
C4               RECT_CLOSED  3.60             5.85       0          0          1                    
C5               RECT_CLOSED  1.85             2.5        0          0          1                    
C6               RECT_CLOSED  1.85             2.5        0          0          1                    
C7               RECT_CLOSED  1.95             3.85       0          0          1                    
C8               RECT_CLOSED  1.85             2          0          0          1                    
C9               RECT_CLOSED  1.85             2          0          0          1

;;____________________________________________________________________________________________________
[TIMESERIES]
2018_01_05_S1 01/04/2018 10:25:00 0.0218
2018_01_05_S1 01/04/2018 10:30:00 0.0172
2018_01_05_S1 01/04/2018 10:35:00 0.7325
2018_01_05_S1 01/04/2018 10:40:00 0.0299
2018_01_05_S1 01/04/2018 10:45:00 0.0011
2018_01_05_S1 01/04/2018 10:50:00 0.0061
2018_01_05_S1 01/04/2018 10:55:00 0.0059
2018_01_05_S1 01/04/2018 11:00:00 0.0
2018_01_05_S1 01/04/2018 11:05:00 0.0036
2018_01_05_S1 01/04/2018 11:10:00 0.0457
2018_01_05_S1 01/04/2018 11:15:00 2.9849
2018_01_05_S1 01/04/2018 11:20:00 0.2204
2018_01_05_S1 01/04/2018 11:25:00 1.7196
2018_01_05_S1 01/04/2018 11:30:00 0.0259
2018_01_05_S1 01/04/2018 11:35:00 0.0
2018_01_05_S1 01/04/2018 11:40:00 0.0
2018_01_05_S1 01/04/2018 11:45:00 0.0
2018_01_05_S1 01/04/2018 11:50:00 0.0
2018_01_05_S1 01/04/2018 11:55:00 0.0
2018_01_05_S1 01/04/2018 12:00:00 0.0
2018_01_05_S1 01/04/2018 12:05:00 0.0
2018_01_05_S1 01/04/2018 12:10:00 0.0
2018_01_05_S1 01/04/2018 12:15:00 0.0
2018_01_05_S1 01/04/2018 12:20:00 0.0
2018_01_05_S1 01/04/2018 12:25:00 0.0
2018_01_05_S1 01/04/2018 12:30:00 0.0
2018_01_05_S1 01/04/2018 12:35:00 0.0006
2018_01_05_S1 01/04/2018 12:40:00 0.0
2018_01_05_S1 01/04/2018 12:45:00 0.0
2018_01_05_S1 01/04/2018 12:50:00 0.0
2018_01_05_S1 01/04/2018 12:55:00 0.0
2018_01_05_S1 01/04/2018 13:00:00 0.0
2018_01_05_S1 01/04/2018 13:05:00 0.0
2018_01_05_S1 01/04/2018 13:10:00 0.0
2018_01_05_S1 01/04/2018 13:15:00 0.0134
2018_01_05_S1 01/04/2018 13:20:00 0.0
2018_01_05_S1 01/04/2018 13:25:00 0.0
2018_01_05_S1 01/04/2018 13:30:00 0.0
2018_01_05_S1 01/04/2018 13:35:00 0.0
2018_01_05_S1 01/04/2018 13:40:00 0.0
2018_01_05_S1 01/04/2018 13:45:00 0.0
2018_01_05_S1 01/04/2018 13:50:00 0.0
2018_01_05_S1 01/04/2018 13:55:00 0.0
2018_01_05_S1 01/04/2018 14:00:00 0.005
2018_01_05_S1 01/04/2018 14:05:00 0.0026
2018_01_05_S1 01/04/2018 14:10:00 0.0017
2018_01_05_S1 01/04/2018 14:15:00 0.0045
2018_01_05_S1 01/04/2018 14:20:00 0.0046
2018_01_05_S1 01/04/2018 14:25:00 0.0092
2018_01_05_S1 01/04/2018 14:30:00 0.0093
2018_01_05_S1 01/04/2018 14:35:00 0.0016
2018_01_05_S1 01/04/2018 14:40:00 0.0129
2018_01_05_S1 01/04/2018 14:45:00 0.0
2018_01_05_S1 01/04/2018 14:50:00 0.0
2018_01_05_S1 01/04/2018 14:55:00 0.0
2018_01_05_S1 01/04/2018 15:00:00 0.0
2018_01_05_S1 01/04/2018 15:05:00 0.0
2018_01_05_S1 01/04/2018 15:10:00 0.0
2018_01_05_S1 01/04/2018 15:15:00 0.0
2018_01_05_S1 01/04/2018 15:20:00 0.0
2018_01_05_S1 01/04/2018 15:25:00 0.0
2018_01_05_S1 01/04/2018 15:30:00 0.0144
2018_01_05_S1 01/04/2018 15:35:00 0.1515
2018_01_05_S1 01/04/2018 15:40:00 0.0
2018_01_05_S1 01/04/2018 15:45:00 0.0
2018_01_05_S1 01/04/2018 15:50:00 0.0
2018_01_05_S1 01/04/2018 15:55:00 0.0126
2018_01_05_S1 01/04/2018 16:00:00 0.0884
2018_01_05_S1 01/04/2018 16:05:00 0.3244
2018_01_05_S1 01/04/2018 16:10:00 0.0011
2018_01_05_S1 01/04/2018 16:15:00 0.044
2018_01_05_S1 01/04/2018 16:20:00 0.1184
2018_01_05_S1 01/04/2018 16:25:00 0.0253
2018_01_05_S1 01/04/2018 16:30:00 0.0
2018_01_05_S1 01/04/2018 16:35:00 0.0
2018_01_05_S1 01/04/2018 16:40:00 0.0
2018_01_05_S1 01/04/2018 16:45:00 0.0
2018_01_05_S1 01/04/2018 16:50:00 0.0
2018_01_05_S1 01/04/2018 16:55:00 0.0
2018_01_05_S1 01/04/2018 17:00:00 0.0005
2018_01_05_S1 01/04/2018 17:05:00 0.0
2018_01_05_S1 01/04/2018 17:10:00 0.9419
2018_01_05_S1 01/04/2018 17:15:00 0.0
2018_01_05_S1 01/04/2018 17:20:00 0.0
2018_01_05_S1 01/04/2018 17:25:00 0.0
2018_01_05_S1 01/04/2018 17:30:00 0.0
2018_01_05_S1 01/04/2018 17:35:00 0.4123
2018_01_05_S1 01/04/2018 17:40:00 0.4562
2018_01_05_S1 01/04/2018 17:45:00 1.1529
2018_01_05_S1 01/04/2018 17:50:00 0.091
2018_01_05_S1 01/04/2018 17:55:00 0.1479
2018_01_05_S1 01/04/2018 18:00:00 0.3548
2018_01_05_S1 01/04/2018 18:05:00 0.3912
2018_01_05_S1 01/04/2018 18:10:00 0.2623
2018_01_05_S1 01/04/2018 18:15:00 0.1585
2018_01_05_S1 01/04/2018 18:20:00 0.0093
2018_01_05_S1 01/04/2018 18:25:00 0.0
2018_01_05_S1 01/04/2018 18:30:00 0.0
2018_01_05_S1 01/04/2018 18:35:00 0.0
2018_01_05_S1 01/04/2018 18:40:00 0.0
2018_01_05_S1 01/04/2018 18:45:00 0.0
2018_01_05_S1 01/04/2018 18:50:00 0.0
2018_01_05_S1 01/04/2018 18:55:00 0.0
2018_01_05_S1 01/04/2018 19:00:00 0.0
2018_01_05_S1 01/04/2018 19:05:00 0.0
2018_01_05_S1 01/04/2018 19:10:00 0.0
2018_01_05_S1 01/04/2018 19:15:00 0.0
2018_01_05_S1 01/04/2018 19:20:00 0.0
2018_01_05_S1 01/04/2018 19:25:00 0.0
2018_01_05_S1 01/04/2018 19:30:00 0.0
2018_01_05_S1 01/04/2018 19:35:00 0.0043
2018_01_05_S1 01/04/2018 19:40:00 0.0053
2018_01_05_S1 01/04/2018 19:45:00 0.0
2018_01_05_S1 01/04/2018 19:50:00 0.0
2018_01_05_S1 01/04/2018 19:55:00 0.0
2018_01_05_S1 01/04/2018 20:00:00 0.0
2018_01_05_S1 01/04/2018 20:05:00 0.0
2018_01_05_S1 01/04/2018 20:10:00 0.0
2018_01_05_S1 01/04/2018 20:15:00 0.0
2018_01_05_S1 01/04/2018 20:20:00 0.0
2018_01_05_S1 01/04/2018 20:25:00 0.0
2018_01_05_S1 01/04/2018 20:30:00 0.0
2018_01_05_S1 01/04/2018 20:35:00 0.0
2018_01_05_S1 01/04/2018 20:40:00 0.0
2018_01_05_S1 01/04/2018 20:45:00 0.0
2018_01_05_S1 01/04/2018 20:50:00 0.0
2018_01_05_S1 01/04/2018 20:55:00 0.0
2018_01_05_S1 01/04/2018 21:00:00 0.0
2018_01_05_S1 01/04/2018 21:05:00 0.0
2018_01_05_S1 01/04/2018 21:10:00 0.0
2018_01_05_S1 01/04/2018 21:15:00 0.0
2018_01_05_S1 01/04/2018 21:20:00 0.0
2018_01_05_S1 01/04/2018 21:25:00 0.044
2018_01_05_S1 01/04/2018 21:30:00 0.0938
2018_01_05_S1 01/04/2018 21:35:00 0.0141
2018_01_05_S1 01/04/2018 21:40:00 0.0025
2018_01_05_S1 01/04/2018 21:45:00 0.0068
2018_01_05_S1 01/04/2018 21:50:00 0.0
2018_01_05_S1 01/04/2018 21:55:00 0.0
2018_01_05_S1 01/04/2018 22:00:00 0.0
2018_01_05_S1 01/04/2018 22:05:00 0.0
2018_01_05_S1 01/04/2018 22:10:00 0.0
2018_01_05_S1 01/04/2018 22:15:00 0.0
2018_01_05_S1 01/04/2018 22:20:00 0.0
2018_01_05_S1 01/04/2018 22:25:00 0.0
2018_01_05_S1 01/04/2018 22:30:00 0.0
2018_01_05_S1 01/04/2018 22:35:00 0.0
2018_01_05_S1 01/04/2018 22:40:00 0.0
2018_01_05_S1 01/04/2018 22:45:00 0.0
2018_01_05_S1 01/04/2018 22:50:00 0.0
2018_01_05_S1 01/04/2018 22:55:00 0.0
2018_01_05_S1 01/04/2018 23:00:00 0.0
2018_01_05_S1 01/04/2018 23:05:00 0.0
2018_01_05_S1 01/04/2018 23:10:00 0.0
2018_01_05_S1 01/04/2018 23:15:00 0.0
2018_01_05_S1 01/04/2018 23:20:00 0.0
2018_01_05_S1 01/04/2018 23:25:00 0.0
2018_01_05_S1 01/04/2018 23:30:00 0.0
2018_01_05_S1 01/04/2018 23:35:00 0.0
2018_01_05_S1 01/04/2018 23:40:00 0.0
2018_01_05_S1 01/04/2018 23:45:00 0.0
2018_01_05_S1 01/04/2018 23:50:00 0.0
2018_01_05_S1 01/04/2018 23:55:00 0.0
2018_01_05_S1 01/05/2018 00:00:00 0.0
2018_01_05_S1 01/05/2018 00:05:00 0.0
2018_01_05_S1 01/05/2018 00:10:00 0.0
2018_01_05_S1 01/05/2018 00:15:00 0.0
2018_01_05_S1 01/05/2018 00:20:00 0.0
2018_01_05_S1 01/05/2018 00:25:00 0.0
2018_01_05_S1 01/05/2018 00:30:00 0.0
2018_01_05_S1 01/05/2018 00:35:00 0.0
2018_01_05_S1 01/05/2018 00:40:00 0.0
2018_01_05_S1 01/05/2018 00:45:00 0.0
2018_01_05_S1 01/05/2018 00:50:00 0.1408
2018_01_05_S1 01/05/2018 00:55:00 0.1713
2018_01_05_S1 01/05/2018 01:00:00 0.0024
2018_01_05_S1 01/05/2018 01:05:00 0.1435
2018_01_05_S1 01/05/2018 01:10:00 0.0229
2018_01_05_S1 01/05/2018 01:15:00 0.0006
2018_01_05_S1 01/05/2018 01:20:00 0.1534
2018_01_05_S1 01/05/2018 01:25:00 0.1009
2018_01_05_S1 01/05/2018 01:30:00 0.0084
2018_01_05_S1 01/05/2018 01:35:00 0.0216
2018_01_05_S1 01/05/2018 01:40:00 0.0006
2018_01_05_S1 01/05/2018 01:45:00 0.0619
2018_01_05_S1 01/05/2018 01:50:00 0.257
2018_01_05_S1 01/05/2018 01:55:00 0.0
2018_01_05_S1 01/05/2018 02:00:00 0.0111
2018_01_05_S1 01/05/2018 02:05:00 0.0097
2018_01_05_S1 01/05/2018 02:10:00 0.0102
2018_01_05_S1 01/05/2018 02:15:00 0.0022
2018_01_05_S1 01/05/2018 02:20:00 0.0022
2018_01_05_S1 01/05/2018 02:25:00 0.0
2018_01_05_S1 01/05/2018 02:30:00 0.0
2018_01_05_S1 01/05/2018 02:35:00 0.0
2018_01_05_S1 01/05/2018 02:40:00 0.0
2018_01_05_S1 01/05/2018 02:45:00 0.0
2018_01_05_S1 01/05/2018 02:50:00 0.0
2018_01_05_S1 01/05/2018 02:55:00 0.0
2018_01_05_S1 01/05/2018 03:00:00 0.0
2018_01_05_S1 01/05/2018 03:05:00 0.3419
2018_01_05_S1 01/05/2018 03:10:00 0.638
2018_01_05_S1 01/05/2018 03:15:00 0.6643
2018_01_05_S1 01/05/2018 03:20:00 1.0311
2018_01_05_S1 01/05/2018 03:25:00 0.1959
2018_01_05_S1 01/05/2018 03:30:00 0.1792
2018_01_05_S1 01/05/2018 03:35:00 0.0617
2018_01_05_S1 01/05/2018 03:40:00 0.0
2018_01_05_S1 01/05/2018 03:45:00 0.0069
2018_01_05_S1 01/05/2018 03:50:00 0.0505
2018_01_05_S1 01/05/2018 03:55:00 0.0652
2018_01_05_S1 01/05/2018 04:00:00 0.0525
2018_01_05_S1 01/05/2018 04:05:00 0.0
2018_01_05_S1 01/05/2018 04:10:00 0.0006
2018_01_05_S1 01/05/2018 04:15:00 0.0052
2018_01_05_S1 01/05/2018 04:20:00 0.046
2018_01_05_S1 01/05/2018 04:25:00 0.0729
2018_01_05_S1 01/05/2018 04:30:00 0.0877
2018_01_05_S1 01/05/2018 04:35:00 1.076
2018_01_05_S1 01/05/2018 04:40:00 0.0143
2018_01_05_S1 01/05/2018 04:45:00 0.09
2018_01_05_S1 01/05/2018 04:50:00 0.0166
2018_01_05_S1 01/05/2018 04:55:00 0.0
2018_01_05_S1 01/05/2018 05:00:00 0.0626
2018_01_05_S1 01/05/2018 05:05:00 0.0038
2018_01_05_S1 01/05/2018 05:10:00 0.0021
2018_01_05_S1 01/05/2018 05:15:00 0.0
2018_01_05_S1 01/05/2018 05:20:00 0.0178
2018_01_05_S1 01/05/2018 05:25:00 0.0
2018_01_05_S1 01/05/2018 05:30:00 0.0
2018_01_05_S1 01/05/2018 05:35:00 0.0
2018_01_05_S1 01/05/2018 05:40:00 0.0
2018_01_05_S1 01/05/2018 05:45:00 0.0143
2018_01_05_S1 01/05/2018 05:50:00 0.0
2018_01_05_S1 01/05/2018 05:55:00 0.011
2018_01_05_S1 01/05/2018 06:00:00 0.1155
2018_01_05_S1 01/05/2018 06:05:00 0.4886
2018_01_05_S1 01/05/2018 06:10:00 0.0028
2018_01_05_S1 01/05/2018 06:15:00 0.2626
2018_01_05_S1 01/05/2018 06:20:00 2.1434
2018_01_05_S1 01/05/2018 06:25:00 0.6937
2018_01_05_S1 01/05/2018 06:30:00 0.924
2018_01_05_S1 01/05/2018 06:35:00 0.7646
2018_01_05_S1 01/05/2018 06:40:00 0.4539
2018_01_05_S1 01/05/2018 06:45:00 0.4981
2018_01_05_S1 01/05/2018 06:50:00 1.1119
2018_01_05_S1 01/05/2018 06:55:00 0.0982
2018_01_05_S1 01/05/2018 07:00:00 0.2053
2018_01_05_S1 01/05/2018 07:05:00 0.0627
2018_01_05_S1 01/05/2018 07:10:00 0.0134
2018_01_05_S1 01/05/2018 07:15:00 0.0
2018_01_05_S1 01/05/2018 07:20:00 0.0
2018_01_05_S1 01/05/2018 07:25:00 0.0
2018_01_05_S1 01/05/2018 07:30:00 0.0
2018_01_05_S1 01/05/2018 07:35:00 0.0
2018_01_05_S1 01/05/2018 07:40:00 0.0
2018_01_05_S1 01/05/2018 07:45:00 0.0
2018_01_05_S1 01/05/2018 07:50:00 0.0
2018_01_05_S1 01/05/2018 07:55:00 0.0
2018_01_05_S1 01/05/2018 08:00:00 0.0339
2018_01_05_S1 01/05/2018 08:05:00 0.0
2018_01_05_S1 01/05/2018 08:10:00 0.0
2018_01_05_S1 01/05/2018 08:15:00 0.0402
2018_01_05_S1 01/05/2018 08:20:00 0.0095
2018_01_05_S1 01/05/2018 08:25:00 0.1074
2018_01_05_S1 01/05/2018 08:30:00 0.2835
2018_01_05_S1 01/05/2018 08:35:00 0.7662
2018_01_05_S1 01/05/2018 08:40:00 0.5832
2018_01_05_S1 01/05/2018 08:45:00 3.4701
2018_01_05_S1 01/05/2018 08:50:00 1.0663
2018_01_05_S1 01/05/2018 08:55:00 2.5361
2018_01_05_S1 01/05/2018 09:00:00 0.1584
2018_01_05_S1 01/05/2018 09:05:00 0.9024
2018_01_05_S1 01/05/2018 09:10:00 2.1872
2018_01_05_S1 01/05/2018 09:15:00 0.2087
2018_01_05_S1 01/05/2018 09:20:00 0.0764
2018_01_05_S1 01/05/2018 09:25:00 0.0
2018_01_05_S1 01/05/2018 09:30:00 0.0
2018_01_05_S1 01/05/2018 09:35:00 0.0526
2018_01_05_S1 01/05/2018 09:40:00 2.6871
2018_01_05_S1 01/05/2018 09:45:00 0.0434
2018_01_05_S1 01/05/2018 09:50:00 0.6521
2018_01_05_S1 01/05/2018 09:55:00 4.4162
2018_01_05_S1 01/05/2018 10:00:00 1.9799
2018_01_05_S1 01/05/2018 10:05:00 0.8944
2018_01_05_S1 01/05/2018 10:10:00 0.0
2018_01_05_S1 01/05/2018 10:15:00 0.0
2018_01_05_S1 01/05/2018 10:20:00 0.0
2018_01_05_S1 01/05/2018 10:25:00 0.0861
2018_01_05_S1 01/05/2018 10:30:00 0.8199
2018_01_05_S1 01/05/2018 10:35:00 0.0197
2018_01_05_S1 01/05/2018 10:40:00 0.2385
2018_01_05_S1 01/05/2018 10:45:00 2.3158
2018_01_05_S1 01/05/2018 10:50:00 0.1338
2018_01_05_S1 01/05/2018 10:55:00 0.0039
2018_01_05_S1 01/05/2018 11:00:00 0.0564
2018_01_05_S1 01/05/2018 11:05:00 0.1864
2018_01_05_S1 01/05/2018 11:10:00 0.2052
2018_01_05_S1 01/05/2018 11:15:00 0.5328
2018_01_05_S1 01/05/2018 11:20:00 0.1337
2018_01_05_S1 01/05/2018 11:25:00 0.1057
2018_01_05_S1 01/05/2018 11:30:00 0.136
2018_01_05_S1 01/05/2018 11:35:00 0.4865
2018_01_05_S1 01/05/2018 11:40:00 0.1559
2018_01_05_S1 01/05/2018 11:45:00 0.0038
2018_01_05_S1 01/05/2018 11:50:00 0.0
2018_01_05_S1 01/05/2018 11:55:00 0.0098
2018_01_05_S1 01/05/2018 12:00:00 0.0721
2018_01_05_S1 01/05/2018 12:05:00 0.0876
2018_01_05_S1 01/05/2018 12:10:00 1.2554
2018_01_05_S1 01/05/2018 12:15:00 0.5697
2018_01_05_S1 01/05/2018 12:20:00 0.5804
2018_01_05_S1 01/05/2018 12:25:00 0.2489
2018_01_05_S1 01/05/2018 12:30:00 0.0583
2018_01_05_S1 01/05/2018 12:35:00 0.6949
2018_01_05_S1 01/05/2018 12:40:00 0.2759
2018_01_05_S1 01/05/2018 12:45:00 0.713
2018_01_05_S1 01/05/2018 12:50:00 0.0
2018_01_05_S1 01/05/2018 12:55:00 0.0027
2018_01_05_S1 01/05/2018 13:00:00 0.0
2018_01_05_S1 01/05/2018 13:05:00 0.098
2018_01_05_S1 01/05/2018 13:10:00 0.0
2018_01_05_S1 01/05/2018 13:15:00 0.0
2018_01_05_S1 01/05/2018 13:20:00 0.0297
2018_01_05_S1 01/05/2018 13:25:00 0.0567
2018_01_05_S1 01/05/2018 13:30:00 0.0091
2018_01_05_S1 01/05/2018 13:35:00 0.0
2018_01_05_S1 01/05/2018 13:40:00 0.001
2018_01_05_S1 01/05/2018 13:45:00 0.4727
2018_01_05_S1 01/05/2018 13:50:00 0.2762
2018_01_05_S1 01/05/2018 13:55:00 2.5946
2018_01_05_S1 01/05/2018 14:00:00 3.6015
2018_01_05_S1 01/05/2018 14:05:00 3.1622
2018_01_05_S1 01/05/2018 14:10:00 0.0275
2018_01_05_S1 01/05/2018 14:15:00 0.9496
2018_01_05_S1 01/05/2018 14:20:00 0.0
2018_01_05_S1 01/05/2018 14:25:00 0.0
2018_01_05_S1 01/05/2018 14:30:00 0.0029
2018_01_05_S1 01/05/2018 14:35:00 0.0311
2018_01_05_S1 01/05/2018 14:40:00 0.6856
2018_01_05_S1 01/05/2018 14:45:00 0.5598
2018_01_05_S1 01/05/2018 14:50:00 0.0
2018_01_05_S1 01/05/2018 14:55:00 0.0011
2018_01_05_S1 01/05/2018 15:00:00 0.0
2018_01_05_S1 01/05/2018 15:05:00 0.0
2018_01_05_S1 01/05/2018 15:10:00 0.0
2018_01_05_S1 01/05/2018 15:15:00 0.0793
2018_01_05_S1 01/05/2018 15:20:00 0.2633
2018_01_05_S1 01/05/2018 15:25:00 0.0
2018_01_05_S1 01/05/2018 15:30:00 0.0
2018_01_05_S1 01/05/2018 15:35:00 0.0905
2018_01_05_S1 01/05/2018 15:40:00 0.0137
2018_01_05_S1 01/05/2018 15:45:00 0.0
2018_01_05_S1 01/05/2018 15:50:00 0.0
2018_01_05_S1 01/05/2018 15:55:00 0.0
2018_01_05_S1 01/05/2018 16:00:00 0.0
2018_01_05_S1 01/05/2018 16:05:00 0.0
2018_01_05_S1 01/05/2018 16:10:00 0.0
2018_01_05_S1 01/05/2018 16:15:00 0.0
2018_01_05_S1 01/05/2018 16:20:00 0.0
2018_01_05_S1 01/05/2018 16:25:00 0.0
2018_01_05_S1 01/05/2018 16:30:00 0.0
2018_01_05_S1 01/05/2018 16:35:00 0.0
2018_01_05_S1 01/05/2018 16:40:00 0.0
2018_01_05_S1 01/05/2018 16:45:00 0.0
2018_01_05_S1 01/05/2018 16:50:00 0.0
2018_01_05_S1 01/05/2018 16:55:00 0.0
2018_01_05_S1 01/05/2018 17:00:00 0.0
2018_01_05_S1 01/05/2018 17:05:00 0.0
2018_01_05_S1 01/05/2018 17:10:00 0.0
2018_01_05_S1 01/05/2018 17:15:00 0.0
2018_01_05_S1 01/05/2018 17:20:00 0.0
2018_01_05_S1 01/05/2018 17:25:00 0.0
2018_01_05_S1 01/05/2018 17:30:00 0.0
2018_01_05_S1 01/05/2018 17:35:00 0.0
2018_01_05_S1 01/05/2018 17:40:00 0.0
2018_01_05_S1 01/05/2018 17:45:00 0.0
2018_01_05_S1 01/05/2018 17:50:00 0.0
2018_01_05_S1 01/05/2018 17:55:00 0.0146
2018_01_05_S1 01/05/2018 18:00:00 0.007
2018_01_05_S1 01/05/2018 18:05:00 0.0
2018_01_05_S1 01/05/2018 18:10:00 0.0
2018_01_05_S1 01/05/2018 18:15:00 0.0409
2018_01_05_S1 01/05/2018 18:20:00 0.0027
2018_01_05_S1 01/05/2018 18:25:00 0.0
2018_01_05_S1 01/05/2018 18:30:00 0.0
2018_01_05_S1 01/05/2018 18:35:00 0.0
2018_01_05_S1 01/05/2018 18:40:00 0.0
2018_01_05_S1 01/05/2018 18:45:00 0.0
2018_01_05_S1 01/05/2018 18:50:00 0.0
2018_01_05_S1 01/05/2018 18:55:00 0.0
2018_01_05_S1 01/05/2018 19:00:00 0.0
2018_01_05_S1 01/05/2018 19:05:00 0.0
2018_01_05_S1 01/05/2018 19:10:00 0.0
2018_01_05_S1 01/05/2018 19:15:00 0.0
2018_01_05_S1 01/05/2018 19:20:00 0.0
2018_01_05_S1 01/05/2018 19:25:00 0.0
2018_01_05_S1 01/05/2018 19:30:00 0.0
2018_01_05_S1 01/05/2018 19:35:00 0.0
2018_01_05_S1 01/05/2018 19:40:00 0.0048
2018_01_05_S1 01/05/2018 19:45:00 0.0715
2018_01_05_S1 01/05/2018 19:50:00 0.0204
2018_01_05_S1 01/05/2018 19:55:00 0.0007
2018_01_05_S1 01/05/2018 20:00:00 0.0016
2018_01_05_S1 01/05/2018 20:05:00 0.0
2018_01_05_S1 01/05/2018 20:10:00 0.0
2018_01_05_S1 01/05/2018 20:15:00 0.0
2018_01_05_S1 01/05/2018 20:20:00 0.0
2018_01_05_S1 01/05/2018 20:25:00 0.0
2018_01_05_S1 01/05/2018 20:30:00 0.0
2018_01_05_S1 01/05/2018 20:35:00 0.0
2018_01_05_S1 01/05/2018 20:40:00 0.0
2018_01_05_S1 01/05/2018 20:45:00 0.0
2018_01_05_S1 01/05/2018 20:50:00 0.4716
2018_01_05_S1 01/05/2018 20:55:00 0.0
2018_01_05_S1 01/05/2018 21:00:00 0.0
2018_01_05_S1 01/05/2018 21:05:00 0.0
2018_01_05_S1 01/05/2018 21:10:00 0.0
2018_01_05_S1 01/05/2018 21:15:00 0.0
2018_01_05_S1 01/05/2018 21:20:00 0.0
2018_01_05_S1 01/05/2018 21:25:00 0.0
2018_01_05_S1 01/05/2018 21:30:00 0.0
2018_01_05_S1 01/05/2018 21:35:00 0.0
2018_01_05_S1 01/05/2018 21:40:00 0.0
2018_01_05_S1 01/05/2018 21:45:00 0.0
2018_01_05_S1 01/05/2018 21:50:00 0.0
2018_01_05_S1 01/05/2018 21:55:00 0.0
2018_01_05_S1 01/05/2018 22:00:00 0.0
2018_01_05_S1 01/05/2018 22:05:00 0.0
2018_01_05_S1 01/05/2018 22:10:00 0.0
2018_01_05_S1 01/05/2018 22:15:00 0.0
2018_01_05_S1 01/05/2018 22:20:00 0.0
2018_01_05_S1 01/05/2018 22:25:00 0.0007
2018_01_05_S1 01/05/2018 22:30:00 0.0288
2018_01_05_S1 01/05/2018 22:35:00 0.1538
2018_01_05_S1 01/05/2018 22:40:00 0.1758
2018_01_05_S1 01/05/2018 22:45:00 0.0
2018_01_05_S1 01/05/2018 22:50:00 0.0
2018_01_05_S1 01/05/2018 22:55:00 0.0
2018_01_05_S1 01/05/2018 23:00:00 0.0
2018_01_05_S1 01/05/2018 23:05:00 0.0
2018_01_05_S1 01/05/2018 23:10:00 0.0
2018_01_05_S1 01/05/2018 23:15:00 0.0
2018_01_05_S1 01/05/2018 23:20:00 0.0
2018_01_05_S1 01/05/2018 23:25:00 0.0
2018_01_05_S1 01/05/2018 23:30:00 0.0
2018_01_05_S1 01/05/2018 23:35:00 0.0
2018_01_05_S1 01/05/2018 23:40:00 0.0
2018_01_05_S1 01/05/2018 23:45:00 0.0475
2018_01_05_S1 01/05/2018 23:50:00 0.0058
2018_01_05_S1 01/05/2018 23:55:00 0.0357
2018_01_05_S1 01/06/2018 00:00:00 0.0032
2018_01_05_S1 01/06/2018 00:05:00 0.0225
2018_01_05_S1 01/06/2018 00:10:00 0.0198
2018_01_05_S1 01/06/2018 00:15:00 0.1827
2018_01_05_S1 01/06/2018 00:20:00 0.0
2018_01_05_S1 01/06/2018 00:25:00 0.0
2018_01_05_S1 01/06/2018 00:30:00 0.0
2018_01_05_S1 01/06/2018 00:35:00 0.0
2018_01_05_S1 01/06/2018 00:40:00 0.0
2018_01_05_S1 01/06/2018 00:45:00 0.0
2018_01_05_S1 01/06/2018 00:50:00 0.0
2018_01_05_S1 01/06/2018 00:55:00 0.0
2018_01_05_S1 01/06/2018 01:00:00 0.0318
2018_01_05_S1 01/06/2018 01:05:00 0.0305
2018_01_05_S1 01/06/2018 01:10:00 0.0
2018_01_05_S1 01/06/2018 01:15:00 0.0
2018_01_05_S1 01/06/2018 01:20:00 0.0
2018_01_05_S1 01/06/2018 01:25:00 0.0
2018_01_05_S1 01/06/2018 01:30:00 0.0
2018_01_05_S1 01/06/2018 01:35:00 0.0
2018_01_05_S1 01/06/2018 01:40:00 0.0
2018_01_05_S1 01/06/2018 01:45:00 0.0
2018_01_05_S1 01/06/2018 01:50:00 0.0
2018_01_05_S1 01/06/2018 01:55:00 0.0
2018_01_05_S1 01/06/2018 02:00:00 0.0
2018_01_05_S1 01/06/2018 02:05:00 0.0
2018_01_05_S1 01/06/2018 02:10:00 0.0
2018_01_05_S1 01/06/2018 02:15:00 0.0
2018_01_05_S1 01/06/2018 02:20:00 0.0
2018_01_05_S1 01/06/2018 02:25:00 0.0
2018_01_05_S1 01/06/2018 02:30:00 0.0
2018_01_05_S1 01/06/2018 02:35:00 0.0
2018_01_05_S1 01/06/2018 02:40:00 0.0344
2018_01_05_S1 01/06/2018 02:45:00 0.1906
2018_01_05_S1 01/06/2018 02:50:00 0.0
2018_01_05_S1 01/06/2018 02:55:00 0.0
2018_01_05_S1 01/06/2018 03:00:00 0.0
2018_01_05_S1 01/06/2018 03:05:00 0.0
2018_01_05_S1 01/06/2018 03:10:00 0.0
2018_01_05_S1 01/06/2018 03:15:00 0.0
2018_01_05_S1 01/06/2018 03:20:00 0.0
2018_01_05_S1 01/06/2018 03:25:00 0.0
2018_01_05_S1 01/06/2018 03:30:00 0.0
2018_01_05_S1 01/06/2018 03:35:00 0.0
2018_01_05_S1 01/06/2018 03:40:00 0.0
2018_01_05_S1 01/06/2018 03:45:00 0.0
2018_01_05_S1 01/06/2018 03:50:00 0.0
2018_01_05_S1 01/06/2018 03:55:00 0.0
2018_01_05_S1 01/06/2018 04:00:00 0.0
2018_01_05_S1 01/06/2018 04:05:00 0.0
2018_01_05_S1 01/06/2018 04:10:00 0.0
2018_01_05_S1 01/06/2018 04:15:00 0.0
2018_01_05_S1 01/06/2018 04:20:00 0.003
2018_01_05_S1 01/06/2018 04:25:00 0.0
2018_01_05_S1 01/06/2018 04:30:00 0.0
2018_01_05_S1 01/06/2018 04:35:00 0.0
2018_01_05_S1 01/06/2018 04:40:00 0.0
2018_01_05_S1 01/06/2018 04:45:00 0.0
2018_01_05_S1 01/06/2018 04:50:00 0.0
2018_01_05_S1 01/06/2018 04:55:00 0.0
2018_01_05_S1 01/06/2018 05:00:00 0.0
2018_01_05_S1 01/06/2018 05:05:00 0.0
2018_01_05_S1 01/06/2018 05:10:00 0.0
2018_01_05_S1 01/06/2018 05:15:00 0.0
2018_01_05_S1 01/06/2018 05:20:00 0.0
2018_01_05_S1 01/06/2018 05:25:00 0.0006
2018_01_05_S1 01/06/2018 05:30:00 0.0417
2018_01_05_S1 01/06/2018 05:35:00 0.1062
2018_01_05_S1 01/06/2018 05:40:00 0.0
2018_01_05_S1 01/06/2018 05:45:00 0.0
2018_01_05_S1 01/06/2018 05:50:00 0.0
2018_01_05_S1 01/06/2018 05:55:00 0.0
2018_01_05_S1 01/06/2018 06:00:00 0.0
2018_01_05_S1 01/06/2018 06:05:00 0.0353
2018_01_05_S1 01/06/2018 06:10:00 0.0091
2018_01_05_S1 01/06/2018 06:15:00 0.0211
2018_01_05_S1 01/06/2018 06:20:00 0.0224
2018_01_05_S1 01/06/2018 06:25:00 0.006
2018_01_05_S1 01/06/2018 06:30:00 0.0
2018_01_05_S1 01/06/2018 06:35:00 0.001
2018_01_05_S1 01/06/2018 06:40:00 0.004
2018_01_05_S1 01/06/2018 06:45:00 0.0456
2018_01_05_S1 01/06/2018 06:50:00 0.0785
2018_01_05_S1 01/06/2018 06:55:00 0.0559
2018_01_05_S1 01/06/2018 07:00:00 0.0298
2018_01_05_S1 01/06/2018 07:05:00 0.0051
2018_01_05_S1 01/06/2018 07:10:00 0.0
2018_01_05_S1 01/06/2018 07:15:00 0.0
2018_01_05_S1 01/06/2018 07:20:00 0.0
2018_01_05_S1 01/06/2018 07:25:00 0.0
2018_01_05_S1 01/06/2018 07:30:00 0.0
2018_01_05_S1 01/06/2018 07:35:00 0.026
2018_01_05_S1 01/06/2018 07:40:00 0.0514
2018_01_05_S1 01/06/2018 07:45:00 0.0166
2018_01_05_S1 01/06/2018 07:50:00 0.0736
2018_01_05_S1 01/06/2018 07:55:00 0.0
2018_01_05_S1 01/06/2018 08:00:00 0.0

2018_01_05_S2 01/04/2018 10:25:00 0.028
2018_01_05_S2 01/04/2018 10:30:00 0.0274
2018_01_05_S2 01/04/2018 10:35:00 0.4589
2018_01_05_S2 01/04/2018 10:40:00 0.0161
2018_01_05_S2 01/04/2018 10:45:00 0.0031
2018_01_05_S2 01/04/2018 10:50:00 0.0012
2018_01_05_S2 01/04/2018 10:55:00 0.0046
2018_01_05_S2 01/04/2018 11:00:00 0.0
2018_01_05_S2 01/04/2018 11:05:00 0.111
2018_01_05_S2 01/04/2018 11:10:00 0.1589
2018_01_05_S2 01/04/2018 11:15:00 5.3272
2018_01_05_S2 01/04/2018 11:20:00 0.1468
2018_01_05_S2 01/04/2018 11:25:00 1.1722
2018_01_05_S2 01/04/2018 11:30:00 0.0053
2018_01_05_S2 01/04/2018 11:35:00 0.0
2018_01_05_S2 01/04/2018 11:40:00 0.0
2018_01_05_S2 01/04/2018 11:45:00 0.0
2018_01_05_S2 01/04/2018 11:50:00 0.0
2018_01_05_S2 01/04/2018 11:55:00 0.0
2018_01_05_S2 01/04/2018 12:00:00 0.0
2018_01_05_S2 01/04/2018 12:05:00 0.0
2018_01_05_S2 01/04/2018 12:10:00 0.0
2018_01_05_S2 01/04/2018 12:15:00 0.0
2018_01_05_S2 01/04/2018 12:20:00 0.0
2018_01_05_S2 01/04/2018 12:25:00 0.0
2018_01_05_S2 01/04/2018 12:30:00 0.0
2018_01_05_S2 01/04/2018 12:35:00 0.001
2018_01_05_S2 01/04/2018 12:40:00 0.0
2018_01_05_S2 01/04/2018 12:45:00 0.0
2018_01_05_S2 01/04/2018 12:50:00 0.0
2018_01_05_S2 01/04/2018 12:55:00 0.0
2018_01_05_S2 01/04/2018 13:00:00 0.0
2018_01_05_S2 01/04/2018 13:05:00 0.0
2018_01_05_S2 01/04/2018 13:10:00 0.0
2018_01_05_S2 01/04/2018 13:15:00 0.013
2018_01_05_S2 01/04/2018 13:20:00 0.0
2018_01_05_S2 01/04/2018 13:25:00 0.0
2018_01_05_S2 01/04/2018 13:30:00 0.0
2018_01_05_S2 01/04/2018 13:35:00 0.0
2018_01_05_S2 01/04/2018 13:40:00 0.0
2018_01_05_S2 01/04/2018 13:45:00 0.0
2018_01_05_S2 01/04/2018 13:50:00 0.0
2018_01_05_S2 01/04/2018 13:55:00 0.0
2018_01_05_S2 01/04/2018 14:00:00 0.0035
2018_01_05_S2 01/04/2018 14:05:00 0.0
2018_01_05_S2 01/04/2018 14:10:00 0.0026
2018_01_05_S2 01/04/2018 14:15:00 0.0046
2018_01_05_S2 01/04/2018 14:20:00 0.0025
2018_01_05_S2 01/04/2018 14:25:00 0.0077
2018_01_05_S2 01/04/2018 14:30:00 0.0067
2018_01_05_S2 01/04/2018 14:35:00 0.0015
2018_01_05_S2 01/04/2018 14:40:00 0.0112
2018_01_05_S2 01/04/2018 14:45:00 0.0
2018_01_05_S2 01/04/2018 14:50:00 0.0
2018_01_05_S2 01/04/2018 14:55:00 0.0
2018_01_05_S2 01/04/2018 15:00:00 0.0
2018_01_05_S2 01/04/2018 15:05:00 0.0
2018_01_05_S2 01/04/2018 15:10:00 0.0
2018_01_05_S2 01/04/2018 15:15:00 0.0
2018_01_05_S2 01/04/2018 15:20:00 0.0
2018_01_05_S2 01/04/2018 15:25:00 0.0
2018_01_05_S2 01/04/2018 15:30:00 0.0354
2018_01_05_S2 01/04/2018 15:35:00 0.0875
2018_01_05_S2 01/04/2018 15:40:00 0.0
2018_01_05_S2 01/04/2018 15:45:00 0.0
2018_01_05_S2 01/04/2018 15:50:00 0.0
2018_01_05_S2 01/04/2018 15:55:00 0.0275
2018_01_05_S2 01/04/2018 16:00:00 0.0824
2018_01_05_S2 01/04/2018 16:05:00 0.225
2018_01_05_S2 01/04/2018 16:10:00 0.0
2018_01_05_S2 01/04/2018 16:15:00 0.0394
2018_01_05_S2 01/04/2018 16:20:00 0.1234
2018_01_05_S2 01/04/2018 16:25:00 0.0243
2018_01_05_S2 01/04/2018 16:30:00 0.0057
2018_01_05_S2 01/04/2018 16:35:00 0.0
2018_01_05_S2 01/04/2018 16:40:00 0.0
2018_01_05_S2 01/04/2018 16:45:00 0.0
2018_01_05_S2 01/04/2018 16:50:00 0.0
2018_01_05_S2 01/04/2018 16:55:00 0.0
2018_01_05_S2 01/04/2018 17:00:00 0.0016
2018_01_05_S2 01/04/2018 17:05:00 0.0
2018_01_05_S2 01/04/2018 17:10:00 0.8171
2018_01_05_S2 01/04/2018 17:15:00 0.0
2018_01_05_S2 01/04/2018 17:20:00 0.0
2018_01_05_S2 01/04/2018 17:25:00 0.0
2018_01_05_S2 01/04/2018 17:30:00 0.004
2018_01_05_S2 01/04/2018 17:35:00 0.3167
2018_01_05_S2 01/04/2018 17:40:00 0.3349
2018_01_05_S2 01/04/2018 17:45:00 0.7098
2018_01_05_S2 01/04/2018 17:50:00 0.23
2018_01_05_S2 01/04/2018 17:55:00 0.1224
2018_01_05_S2 01/04/2018 18:00:00 0.3403
2018_01_05_S2 01/04/2018 18:05:00 0.3563
2018_01_05_S2 01/04/2018 18:10:00 0.2341
2018_01_05_S2 01/04/2018 18:15:00 0.1417
2018_01_05_S2 01/04/2018 18:20:00 0.0049
2018_01_05_S2 01/04/2018 18:25:00 0.0
2018_01_05_S2 01/04/2018 18:30:00 0.0
2018_01_05_S2 01/04/2018 18:35:00 0.0
2018_01_05_S2 01/04/2018 18:40:00 0.0
2018_01_05_S2 01/04/2018 18:45:00 0.0
2018_01_05_S2 01/04/2018 18:50:00 0.0
2018_01_05_S2 01/04/2018 18:55:00 0.0
2018_01_05_S2 01/04/2018 19:00:00 0.0
2018_01_05_S2 01/04/2018 19:05:00 0.0
2018_01_05_S2 01/04/2018 19:10:00 0.0
2018_01_05_S2 01/04/2018 19:15:00 0.0
2018_01_05_S2 01/04/2018 19:20:00 0.0
2018_01_05_S2 01/04/2018 19:25:00 0.0
2018_01_05_S2 01/04/2018 19:30:00 0.0
2018_01_05_S2 01/04/2018 19:35:00 0.0019
2018_01_05_S2 01/04/2018 19:40:00 0.0054
2018_01_05_S2 01/04/2018 19:45:00 0.0
2018_01_05_S2 01/04/2018 19:50:00 0.0
2018_01_05_S2 01/04/2018 19:55:00 0.0
2018_01_05_S2 01/04/2018 20:00:00 0.0
2018_01_05_S2 01/04/2018 20:05:00 0.0
2018_01_05_S2 01/04/2018 20:10:00 0.0
2018_01_05_S2 01/04/2018 20:15:00 0.0007
2018_01_05_S2 01/04/2018 20:20:00 0.0
2018_01_05_S2 01/04/2018 20:25:00 0.0
2018_01_05_S2 01/04/2018 20:30:00 0.0
2018_01_05_S2 01/04/2018 20:35:00 0.0
2018_01_05_S2 01/04/2018 20:40:00 0.0
2018_01_05_S2 01/04/2018 20:45:00 0.0
2018_01_05_S2 01/04/2018 20:50:00 0.0
2018_01_05_S2 01/04/2018 20:55:00 0.0
2018_01_05_S2 01/04/2018 21:00:00 0.0
2018_01_05_S2 01/04/2018 21:05:00 0.0
2018_01_05_S2 01/04/2018 21:10:00 0.0
2018_01_05_S2 01/04/2018 21:15:00 0.0
2018_01_05_S2 01/04/2018 21:20:00 0.0
2018_01_05_S2 01/04/2018 21:25:00 0.0301
2018_01_05_S2 01/04/2018 21:30:00 0.4099
2018_01_05_S2 01/04/2018 21:35:00 0.0212
2018_01_05_S2 01/04/2018 21:40:00 0.0097
2018_01_05_S2 01/04/2018 21:45:00 0.006
2018_01_05_S2 01/04/2018 21:50:00 0.0
2018_01_05_S2 01/04/2018 21:55:00 0.0
2018_01_05_S2 01/04/2018 22:00:00 0.0
2018_01_05_S2 01/04/2018 22:05:00 0.0
2018_01_05_S2 01/04/2018 22:10:00 0.0
2018_01_05_S2 01/04/2018 22:15:00 0.0
2018_01_05_S2 01/04/2018 22:20:00 0.0
2018_01_05_S2 01/04/2018 22:25:00 0.0
2018_01_05_S2 01/04/2018 22:30:00 0.0
2018_01_05_S2 01/04/2018 22:35:00 0.0
2018_01_05_S2 01/04/2018 22:40:00 0.0
2018_01_05_S2 01/04/2018 22:45:00 0.0
2018_01_05_S2 01/04/2018 22:50:00 0.0
2018_01_05_S2 01/04/2018 22:55:00 0.0
2018_01_05_S2 01/04/2018 23:00:00 0.0
2018_01_05_S2 01/04/2018 23:05:00 0.0
2018_01_05_S2 01/04/2018 23:10:00 0.0
2018_01_05_S2 01/04/2018 23:15:00 0.0
2018_01_05_S2 01/04/2018 23:20:00 0.0
2018_01_05_S2 01/04/2018 23:25:00 0.0
2018_01_05_S2 01/04/2018 23:30:00 0.0
2018_01_05_S2 01/04/2018 23:35:00 0.0
2018_01_05_S2 01/04/2018 23:40:00 0.0
2018_01_05_S2 01/04/2018 23:45:00 0.0
2018_01_05_S2 01/04/2018 23:50:00 0.0
2018_01_05_S2 01/04/2018 23:55:00 0.0
2018_01_05_S2 01/05/2018 00:00:00 0.0
2018_01_05_S2 01/05/2018 00:05:00 0.0
2018_01_05_S2 01/05/2018 00:10:00 0.0
2018_01_05_S2 01/05/2018 00:15:00 0.0
2018_01_05_S2 01/05/2018 00:20:00 0.0
2018_01_05_S2 01/05/2018 00:25:00 0.0
2018_01_05_S2 01/05/2018 00:30:00 0.0
2018_01_05_S2 01/05/2018 00:35:00 0.0
2018_01_05_S2 01/05/2018 00:40:00 0.0
2018_01_05_S2 01/05/2018 00:45:00 0.0
2018_01_05_S2 01/05/2018 00:50:00 0.1763
2018_01_05_S2 01/05/2018 00:55:00 0.1627
2018_01_05_S2 01/05/2018 01:00:00 0.0012
2018_01_05_S2 01/05/2018 01:05:00 0.1426
2018_01_05_S2 01/05/2018 01:10:00 0.0243
2018_01_05_S2 01/05/2018 01:15:00 0.0014
2018_01_05_S2 01/05/2018 01:20:00 0.2159
2018_01_05_S2 01/05/2018 01:25:00 0.0958
2018_01_05_S2 01/05/2018 01:30:00 0.0089
2018_01_05_S2 01/05/2018 01:35:00 0.027
2018_01_05_S2 01/05/2018 01:40:00 0.0
2018_01_05_S2 01/05/2018 01:45:00 0.0599
2018_01_05_S2 01/05/2018 01:50:00 0.1554
2018_01_05_S2 01/05/2018 01:55:00 0.0008
2018_01_05_S2 01/05/2018 02:00:00 0.0116
2018_01_05_S2 01/05/2018 02:05:00 0.0045
2018_01_05_S2 01/05/2018 02:10:00 0.0085
2018_01_05_S2 01/05/2018 02:15:00 0.0045
2018_01_05_S2 01/05/2018 02:20:00 0.0017
2018_01_05_S2 01/05/2018 02:25:00 0.0
2018_01_05_S2 01/05/2018 02:30:00 0.0
2018_01_05_S2 01/05/2018 02:35:00 0.0
2018_01_05_S2 01/05/2018 02:40:00 0.0
2018_01_05_S2 01/05/2018 02:45:00 0.0
2018_01_05_S2 01/05/2018 02:50:00 0.0
2018_01_05_S2 01/05/2018 02:55:00 0.0
2018_01_05_S2 01/05/2018 03:00:00 0.0
2018_01_05_S2 01/05/2018 03:05:00 0.3318
2018_01_05_S2 01/05/2018 03:10:00 0.6632
2018_01_05_S2 01/05/2018 03:15:00 0.5957
2018_01_05_S2 01/05/2018 03:20:00 1.0561
2018_01_05_S2 01/05/2018 03:25:00 0.207
2018_01_05_S2 01/05/2018 03:30:00 0.1838
2018_01_05_S2 01/05/2018 03:35:00 0.0677
2018_01_05_S2 01/05/2018 03:40:00 0.0
2018_01_05_S2 01/05/2018 03:45:00 0.0094
2018_01_05_S2 01/05/2018 03:50:00 0.0528
2018_01_05_S2 01/05/2018 03:55:00 0.0526
2018_01_05_S2 01/05/2018 04:00:00 0.041
2018_01_05_S2 01/05/2018 04:05:00 0.0
2018_01_05_S2 01/05/2018 04:10:00 0.003
2018_01_05_S2 01/05/2018 04:15:00 0.0063
2018_01_05_S2 01/05/2018 04:20:00 0.0218
2018_01_05_S2 01/05/2018 04:25:00 0.0781
2018_01_05_S2 01/05/2018 04:30:00 0.0558
2018_01_05_S2 01/05/2018 04:35:00 0.5821
2018_01_05_S2 01/05/2018 04:40:00 0.0156
2018_01_05_S2 01/05/2018 04:45:00 0.1267
2018_01_05_S2 01/05/2018 04:50:00 0.0145
2018_01_05_S2 01/05/2018 04:55:00 0.0
2018_01_05_S2 01/05/2018 05:00:00 0.1267
2018_01_05_S2 01/05/2018 05:05:00 0.0071
2018_01_05_S2 01/05/2018 05:10:00 0.0012
2018_01_05_S2 01/05/2018 05:15:00 0.0
2018_01_05_S2 01/05/2018 05:20:00 0.0185
2018_01_05_S2 01/05/2018 05:25:00 0.0
2018_01_05_S2 01/05/2018 05:30:00 0.0
2018_01_05_S2 01/05/2018 05:35:00 0.0
2018_01_05_S2 01/05/2018 05:40:00 0.0
2018_01_05_S2 01/05/2018 05:45:00 0.0112
2018_01_05_S2 01/05/2018 05:50:00 0.0
2018_01_05_S2 01/05/2018 05:55:00 0.0125
2018_01_05_S2 01/05/2018 06:00:00 0.1358
2018_01_05_S2 01/05/2018 06:05:00 0.3357
2018_01_05_S2 01/05/2018 06:10:00 0.0011
2018_01_05_S2 01/05/2018 06:15:00 0.1381
2018_01_05_S2 01/05/2018 06:20:00 2.6767
2018_01_05_S2 01/05/2018 06:25:00 0.9773
2018_01_05_S2 01/05/2018 06:30:00 1.0875
2018_01_05_S2 01/05/2018 06:35:00 0.8927
2018_01_05_S2 01/05/2018 06:40:00 0.5026
2018_01_05_S2 01/05/2018 06:45:00 0.5979
2018_01_05_S2 01/05/2018 06:50:00 1.2643
2018_01_05_S2 01/05/2018 06:55:00 0.1374
2018_01_05_S2 01/05/2018 07:00:00 0.244
2018_01_05_S2 01/05/2018 07:05:00 0.0608
2018_01_05_S2 01/05/2018 07:10:00 0.0184
2018_01_05_S2 01/05/2018 07:15:00 0.0
2018_01_05_S2 01/05/2018 07:20:00 0.0
2018_01_05_S2 01/05/2018 07:25:00 0.0
2018_01_05_S2 01/05/2018 07:30:00 0.0
2018_01_05_S2 01/05/2018 07:35:00 0.0
2018_01_05_S2 01/05/2018 07:40:00 0.0
2018_01_05_S2 01/05/2018 07:45:00 0.0
2018_01_05_S2 01/05/2018 07:50:00 0.0
2018_01_05_S2 01/05/2018 07:55:00 0.0
2018_01_05_S2 01/05/2018 08:00:00 0.0229
2018_01_05_S2 01/05/2018 08:05:00 0.0
2018_01_05_S2 01/05/2018 08:10:00 0.0
2018_01_05_S2 01/05/2018 08:15:00 0.0451
2018_01_05_S2 01/05/2018 08:20:00 0.0017
2018_01_05_S2 01/05/2018 08:25:00 0.0503
2018_01_05_S2 01/05/2018 08:30:00 0.2435
2018_01_05_S2 01/05/2018 08:35:00 0.6647
2018_01_05_S2 01/05/2018 08:40:00 0.5831
2018_01_05_S2 01/05/2018 08:45:00 2.4735
2018_01_05_S2 01/05/2018 08:50:00 0.8163
2018_01_05_S2 01/05/2018 08:55:00 2.0614
2018_01_05_S2 01/05/2018 09:00:00 0.3029
2018_01_05_S2 01/05/2018 09:05:00 1.0102
2018_01_05_S2 01/05/2018 09:10:00 1.4435
2018_01_05_S2 01/05/2018 09:15:00 0.1585
2018_01_05_S2 01/05/2018 09:20:00 0.0275
2018_01_05_S2 01/05/2018 09:25:00 0.0
2018_01_05_S2 01/05/2018 09:30:00 0.0
2018_01_05_S2 01/05/2018 09:35:00 0.0376
2018_01_05_S2 01/05/2018 09:40:00 2.764
2018_01_05_S2 01/05/2018 09:45:00 0.0308
2018_01_05_S2 01/05/2018 09:50:00 0.6072
2018_01_05_S2 01/05/2018 09:55:00 5.6473
2018_01_05_S2 01/05/2018 10:00:00 0.6539
2018_01_05_S2 01/05/2018 10:05:00 1.039
2018_01_05_S2 01/05/2018 10:10:00 0.0
2018_01_05_S2 01/05/2018 10:15:00 0.0015
2018_01_05_S2 01/05/2018 10:20:00 0.0
2018_01_05_S2 01/05/2018 10:25:00 0.1112
2018_01_05_S2 01/05/2018 10:30:00 0.7872
2018_01_05_S2 01/05/2018 10:35:00 0.0227
2018_01_05_S2 01/05/2018 10:40:00 0.2612
2018_01_05_S2 01/05/2018 10:45:00 2.136
2018_01_05_S2 01/05/2018 10:50:00 0.1416
2018_01_05_S2 01/05/2018 10:55:00 0.0018
2018_01_05_S2 01/05/2018 11:00:00 0.0541
2018_01_05_S2 01/05/2018 11:05:00 0.1513
2018_01_05_S2 01/05/2018 11:10:00 0.1941
2018_01_05_S2 01/05/2018 11:15:00 0.5797
2018_01_05_S2 01/05/2018 11:20:00 0.1404
2018_01_05_S2 01/05/2018 11:25:00 0.0964
2018_01_05_S2 01/05/2018 11:30:00 0.1135
2018_01_05_S2 01/05/2018 11:35:00 0.2904
2018_01_05_S2 01/05/2018 11:40:00 0.1205
2018_01_05_S2 01/05/2018 11:45:00 0.0027
2018_01_05_S2 01/05/2018 11:50:00 0.0
2018_01_05_S2 01/05/2018 11:55:00 0.0103
2018_01_05_S2 01/05/2018 12:00:00 0.0837
2018_01_05_S2 01/05/2018 12:05:00 0.0885
2018_01_05_S2 01/05/2018 12:10:00 1.4689
2018_01_05_S2 01/05/2018 12:15:00 0.7961
2018_01_05_S2 01/05/2018 12:20:00 0.5222
2018_01_05_S2 01/05/2018 12:25:00 0.1134
2018_01_05_S2 01/05/2018 12:30:00 0.1012
2018_01_05_S2 01/05/2018 12:35:00 0.7125
2018_01_05_S2 01/05/2018 12:40:00 0.2979
2018_01_05_S2 01/05/2018 12:45:00 1.8217
2018_01_05_S2 01/05/2018 12:50:00 0.0019
2018_01_05_S2 01/05/2018 12:55:00 0.01
2018_01_05_S2 01/05/2018 13:00:00 0.0008
2018_01_05_S2 01/05/2018 13:05:00 0.2104
2018_01_05_S2 01/05/2018 13:10:00 0.0
2018_01_05_S2 01/05/2018 13:15:00 0.0
2018_01_05_S2 01/05/2018 13:20:00 0.0179
2018_01_05_S2 01/05/2018 13:25:00 0.0231
2018_01_05_S2 01/05/2018 13:30:00 0.0072
2018_01_05_S2 01/05/2018 13:35:00 0.0
2018_01_05_S2 01/05/2018 13:40:00 0.001
2018_01_05_S2 01/05/2018 13:45:00 0.6786
2018_01_05_S2 01/05/2018 13:50:00 0.2682
2018_01_05_S2 01/05/2018 13:55:00 3.8761
2018_01_05_S2 01/05/2018 14:00:00 1.9749
2018_01_05_S2 01/05/2018 14:05:00 1.6632
2018_01_05_S2 01/05/2018 14:10:00 0.0781
2018_01_05_S2 01/05/2018 14:15:00 1.4009
2018_01_05_S2 01/05/2018 14:20:00 0.0
2018_01_05_S2 01/05/2018 14:25:00 0.0
2018_01_05_S2 01/05/2018 14:30:00 0.0
2018_01_05_S2 01/05/2018 14:35:00 0.0414
2018_01_05_S2 01/05/2018 14:40:00 0.3605
2018_01_05_S2 01/05/2018 14:45:00 0.4837
2018_01_05_S2 01/05/2018 14:50:00 0.0006
2018_01_05_S2 01/05/2018 14:55:00 0.0
2018_01_05_S2 01/05/2018 15:00:00 0.0
2018_01_05_S2 01/05/2018 15:05:00 0.0
2018_01_05_S2 01/05/2018 15:10:00 0.0
2018_01_05_S2 01/05/2018 15:15:00 0.1486
2018_01_05_S2 01/05/2018 15:20:00 0.403
2018_01_05_S2 01/05/2018 15:25:00 0.0
2018_01_05_S2 01/05/2018 15:30:00 0.0
2018_01_05_S2 01/05/2018 15:35:00 0.1108
2018_01_05_S2 01/05/2018 15:40:00 0.0323
2018_01_05_S2 01/05/2018 15:45:00 0.0
2018_01_05_S2 01/05/2018 15:50:00 0.0
2018_01_05_S2 01/05/2018 15:55:00 0.0
2018_01_05_S2 01/05/2018 16:00:00 0.0
2018_01_05_S2 01/05/2018 16:05:00 0.0
2018_01_05_S2 01/05/2018 16:10:00 0.0
2018_01_05_S2 01/05/2018 16:15:00 0.0
2018_01_05_S2 01/05/2018 16:20:00 0.0
2018_01_05_S2 01/05/2018 16:25:00 0.0
2018_01_05_S2 01/05/2018 16:30:00 0.0
2018_01_05_S2 01/05/2018 16:35:00 0.0
2018_01_05_S2 01/05/2018 16:40:00 0.0
2018_01_05_S2 01/05/2018 16:45:00 0.0
2018_01_05_S2 01/05/2018 16:50:00 0.0
2018_01_05_S2 01/05/2018 16:55:00 0.0
2018_01_05_S2 01/05/2018 17:00:00 0.0
2018_01_05_S2 01/05/2018 17:05:00 0.0
2018_01_05_S2 01/05/2018 17:10:00 0.0
2018_01_05_S2 01/05/2018 17:15:00 0.0
2018_01_05_S2 01/05/2018 17:20:00 0.0
2018_01_05_S2 01/05/2018 17:25:00 0.0
2018_01_05_S2 01/05/2018 17:30:00 0.0
2018_01_05_S2 01/05/2018 17:35:00 0.0
2018_01_05_S2 01/05/2018 17:40:00 0.0
2018_01_05_S2 01/05/2018 17:45:00 0.0
2018_01_05_S2 01/05/2018 17:50:00 0.0
2018_01_05_S2 01/05/2018 17:55:00 0.0197
2018_01_05_S2 01/05/2018 18:00:00 0.0063
2018_01_05_S2 01/05/2018 18:05:00 0.0
2018_01_05_S2 01/05/2018 18:10:00 0.0
2018_01_05_S2 01/05/2018 18:15:00 0.031
2018_01_05_S2 01/05/2018 18:20:00 0.0035
2018_01_05_S2 01/05/2018 18:25:00 0.0
2018_01_05_S2 01/05/2018 18:30:00 0.0
2018_01_05_S2 01/05/2018 18:35:00 0.0
2018_01_05_S2 01/05/2018 18:40:00 0.0
2018_01_05_S2 01/05/2018 18:45:00 0.0
2018_01_05_S2 01/05/2018 18:50:00 0.0
2018_01_05_S2 01/05/2018 18:55:00 0.0
2018_01_05_S2 01/05/2018 19:00:00 0.0
2018_01_05_S2 01/05/2018 19:05:00 0.0
2018_01_05_S2 01/05/2018 19:10:00 0.0
2018_01_05_S2 01/05/2018 19:15:00 0.0
2018_01_05_S2 01/05/2018 19:20:00 0.0
2018_01_05_S2 01/05/2018 19:25:00 0.0
2018_01_05_S2 01/05/2018 19:30:00 0.0
2018_01_05_S2 01/05/2018 19:35:00 0.0
2018_01_05_S2 01/05/2018 19:40:00 0.0
2018_01_05_S2 01/05/2018 19:45:00 0.0709
2018_01_05_S2 01/05/2018 19:50:00 0.0345
2018_01_05_S2 01/05/2018 19:55:00 0.0048
2018_01_05_S2 01/05/2018 20:00:00 0.005
2018_01_05_S2 01/05/2018 20:05:00 0.0
2018_01_05_S2 01/05/2018 20:10:00 0.0
2018_01_05_S2 01/05/2018 20:15:00 0.0
2018_01_05_S2 01/05/2018 20:20:00 0.0
2018_01_05_S2 01/05/2018 20:25:00 0.0
2018_01_05_S2 01/05/2018 20:30:00 0.0
2018_01_05_S2 01/05/2018 20:35:00 0.0
2018_01_05_S2 01/05/2018 20:40:00 0.0
2018_01_05_S2 01/05/2018 20:45:00 0.0
2018_01_05_S2 01/05/2018 20:50:00 0.7598
2018_01_05_S2 01/05/2018 20:55:00 0.0
2018_01_05_S2 01/05/2018 21:00:00 0.0
2018_01_05_S2 01/05/2018 21:05:00 0.0
2018_01_05_S2 01/05/2018 21:10:00 0.0
2018_01_05_S2 01/05/2018 21:15:00 0.0
2018_01_05_S2 01/05/2018 21:20:00 0.0
2018_01_05_S2 01/05/2018 21:25:00 0.0
2018_01_05_S2 01/05/2018 21:30:00 0.0
2018_01_05_S2 01/05/2018 21:35:00 0.0
2018_01_05_S2 01/05/2018 21:40:00 0.0
2018_01_05_S2 01/05/2018 21:45:00 0.0
2018_01_05_S2 01/05/2018 21:50:00 0.0
2018_01_05_S2 01/05/2018 21:55:00 0.0
2018_01_05_S2 01/05/2018 22:00:00 0.0
2018_01_05_S2 01/05/2018 22:05:00 0.0
2018_01_05_S2 01/05/2018 22:10:00 0.0
2018_01_05_S2 01/05/2018 22:15:00 0.0
2018_01_05_S2 01/05/2018 22:20:00 0.0
2018_01_05_S2 01/05/2018 22:25:00 0.0051
2018_01_05_S2 01/05/2018 22:30:00 0.0221
2018_01_05_S2 01/05/2018 22:35:00 0.1316
2018_01_05_S2 01/05/2018 22:40:00 0.0627
2018_01_05_S2 01/05/2018 22:45:00 0.0
2018_01_05_S2 01/05/2018 22:50:00 0.0
2018_01_05_S2 01/05/2018 22:55:00 0.0
2018_01_05_S2 01/05/2018 23:00:00 0.0
2018_01_05_S2 01/05/2018 23:05:00 0.0
2018_01_05_S2 01/05/2018 23:10:00 0.0
2018_01_05_S2 01/05/2018 23:15:00 0.0
2018_01_05_S2 01/05/2018 23:20:00 0.0
2018_01_05_S2 01/05/2018 23:25:00 0.0
2018_01_05_S2 01/05/2018 23:30:00 0.0
2018_01_05_S2 01/05/2018 23:35:00 0.0
2018_01_05_S2 01/05/2018 23:40:00 0.0
2018_01_05_S2 01/05/2018 23:45:00 0.1041
2018_01_05_S2 01/05/2018 23:50:00 0.0119
2018_01_05_S2 01/05/2018 23:55:00 0.0209
2018_01_05_S2 01/06/2018 00:00:00 0.0047
2018_01_05_S2 01/06/2018 00:05:00 0.0799
2018_01_05_S2 01/06/2018 00:10:00 0.0159
2018_01_05_S2 01/06/2018 00:15:00 0.3411
2018_01_05_S2 01/06/2018 00:20:00 0.0
2018_01_05_S2 01/06/2018 00:25:00 0.0
2018_01_05_S2 01/06/2018 00:30:00 0.0
2018_01_05_S2 01/06/2018 00:35:00 0.0
2018_01_05_S2 01/06/2018 00:40:00 0.0
2018_01_05_S2 01/06/2018 00:45:00 0.0
2018_01_05_S2 01/06/2018 00:50:00 0.0
2018_01_05_S2 01/06/2018 00:55:00 0.0
2018_01_05_S2 01/06/2018 01:00:00 0.0083
2018_01_05_S2 01/06/2018 01:05:00 0.028
2018_01_05_S2 01/06/2018 01:10:00 0.0
2018_01_05_S2 01/06/2018 01:15:00 0.0
2018_01_05_S2 01/06/2018 01:20:00 0.0
2018_01_05_S2 01/06/2018 01:25:00 0.0
2018_01_05_S2 01/06/2018 01:30:00 0.0
2018_01_05_S2 01/06/2018 01:35:00 0.0
2018_01_05_S2 01/06/2018 01:40:00 0.0
2018_01_05_S2 01/06/2018 01:45:00 0.0
2018_01_05_S2 01/06/2018 01:50:00 0.0
2018_01_05_S2 01/06/2018 01:55:00 0.0
2018_01_05_S2 01/06/2018 02:00:00 0.0
2018_01_05_S2 01/06/2018 02:05:00 0.0
2018_01_05_S2 01/06/2018 02:10:00 0.0
2018_01_05_S2 01/06/2018 02:15:00 0.0
2018_01_05_S2 01/06/2018 02:20:00 0.0
2018_01_05_S2 01/06/2018 02:25:00 0.0
2018_01_05_S2 01/06/2018 02:30:00 0.0
2018_01_05_S2 01/06/2018 02:35:00 0.0
2018_01_05_S2 01/06/2018 02:40:00 0.0056
2018_01_05_S2 01/06/2018 02:45:00 0.0851
2018_01_05_S2 01/06/2018 02:50:00 0.0
2018_01_05_S2 01/06/2018 02:55:00 0.0
2018_01_05_S2 01/06/2018 03:00:00 0.0
2018_01_05_S2 01/06/2018 03:05:00 0.0
2018_01_05_S2 01/06/2018 03:10:00 0.0
2018_01_05_S2 01/06/2018 03:15:00 0.0
2018_01_05_S2 01/06/2018 03:20:00 0.0
2018_01_05_S2 01/06/2018 03:25:00 0.0
2018_01_05_S2 01/06/2018 03:30:00 0.0
2018_01_05_S2 01/06/2018 03:35:00 0.0
2018_01_05_S2 01/06/2018 03:40:00 0.0084
2018_01_05_S2 01/06/2018 03:45:00 0.0
2018_01_05_S2 01/06/2018 03:50:00 0.0
2018_01_05_S2 01/06/2018 03:55:00 0.0
2018_01_05_S2 01/06/2018 04:00:00 0.0
2018_01_05_S2 01/06/2018 04:05:00 0.0
2018_01_05_S2 01/06/2018 04:10:00 0.0
2018_01_05_S2 01/06/2018 04:15:00 0.0
2018_01_05_S2 01/06/2018 04:20:00 0.0
2018_01_05_S2 01/06/2018 04:25:00 0.0
2018_01_05_S2 01/06/2018 04:30:00 0.0
2018_01_05_S2 01/06/2018 04:35:00 0.0
2018_01_05_S2 01/06/2018 04:40:00 0.0
2018_01_05_S2 01/06/2018 04:45:00 0.0
2018_01_05_S2 01/06/2018 04:50:00 0.0
2018_01_05_S2 01/06/2018 04:55:00 0.0
2018_01_05_S2 01/06/2018 05:00:00 0.0
2018_01_05_S2 01/06/2018 05:05:00 0.0
2018_01_05_S2 01/06/2018 05:10:00 0.0
2018_01_05_S2 01/06/2018 05:15:00 0.0
2018_01_05_S2 01/06/2018 05:20:00 0.0
2018_01_05_S2 01/06/2018 05:25:00 0.0
2018_01_05_S2 01/06/2018 05:30:00 0.0174
2018_01_05_S2 01/06/2018 05:35:00 0.6226
2018_01_05_S2 01/06/2018 05:40:00 0.0
2018_01_05_S2 01/06/2018 05:45:00 0.0
2018_01_05_S2 01/06/2018 05:50:00 0.0
2018_01_05_S2 01/06/2018 05:55:00 0.0
2018_01_05_S2 01/06/2018 06:00:00 0.0
2018_01_05_S2 01/06/2018 06:05:00 0.0422
2018_01_05_S2 01/06/2018 06:10:00 0.0106
2018_01_05_S2 01/06/2018 06:15:00 0.0147
2018_01_05_S2 01/06/2018 06:20:00 0.0197
2018_01_05_S2 01/06/2018 06:25:00 0.0171
2018_01_05_S2 01/06/2018 06:30:00 0.0
2018_01_05_S2 01/06/2018 06:35:00 0.0
2018_01_05_S2 01/06/2018 06:40:00 0.0043
2018_01_05_S2 01/06/2018 06:45:00 0.0465
2018_01_05_S2 01/06/2018 06:50:00 0.0359
2018_01_05_S2 01/06/2018 06:55:00 0.0871
2018_01_05_S2 01/06/2018 07:00:00 0.0302
2018_01_05_S2 01/06/2018 07:05:00 0.0098
2018_01_05_S2 01/06/2018 07:10:00 0.0
2018_01_05_S2 01/06/2018 07:15:00 0.0
2018_01_05_S2 01/06/2018 07:20:00 0.0
2018_01_05_S2 01/06/2018 07:25:00 0.0
2018_01_05_S2 01/06/2018 07:30:00 0.0
2018_01_05_S2 01/06/2018 07:35:00 0.0127
2018_01_05_S2 01/06/2018 07:40:00 0.0175
2018_01_05_S2 01/06/2018 07:45:00 0.0154
2018_01_05_S2 01/06/2018 07:50:00 0.0718
2018_01_05_S2 01/06/2018 07:55:00 0.0045
2018_01_05_S2 01/06/2018 08:00:00 0.0

2018_01_05_S3 01/04/2018 10:25:00 0.0362
2018_01_05_S3 01/04/2018 10:30:00 0.0453
2018_01_05_S3 01/04/2018 10:35:00 0.154
2018_01_05_S3 01/04/2018 10:40:00 0.0064
2018_01_05_S3 01/04/2018 10:45:00 0.0068
2018_01_05_S3 01/04/2018 10:50:00 0.0029
2018_01_05_S3 01/04/2018 10:55:00 0.0015
2018_01_05_S3 01/04/2018 11:00:00 0.0
2018_01_05_S3 01/04/2018 11:05:00 0.3837
2018_01_05_S3 01/04/2018 11:10:00 0.2606
2018_01_05_S3 01/04/2018 11:15:00 5.7105
2018_01_05_S3 01/04/2018 11:20:00 0.0758
2018_01_05_S3 01/04/2018 11:25:00 0.7211
2018_01_05_S3 01/04/2018 11:30:00 0.0
2018_01_05_S3 01/04/2018 11:35:00 0.0
2018_01_05_S3 01/04/2018 11:40:00 0.0
2018_01_05_S3 01/04/2018 11:45:00 0.0
2018_01_05_S3 01/04/2018 11:50:00 0.0
2018_01_05_S3 01/04/2018 11:55:00 0.0
2018_01_05_S3 01/04/2018 12:00:00 0.0
2018_01_05_S3 01/04/2018 12:05:00 0.0
2018_01_05_S3 01/04/2018 12:10:00 0.0
2018_01_05_S3 01/04/2018 12:15:00 0.0
2018_01_05_S3 01/04/2018 12:20:00 0.0
2018_01_05_S3 01/04/2018 12:25:00 0.0
2018_01_05_S3 01/04/2018 12:30:00 0.0002
2018_01_05_S3 01/04/2018 12:35:00 0.0
2018_01_05_S3 01/04/2018 12:40:00 0.0
2018_01_05_S3 01/04/2018 12:45:00 0.0001
2018_01_05_S3 01/04/2018 12:50:00 0.0
2018_01_05_S3 01/04/2018 12:55:00 0.0
2018_01_05_S3 01/04/2018 13:00:00 0.0
2018_01_05_S3 01/04/2018 13:05:00 0.0
2018_01_05_S3 01/04/2018 13:10:00 0.0
2018_01_05_S3 01/04/2018 13:15:00 0.0141
2018_01_05_S3 01/04/2018 13:20:00 0.0
2018_01_05_S3 01/04/2018 13:25:00 0.0
2018_01_05_S3 01/04/2018 13:30:00 0.0
2018_01_05_S3 01/04/2018 13:35:00 0.0
2018_01_05_S3 01/04/2018 13:40:00 0.0
2018_01_05_S3 01/04/2018 13:45:00 0.0
2018_01_05_S3 01/04/2018 13:50:00 0.0
2018_01_05_S3 01/04/2018 13:55:00 0.0
2018_01_05_S3 01/04/2018 14:00:00 0.0056
2018_01_05_S3 01/04/2018 14:05:00 0.0
2018_01_05_S3 01/04/2018 14:10:00 0.0008
2018_01_05_S3 01/04/2018 14:15:00 0.0032
2018_01_05_S3 01/04/2018 14:20:00 0.0026
2018_01_05_S3 01/04/2018 14:25:00 0.0058
2018_01_05_S3 01/04/2018 14:30:00 0.0028
2018_01_05_S3 01/04/2018 14:35:00 0.003
2018_01_05_S3 01/04/2018 14:40:00 0.0083
2018_01_05_S3 01/04/2018 14:45:00 0.0
2018_01_05_S3 01/04/2018 14:50:00 0.0
2018_01_05_S3 01/04/2018 14:55:00 0.0
2018_01_05_S3 01/04/2018 15:00:00 0.0
2018_01_05_S3 01/04/2018 15:05:00 0.0
2018_01_05_S3 01/04/2018 15:10:00 0.0
2018_01_05_S3 01/04/2018 15:15:00 0.0
2018_01_05_S3 01/04/2018 15:20:00 0.0
2018_01_05_S3 01/04/2018 15:25:00 0.0
2018_01_05_S3 01/04/2018 15:30:00 0.0645
2018_01_05_S3 01/04/2018 15:35:00 0.0501
2018_01_05_S3 01/04/2018 15:40:00 0.0
2018_01_05_S3 01/04/2018 15:45:00 0.0
2018_01_05_S3 01/04/2018 15:50:00 0.0
2018_01_05_S3 01/04/2018 15:55:00 0.0494
2018_01_05_S3 01/04/2018 16:00:00 0.0709
2018_01_05_S3 01/04/2018 16:05:00 0.1832
2018_01_05_S3 01/04/2018 16:10:00 0.0
2018_01_05_S3 01/04/2018 16:15:00 0.0461
2018_01_05_S3 01/04/2018 16:20:00 0.1336
2018_01_05_S3 01/04/2018 16:25:00 0.0173
2018_01_05_S3 01/04/2018 16:30:00 0.0081
2018_01_05_S3 01/04/2018 16:35:00 0.0
2018_01_05_S3 01/04/2018 16:40:00 0.0
2018_01_05_S3 01/04/2018 16:45:00 0.0
2018_01_05_S3 01/04/2018 16:50:00 0.0
2018_01_05_S3 01/04/2018 16:55:00 0.0
2018_01_05_S3 01/04/2018 17:00:00 0.0023
2018_01_05_S3 01/04/2018 17:05:00 0.0
2018_01_05_S3 01/04/2018 17:10:00 0.6233
2018_01_05_S3 01/04/2018 17:15:00 0.0
2018_01_05_S3 01/04/2018 17:20:00 0.0
2018_01_05_S3 01/04/2018 17:25:00 0.0
2018_01_05_S3 01/04/2018 17:30:00 0.0094
2018_01_05_S3 01/04/2018 17:35:00 0.2343
2018_01_05_S3 01/04/2018 17:40:00 0.2857
2018_01_05_S3 01/04/2018 17:45:00 0.3846
2018_01_05_S3 01/04/2018 17:50:00 0.2719
2018_01_05_S3 01/04/2018 17:55:00 0.1286
2018_01_05_S3 01/04/2018 18:00:00 0.3136
2018_01_05_S3 01/04/2018 18:05:00 0.3191
2018_01_05_S3 01/04/2018 18:10:00 0.2209
2018_01_05_S3 01/04/2018 18:15:00 0.1035
2018_01_05_S3 01/04/2018 18:20:00 0.0007
2018_01_05_S3 01/04/2018 18:25:00 0.0
2018_01_05_S3 01/04/2018 18:30:00 0.0
2018_01_05_S3 01/04/2018 18:35:00 0.0
2018_01_05_S3 01/04/2018 18:40:00 0.0
2018_01_05_S3 01/04/2018 18:45:00 0.0
2018_01_05_S3 01/04/2018 18:50:00 0.0
2018_01_05_S3 01/04/2018 18:55:00 0.0
2018_01_05_S3 01/04/2018 19:00:00 0.0
2018_01_05_S3 01/04/2018 19:05:00 0.0
2018_01_05_S3 01/04/2018 19:10:00 0.0
2018_01_05_S3 01/04/2018 19:15:00 0.0
2018_01_05_S3 01/04/2018 19:20:00 0.0
2018_01_05_S3 01/04/2018 19:25:00 0.0
2018_01_05_S3 01/04/2018 19:30:00 0.0
2018_01_05_S3 01/04/2018 19:35:00 0.0
2018_01_05_S3 01/04/2018 19:40:00 0.0031
2018_01_05_S3 01/04/2018 19:45:00 0.0
2018_01_05_S3 01/04/2018 19:50:00 0.0
2018_01_05_S3 01/04/2018 19:55:00 0.0
2018_01_05_S3 01/04/2018 20:00:00 0.0
2018_01_05_S3 01/04/2018 20:05:00 0.0
2018_01_05_S3 01/04/2018 20:10:00 0.0
2018_01_05_S3 01/04/2018 20:15:00 0.0013
2018_01_05_S3 01/04/2018 20:20:00 0.0
2018_01_05_S3 01/04/2018 20:25:00 0.0003
2018_01_05_S3 01/04/2018 20:30:00 0.0
2018_01_05_S3 01/04/2018 20:35:00 0.0
2018_01_05_S3 01/04/2018 20:40:00 0.0
2018_01_05_S3 01/04/2018 20:45:00 0.0
2018_01_05_S3 01/04/2018 20:50:00 0.0
2018_01_05_S3 01/04/2018 20:55:00 0.0
2018_01_05_S3 01/04/2018 21:00:00 0.0
2018_01_05_S3 01/04/2018 21:05:00 0.0
2018_01_05_S3 01/04/2018 21:10:00 0.0
2018_01_05_S3 01/04/2018 21:15:00 0.0
2018_01_05_S3 01/04/2018 21:20:00 0.0
2018_01_05_S3 01/04/2018 21:25:00 0.0164
2018_01_05_S3 01/04/2018 21:30:00 0.7621
2018_01_05_S3 01/04/2018 21:35:00 0.0189
2018_01_05_S3 01/04/2018 21:40:00 0.0174
2018_01_05_S3 01/04/2018 21:45:00 0.0057
2018_01_05_S3 01/04/2018 21:50:00 0.0
2018_01_05_S3 01/04/2018 21:55:00 0.0
2018_01_05_S3 01/04/2018 22:00:00 0.0
2018_01_05_S3 01/04/2018 22:05:00 0.0
2018_01_05_S3 01/04/2018 22:10:00 0.0
2018_01_05_S3 01/04/2018 22:15:00 0.0
2018_01_05_S3 01/04/2018 22:20:00 0.0
2018_01_05_S3 01/04/2018 22:25:00 0.0
2018_01_05_S3 01/04/2018 22:30:00 0.0
2018_01_05_S3 01/04/2018 22:35:00 0.0
2018_01_05_S3 01/04/2018 22:40:00 0.0
2018_01_05_S3 01/04/2018 22:45:00 0.0
2018_01_05_S3 01/04/2018 22:50:00 0.0
2018_01_05_S3 01/04/2018 22:55:00 0.0
2018_01_05_S3 01/04/2018 23:00:00 0.0
2018_01_05_S3 01/04/2018 23:05:00 0.0
2018_01_05_S3 01/04/2018 23:10:00 0.0
2018_01_05_S3 01/04/2018 23:15:00 0.0
2018_01_05_S3 01/04/2018 23:20:00 0.0
2018_01_05_S3 01/04/2018 23:25:00 0.0
2018_01_05_S3 01/04/2018 23:30:00 0.0
2018_01_05_S3 01/04/2018 23:35:00 0.0
2018_01_05_S3 01/04/2018 23:40:00 0.0
2018_01_05_S3 01/04/2018 23:45:00 0.0
2018_01_05_S3 01/04/2018 23:50:00 0.0
2018_01_05_S3 01/04/2018 23:55:00 0.0
2018_01_05_S3 01/05/2018 00:00:00 0.0
2018_01_05_S3 01/05/2018 00:05:00 0.0
2018_01_05_S3 01/05/2018 00:10:00 0.0
2018_01_05_S3 01/05/2018 00:15:00 0.0
2018_01_05_S3 01/05/2018 00:20:00 0.0
2018_01_05_S3 01/05/2018 00:25:00 0.0
2018_01_05_S3 01/05/2018 00:30:00 0.0
2018_01_05_S3 01/05/2018 00:35:00 0.0
2018_01_05_S3 01/05/2018 00:40:00 0.0
2018_01_05_S3 01/05/2018 00:45:00 0.0
2018_01_05_S3 01/05/2018 00:50:00 0.2269
2018_01_05_S3 01/05/2018 00:55:00 0.2044
2018_01_05_S3 01/05/2018 01:00:00 0.0004
2018_01_05_S3 01/05/2018 01:05:00 0.143
2018_01_05_S3 01/05/2018 01:10:00 0.0211
2018_01_05_S3 01/05/2018 01:15:00 0.0021
2018_01_05_S3 01/05/2018 01:20:00 0.2732
2018_01_05_S3 01/05/2018 01:25:00 0.0884
2018_01_05_S3 01/05/2018 01:30:00 0.0056
2018_01_05_S3 01/05/2018 01:35:00 0.0261
2018_01_05_S3 01/05/2018 01:40:00 0.0
2018_01_05_S3 01/05/2018 01:45:00 0.0534
2018_01_05_S3 01/05/2018 01:50:00 0.0783
2018_01_05_S3 01/05/2018 01:55:00 0.0018
2018_01_05_S3 01/05/2018 02:00:00 0.0137
2018_01_05_S3 01/05/2018 02:05:00 0.0028
2018_01_05_S3 01/05/2018 02:10:00 0.0069
2018_01_05_S3 01/05/2018 02:15:00 0.0074
2018_01_05_S3 01/05/2018 02:20:00 0.001
2018_01_05_S3 01/05/2018 02:25:00 0.0
2018_01_05_S3 01/05/2018 02:30:00 0.0
2018_01_05_S3 01/05/2018 02:35:00 0.0
2018_01_05_S3 01/05/2018 02:40:00 0.0
2018_01_05_S3 01/05/2018 02:45:00 0.0
2018_01_05_S3 01/05/2018 02:50:00 0.0
2018_01_05_S3 01/05/2018 02:55:00 0.0
2018_01_05_S3 01/05/2018 03:00:00 0.0
2018_01_05_S3 01/05/2018 03:05:00 0.3557
2018_01_05_S3 01/05/2018 03:10:00 0.6325
2018_01_05_S3 01/05/2018 03:15:00 0.488
2018_01_05_S3 01/05/2018 03:20:00 1.0998
2018_01_05_S3 01/05/2018 03:25:00 0.2073
2018_01_05_S3 01/05/2018 03:30:00 0.1971
2018_01_05_S3 01/05/2018 03:35:00 0.0687
2018_01_05_S3 01/05/2018 03:40:00 0.0
2018_01_05_S3 01/05/2018 03:45:00 0.0109
2018_01_05_S3 01/05/2018 03:50:00 0.0535
2018_01_05_S3 01/05/2018 03:55:00 0.0394
2018_01_05_S3 01/05/2018 04:00:00 0.0391
2018_01_05_S3 01/05/2018 04:05:00 0.0
2018_01_05_S3 01/05/2018 04:10:00 0.0048
2018_01_05_S3 01/05/2018 04:15:00 0.0068
2018_01_05_S3 01/05/2018 04:20:00 0.0152
2018_01_05_S3 01/05/2018 04:25:00 0.1055
2018_01_05_S3 01/05/2018 04:30:00 0.0422
2018_01_05_S3 01/05/2018 04:35:00 0.1684
2018_01_05_S3 01/05/2018 04:40:00 0.0185
2018_01_05_S3 01/05/2018 04:45:00 0.1678
2018_01_05_S3 01/05/2018 04:50:00 0.0147
2018_01_05_S3 01/05/2018 04:55:00 0.0
2018_01_05_S3 01/05/2018 05:00:00 0.1618
2018_01_05_S3 01/05/2018 05:05:00 0.0077
2018_01_05_S3 01/05/2018 05:10:00 0.0
2018_01_05_S3 01/05/2018 05:15:00 0.0
2018_01_05_S3 01/05/2018 05:20:00 0.0129
2018_01_05_S3 01/05/2018 05:25:00 0.0
2018_01_05_S3 01/05/2018 05:30:00 0.0007
2018_01_05_S3 01/05/2018 05:35:00 0.0
2018_01_05_S3 01/05/2018 05:40:00 0.0
2018_01_05_S3 01/05/2018 05:45:00 0.009
2018_01_05_S3 01/05/2018 05:50:00 0.0
2018_01_05_S3 01/05/2018 05:55:00 0.0229
2018_01_05_S3 01/05/2018 06:00:00 0.1387
2018_01_05_S3 01/05/2018 06:05:00 0.2127
2018_01_05_S3 01/05/2018 06:10:00 0.0001
2018_01_05_S3 01/05/2018 06:15:00 0.0771
2018_01_05_S3 01/05/2018 06:20:00 2.8702
2018_01_05_S3 01/05/2018 06:25:00 1.1088
2018_01_05_S3 01/05/2018 06:30:00 1.1439
2018_01_05_S3 01/05/2018 06:35:00 0.9419
2018_01_05_S3 01/05/2018 06:40:00 0.5406
2018_01_05_S3 01/05/2018 06:45:00 0.7675
2018_01_05_S3 01/05/2018 06:50:00 1.4191
2018_01_05_S3 01/05/2018 06:55:00 0.1835
2018_01_05_S3 01/05/2018 07:00:00 0.2809
2018_01_05_S3 01/05/2018 07:05:00 0.0576
2018_01_05_S3 01/05/2018 07:10:00 0.0185
2018_01_05_S3 01/05/2018 07:15:00 0.0
2018_01_05_S3 01/05/2018 07:20:00 0.0
2018_01_05_S3 01/05/2018 07:25:00 0.0
2018_01_05_S3 01/05/2018 07:30:00 0.0
2018_01_05_S3 01/05/2018 07:35:00 0.0
2018_01_05_S3 01/05/2018 07:40:00 0.0
2018_01_05_S3 01/05/2018 07:45:00 0.0
2018_01_05_S3 01/05/2018 07:50:00 0.0
2018_01_05_S3 01/05/2018 07:55:00 0.0
2018_01_05_S3 01/05/2018 08:00:00 0.0125
2018_01_05_S3 01/05/2018 08:05:00 0.0
2018_01_05_S3 01/05/2018 08:10:00 0.0
2018_01_05_S3 01/05/2018 08:15:00 0.0221
2018_01_05_S3 01/05/2018 08:20:00 0.0
2018_01_05_S3 01/05/2018 08:25:00 0.0164
2018_01_05_S3 01/05/2018 08:30:00 0.2336
2018_01_05_S3 01/05/2018 08:35:00 0.5094
2018_01_05_S3 01/05/2018 08:40:00 0.6117
2018_01_05_S3 01/05/2018 08:45:00 1.991
2018_01_05_S3 01/05/2018 08:50:00 0.6895
2018_01_05_S3 01/05/2018 08:55:00 1.9099
2018_01_05_S3 01/05/2018 09:00:00 0.3585
2018_01_05_S3 01/05/2018 09:05:00 0.936
2018_01_05_S3 01/05/2018 09:10:00 0.9274
2018_01_05_S3 01/05/2018 09:15:00 0.1457
2018_01_05_S3 01/05/2018 09:20:00 0.0058
2018_01_05_S3 01/05/2018 09:25:00 0.0
2018_01_05_S3 01/05/2018 09:30:00 0.0
2018_01_05_S3 01/05/2018 09:35:00 0.0274
2018_01_05_S3 01/05/2018 09:40:00 2.4911
2018_01_05_S3 01/05/2018 09:45:00 0.0256
2018_01_05_S3 01/05/2018 09:50:00 0.5932
2018_01_05_S3 01/05/2018 09:55:00 7.1929
2018_01_05_S3 01/05/2018 10:00:00 0.2717
2018_01_05_S3 01/05/2018 10:05:00 0.9091
2018_01_05_S3 01/05/2018 10:10:00 0.0
2018_01_05_S3 01/05/2018 10:15:00 0.0034
2018_01_05_S3 01/05/2018 10:20:00 0.0
2018_01_05_S3 01/05/2018 10:25:00 0.1361
2018_01_05_S3 01/05/2018 10:30:00 0.8172
2018_01_05_S3 01/05/2018 10:35:00 0.0235
2018_01_05_S3 01/05/2018 10:40:00 0.3504
2018_01_05_S3 01/05/2018 10:45:00 1.8308
2018_01_05_S3 01/05/2018 10:50:00 0.1123
2018_01_05_S3 01/05/2018 10:55:00 0.0
2018_01_05_S3 01/05/2018 11:00:00 0.0538
2018_01_05_S3 01/05/2018 11:05:00 0.1119
2018_01_05_S3 01/05/2018 11:10:00 0.1822
2018_01_05_S3 01/05/2018 11:15:00 0.5329
2018_01_05_S3 01/05/2018 11:20:00 0.1448
2018_01_05_S3 01/05/2018 11:25:00 0.083
2018_01_05_S3 01/05/2018 11:30:00 0.1197
2018_01_05_S3 01/05/2018 11:35:00 0.1976
2018_01_05_S3 01/05/2018 11:40:00 0.1196
2018_01_05_S3 01/05/2018 11:45:00 0.0048
2018_01_05_S3 01/05/2018 11:50:00 0.0
2018_01_05_S3 01/05/2018 11:55:00 0.0131
2018_01_05_S3 01/05/2018 12:00:00 0.0832
2018_01_05_S3 01/05/2018 12:05:00 0.1167
2018_01_05_S3 01/05/2018 12:10:00 1.6301
2018_01_05_S3 01/05/2018 12:15:00 0.8111
2018_01_05_S3 01/05/2018 12:20:00 0.4492
2018_01_05_S3 01/05/2018 12:25:00 0.1203
2018_01_05_S3 01/05/2018 12:30:00 0.2156
2018_01_05_S3 01/05/2018 12:35:00 0.6937
2018_01_05_S3 01/05/2018 12:40:00 0.3194
2018_01_05_S3 01/05/2018 12:45:00 3.0685
2018_01_05_S3 01/05/2018 12:50:00 0.0031
2018_01_05_S3 01/05/2018 12:55:00 0.0221
2018_01_05_S3 01/05/2018 13:00:00 0.0044
2018_01_05_S3 01/05/2018 13:05:00 0.3201
2018_01_05_S3 01/05/2018 13:10:00 0.0
2018_01_05_S3 01/05/2018 13:15:00 0.0
2018_01_05_S3 01/05/2018 13:20:00 0.0112
2018_01_05_S3 01/05/2018 13:25:00 0.0109
2018_01_05_S3 01/05/2018 13:30:00 0.0076
2018_01_05_S3 01/05/2018 13:35:00 0.0
2018_01_05_S3 01/05/2018 13:40:00 0.0037
2018_01_05_S3 01/05/2018 13:45:00 0.4273
2018_01_05_S3 01/05/2018 13:50:00 0.244
2018_01_05_S3 01/05/2018 13:55:00 5.0473
2018_01_05_S3 01/05/2018 14:00:00 0.9336
2018_01_05_S3 01/05/2018 14:05:00 0.8195
2018_01_05_S3 01/05/2018 14:10:00 0.2178
2018_01_05_S3 01/05/2018 14:15:00 1.4259
2018_01_05_S3 01/05/2018 14:20:00 0.0
2018_01_05_S3 01/05/2018 14:25:00 0.0
2018_01_05_S3 01/05/2018 14:30:00 0.0
2018_01_05_S3 01/05/2018 14:35:00 0.0519
2018_01_05_S3 01/05/2018 14:40:00 0.1513
2018_01_05_S3 01/05/2018 14:45:00 0.5141
2018_01_05_S3 01/05/2018 14:50:00 0.0022
2018_01_05_S3 01/05/2018 14:55:00 0.0
2018_01_05_S3 01/05/2018 15:00:00 0.0
2018_01_05_S3 01/05/2018 15:05:00 0.0
2018_01_05_S3 01/05/2018 15:10:00 0.0
2018_01_05_S3 01/05/2018 15:15:00 0.3038
2018_01_05_S3 01/05/2018 15:20:00 0.3703
2018_01_05_S3 01/05/2018 15:25:00 0.0
2018_01_05_S3 01/05/2018 15:30:00 0.0
2018_01_05_S3 01/05/2018 15:35:00 0.0899
2018_01_05_S3 01/05/2018 15:40:00 0.0396
2018_01_05_S3 01/05/2018 15:45:00 0.0
2018_01_05_S3 01/05/2018 15:50:00 0.0
2018_01_05_S3 01/05/2018 15:55:00 0.0
2018_01_05_S3 01/05/2018 16:00:00 0.0
2018_01_05_S3 01/05/2018 16:05:00 0.0
2018_01_05_S3 01/05/2018 16:10:00 0.0
2018_01_05_S3 01/05/2018 16:15:00 0.0
2018_01_05_S3 01/05/2018 16:20:00 0.0
2018_01_05_S3 01/05/2018 16:25:00 0.0
2018_01_05_S3 01/05/2018 16:30:00 0.0
2018_01_05_S3 01/05/2018 16:35:00 0.0
2018_01_05_S3 01/05/2018 16:40:00 0.0
2018_01_05_S3 01/05/2018 16:45:00 0.0
2018_01_05_S3 01/05/2018 16:50:00 0.0
2018_01_05_S3 01/05/2018 16:55:00 0.0
2018_01_05_S3 01/05/2018 17:00:00 0.0
2018_01_05_S3 01/05/2018 17:05:00 0.0
2018_01_05_S3 01/05/2018 17:10:00 0.0
2018_01_05_S3 01/05/2018 17:15:00 0.0
2018_01_05_S3 01/05/2018 17:20:00 0.0
2018_01_05_S3 01/05/2018 17:25:00 0.0
2018_01_05_S3 01/05/2018 17:30:00 0.0
2018_01_05_S3 01/05/2018 17:35:00 0.0
2018_01_05_S3 01/05/2018 17:40:00 0.0
2018_01_05_S3 01/05/2018 17:45:00 0.0
2018_01_05_S3 01/05/2018 17:50:00 0.0008
2018_01_05_S3 01/05/2018 17:55:00 0.0229
2018_01_05_S3 01/05/2018 18:00:00 0.0061
2018_01_05_S3 01/05/2018 18:05:00 0.0
2018_01_05_S3 01/05/2018 18:10:00 0.0
2018_01_05_S3 01/05/2018 18:15:00 0.0536
2018_01_05_S3 01/05/2018 18:20:00 0.0027
2018_01_05_S3 01/05/2018 18:25:00 0.0
2018_01_05_S3 01/05/2018 18:30:00 0.0
2018_01_05_S3 01/05/2018 18:35:00 0.0
2018_01_05_S3 01/05/2018 18:40:00 0.0
2018_01_05_S3 01/05/2018 18:45:00 0.0
2018_01_05_S3 01/05/2018 18:50:00 0.0
2018_01_05_S3 01/05/2018 18:55:00 0.0
2018_01_05_S3 01/05/2018 19:00:00 0.0
2018_01_05_S3 01/05/2018 19:05:00 0.0
2018_01_05_S3 01/05/2018 19:10:00 0.0
2018_01_05_S3 01/05/2018 19:15:00 0.0
2018_01_05_S3 01/05/2018 19:20:00 0.0
2018_01_05_S3 01/05/2018 19:25:00 0.0
2018_01_05_S3 01/05/2018 19:30:00 0.0003
2018_01_05_S3 01/05/2018 19:35:00 0.0
2018_01_05_S3 01/05/2018 19:40:00 0.0003
2018_01_05_S3 01/05/2018 19:45:00 0.0485
2018_01_05_S3 01/05/2018 19:50:00 0.0529
2018_01_05_S3 01/05/2018 19:55:00 0.0114
2018_01_05_S3 01/05/2018 20:00:00 0.008
2018_01_05_S3 01/05/2018 20:05:00 0.0
2018_01_05_S3 01/05/2018 20:10:00 0.0
2018_01_05_S3 01/05/2018 20:15:00 0.0
2018_01_05_S3 01/05/2018 20:20:00 0.0
2018_01_05_S3 01/05/2018 20:25:00 0.0
2018_01_05_S3 01/05/2018 20:30:00 0.0
2018_01_05_S3 01/05/2018 20:35:00 0.0
2018_01_05_S3 01/05/2018 20:40:00 0.0
2018_01_05_S3 01/05/2018 20:45:00 0.0
2018_01_05_S3 01/05/2018 20:50:00 0.5436
2018_01_05_S3 01/05/2018 20:55:00 0.0006
2018_01_05_S3 01/05/2018 21:00:00 0.0
2018_01_05_S3 01/05/2018 21:05:00 0.0
2018_01_05_S3 01/05/2018 21:10:00 0.0
2018_01_05_S3 01/05/2018 21:15:00 0.0
2018_01_05_S3 01/05/2018 21:20:00 0.0
2018_01_05_S3 01/05/2018 21:25:00 0.0
2018_01_05_S3 01/05/2018 21:30:00 0.0
2018_01_05_S3 01/05/2018 21:35:00 0.0
2018_01_05_S3 01/05/2018 21:40:00 0.0
2018_01_05_S3 01/05/2018 21:45:00 0.0
2018_01_05_S3 01/05/2018 21:50:00 0.0
2018_01_05_S3 01/05/2018 21:55:00 0.0
2018_01_05_S3 01/05/2018 22:00:00 0.0
2018_01_05_S3 01/05/2018 22:05:00 0.0
2018_01_05_S3 01/05/2018 22:10:00 0.0
2018_01_05_S3 01/05/2018 22:15:00 0.0
2018_01_05_S3 01/05/2018 22:20:00 0.0
2018_01_05_S3 01/05/2018 22:25:00 0.0093
2018_01_05_S3 01/05/2018 22:30:00 0.0114
2018_01_05_S3 01/05/2018 22:35:00 0.0311
2018_01_05_S3 01/05/2018 22:40:00 0.0069
2018_01_05_S3 01/05/2018 22:45:00 0.0
2018_01_05_S3 01/05/2018 22:50:00 0.0
2018_01_05_S3 01/05/2018 22:55:00 0.0
2018_01_05_S3 01/05/2018 23:00:00 0.0
2018_01_05_S3 01/05/2018 23:05:00 0.0
2018_01_05_S3 01/05/2018 23:10:00 0.0
2018_01_05_S3 01/05/2018 23:15:00 0.0
2018_01_05_S3 01/05/2018 23:20:00 0.0
2018_01_05_S3 01/05/2018 23:25:00 0.0
2018_01_05_S3 01/05/2018 23:30:00 0.0
2018_01_05_S3 01/05/2018 23:35:00 0.0
2018_01_05_S3 01/05/2018 23:40:00 0.0008
2018_01_05_S3 01/05/2018 23:45:00 0.1254
2018_01_05_S3 01/05/2018 23:50:00 0.0141
2018_01_05_S3 01/05/2018 23:55:00 0.008
2018_01_05_S3 01/06/2018 00:00:00 0.0099
2018_01_05_S3 01/06/2018 00:05:00 0.0833
2018_01_05_S3 01/06/2018 00:10:00 0.0267
2018_01_05_S3 01/06/2018 00:15:00 0.3718
2018_01_05_S3 01/06/2018 00:20:00 0.0
2018_01_05_S3 01/06/2018 00:25:00 0.0
2018_01_05_S3 01/06/2018 00:30:00 0.0
2018_01_05_S3 01/06/2018 00:35:00 0.0
2018_01_05_S3 01/06/2018 00:40:00 0.0
2018_01_05_S3 01/06/2018 00:45:00 0.0
2018_01_05_S3 01/06/2018 00:50:00 0.0
2018_01_05_S3 01/06/2018 00:55:00 0.0
2018_01_05_S3 01/06/2018 01:00:00 0.0
2018_01_05_S3 01/06/2018 01:05:00 0.0298
2018_01_05_S3 01/06/2018 01:10:00 0.0018
2018_01_05_S3 01/06/2018 01:15:00 0.0
2018_01_05_S3 01/06/2018 01:20:00 0.0
2018_01_05_S3 01/06/2018 01:25:00 0.0
2018_01_05_S3 01/06/2018 01:30:00 0.0
2018_01_05_S3 01/06/2018 01:35:00 0.0
2018_01_05_S3 01/06/2018 01:40:00 0.0
2018_01_05_S3 01/06/2018 01:45:00 0.0
2018_01_05_S3 01/06/2018 01:50:00 0.0
2018_01_05_S3 01/06/2018 01:55:00 0.0
2018_01_05_S3 01/06/2018 02:00:00 0.0
2018_01_05_S3 01/06/2018 02:05:00 0.0
2018_01_05_S3 01/06/2018 02:10:00 0.0
2018_01_05_S3 01/06/2018 02:15:00 0.0
2018_01_05_S3 01/06/2018 02:20:00 0.0
2018_01_05_S3 01/06/2018 02:25:00 0.0
2018_01_05_S3 01/06/2018 02:30:00 0.0
2018_01_05_S3 01/06/2018 02:35:00 0.0
2018_01_05_S3 01/06/2018 02:40:00 0.0
2018_01_05_S3 01/06/2018 02:45:00 0.0391
2018_01_05_S3 01/06/2018 02:50:00 0.0
2018_01_05_S3 01/06/2018 02:55:00 0.0
2018_01_05_S3 01/06/2018 03:00:00 0.0
2018_01_05_S3 01/06/2018 03:05:00 0.0
2018_01_05_S3 01/06/2018 03:10:00 0.0
2018_01_05_S3 01/06/2018 03:15:00 0.0
2018_01_05_S3 01/06/2018 03:20:00 0.0
2018_01_05_S3 01/06/2018 03:25:00 0.0
2018_01_05_S3 01/06/2018 03:30:00 0.0
2018_01_05_S3 01/06/2018 03:35:00 0.0
2018_01_05_S3 01/06/2018 03:40:00 0.0629
2018_01_05_S3 01/06/2018 03:45:00 0.0
2018_01_05_S3 01/06/2018 03:50:00 0.0
2018_01_05_S3 01/06/2018 03:55:00 0.0
2018_01_05_S3 01/06/2018 04:00:00 0.0
2018_01_05_S3 01/06/2018 04:05:00 0.0
2018_01_05_S3 01/06/2018 04:10:00 0.0
2018_01_05_S3 01/06/2018 04:15:00 0.0
2018_01_05_S3 01/06/2018 04:20:00 0.0003
2018_01_05_S3 01/06/2018 04:25:00 0.0
2018_01_05_S3 01/06/2018 04:30:00 0.0
2018_01_05_S3 01/06/2018 04:35:00 0.0
2018_01_05_S3 01/06/2018 04:40:00 0.0
2018_01_05_S3 01/06/2018 04:45:00 0.0
2018_01_05_S3 01/06/2018 04:50:00 0.0
2018_01_05_S3 01/06/2018 04:55:00 0.0
2018_01_05_S3 01/06/2018 05:00:00 0.0
2018_01_05_S3 01/06/2018 05:05:00 0.0
2018_01_05_S3 01/06/2018 05:10:00 0.0
2018_01_05_S3 01/06/2018 05:15:00 0.0
2018_01_05_S3 01/06/2018 05:20:00 0.0
2018_01_05_S3 01/06/2018 05:25:00 0.0
2018_01_05_S3 01/06/2018 05:30:00 0.0195
2018_01_05_S3 01/06/2018 05:35:00 0.9846
2018_01_05_S3 01/06/2018 05:40:00 0.0
2018_01_05_S3 01/06/2018 05:45:00 0.0
2018_01_05_S3 01/06/2018 05:50:00 0.0
2018_01_05_S3 01/06/2018 05:55:00 0.0
2018_01_05_S3 01/06/2018 06:00:00 0.0
2018_01_05_S3 01/06/2018 06:05:00 0.0239
2018_01_05_S3 01/06/2018 06:10:00 0.0143
2018_01_05_S3 01/06/2018 06:15:00 0.0112
2018_01_05_S3 01/06/2018 06:20:00 0.018
2018_01_05_S3 01/06/2018 06:25:00 0.0201
2018_01_05_S3 01/06/2018 06:30:00 0.0
2018_01_05_S3 01/06/2018 06:35:00 0.0
2018_01_05_S3 01/06/2018 06:40:00 0.0058
2018_01_05_S3 01/06/2018 06:45:00 0.0338
2018_01_05_S3 01/06/2018 06:50:00 0.0166
2018_01_05_S3 01/06/2018 06:55:00 0.0749
2018_01_05_S3 01/06/2018 07:00:00 0.0345
2018_01_05_S3 01/06/2018 07:05:00 0.0111
2018_01_05_S3 01/06/2018 07:10:00 0.0008
2018_01_05_S3 01/06/2018 07:15:00 0.0
2018_01_05_S3 01/06/2018 07:20:00 0.0
2018_01_05_S3 01/06/2018 07:25:00 0.0
2018_01_05_S3 01/06/2018 07:30:00 0.0
2018_01_05_S3 01/06/2018 07:35:00 0.0018
2018_01_05_S3 01/06/2018 07:40:00 0.0063
2018_01_05_S3 01/06/2018 07:45:00 0.0267
2018_01_05_S3 01/06/2018 07:50:00 0.0703
2018_01_05_S3 01/06/2018 07:55:00 0.0117
2018_01_05_S3 01/06/2018 08:00:00 0.0

2018_01_05_S4 01/04/2018 10:25:00 0.0406
2018_01_05_S4 01/04/2018 10:30:00 0.069
2018_01_05_S4 01/04/2018 10:35:00 0.0186
2018_01_05_S4 01/04/2018 10:40:00 0.0057
2018_01_05_S4 01/04/2018 10:45:00 0.0367
2018_01_05_S4 01/04/2018 10:50:00 0.0116
2018_01_05_S4 01/04/2018 10:55:00 0.0
2018_01_05_S4 01/04/2018 11:00:00 0.0
2018_01_05_S4 01/04/2018 11:05:00 1.1706
2018_01_05_S4 01/04/2018 11:10:00 0.2013
2018_01_05_S4 01/04/2018 11:15:00 5.6259
2018_01_05_S4 01/04/2018 11:20:00 0.0786
2018_01_05_S4 01/04/2018 11:25:00 0.2947
2018_01_05_S4 01/04/2018 11:30:00 0.0
2018_01_05_S4 01/04/2018 11:35:00 0.0
2018_01_05_S4 01/04/2018 11:40:00 0.0
2018_01_05_S4 01/04/2018 11:45:00 0.0
2018_01_05_S4 01/04/2018 11:50:00 0.0
2018_01_05_S4 01/04/2018 11:55:00 0.0
2018_01_05_S4 01/04/2018 12:00:00 0.0
2018_01_05_S4 01/04/2018 12:05:00 0.0
2018_01_05_S4 01/04/2018 12:10:00 0.0
2018_01_05_S4 01/04/2018 12:15:00 0.0
2018_01_05_S4 01/04/2018 12:20:00 0.0
2018_01_05_S4 01/04/2018 12:25:00 0.0
2018_01_05_S4 01/04/2018 12:30:00 0.0022
2018_01_05_S4 01/04/2018 12:35:00 0.0
2018_01_05_S4 01/04/2018 12:40:00 0.0
2018_01_05_S4 01/04/2018 12:45:00 0.0011
2018_01_05_S4 01/04/2018 12:50:00 0.0
2018_01_05_S4 01/04/2018 12:55:00 0.0
2018_01_05_S4 01/04/2018 13:00:00 0.0
2018_01_05_S4 01/04/2018 13:05:00 0.0
2018_01_05_S4 01/04/2018 13:10:00 0.0
2018_01_05_S4 01/04/2018 13:15:00 0.0132
2018_01_05_S4 01/04/2018 13:20:00 0.0
2018_01_05_S4 01/04/2018 13:25:00 0.0
2018_01_05_S4 01/04/2018 13:30:00 0.0
2018_01_05_S4 01/04/2018 13:35:00 0.0
2018_01_05_S4 01/04/2018 13:40:00 0.0
2018_01_05_S4 01/04/2018 13:45:00 0.0
2018_01_05_S4 01/04/2018 13:50:00 0.0
2018_01_05_S4 01/04/2018 13:55:00 0.0
2018_01_05_S4 01/04/2018 14:00:00 0.0067
2018_01_05_S4 01/04/2018 14:05:00 0.0
2018_01_05_S4 01/04/2018 14:10:00 0.0001
2018_01_05_S4 01/04/2018 14:15:00 0.0046
2018_01_05_S4 01/04/2018 14:20:00 0.0027
2018_01_05_S4 01/04/2018 14:25:00 0.0046
2018_01_05_S4 01/04/2018 14:30:00 0.0015
2018_01_05_S4 01/04/2018 14:35:00 0.0042
2018_01_05_S4 01/04/2018 14:40:00 0.0071
2018_01_05_S4 01/04/2018 14:45:00 0.0
2018_01_05_S4 01/04/2018 14:50:00 0.0
2018_01_05_S4 01/04/2018 14:55:00 0.0
2018_01_05_S4 01/04/2018 15:00:00 0.0
2018_01_05_S4 01/04/2018 15:05:00 0.0
2018_01_05_S4 01/04/2018 15:10:00 0.0
2018_01_05_S4 01/04/2018 15:15:00 0.0
2018_01_05_S4 01/04/2018 15:20:00 0.0
2018_01_05_S4 01/04/2018 15:25:00 0.0
2018_01_05_S4 01/04/2018 15:30:00 0.0235
2018_01_05_S4 01/04/2018 15:35:00 0.0656
2018_01_05_S4 01/04/2018 15:40:00 0.0
2018_01_05_S4 01/04/2018 15:45:00 0.0
2018_01_05_S4 01/04/2018 15:50:00 0.0
2018_01_05_S4 01/04/2018 15:55:00 0.0667
2018_01_05_S4 01/04/2018 16:00:00 0.0642
2018_01_05_S4 01/04/2018 16:05:00 0.1388
2018_01_05_S4 01/04/2018 16:10:00 0.0
2018_01_05_S4 01/04/2018 16:15:00 0.0425
2018_01_05_S4 01/04/2018 16:20:00 0.1568
2018_01_05_S4 01/04/2018 16:25:00 0.0086
2018_01_05_S4 01/04/2018 16:30:00 0.0136
2018_01_05_S4 01/04/2018 16:35:00 0.0
2018_01_05_S4 01/04/2018 16:40:00 0.0
2018_01_05_S4 01/04/2018 16:45:00 0.0
2018_01_05_S4 01/04/2018 16:50:00 0.0
2018_01_05_S4 01/04/2018 16:55:00 0.0
2018_01_05_S4 01/04/2018 17:00:00 0.0017
2018_01_05_S4 01/04/2018 17:05:00 0.0
2018_01_05_S4 01/04/2018 17:10:00 0.3075
2018_01_05_S4 01/04/2018 17:15:00 0.0
2018_01_05_S4 01/04/2018 17:20:00 0.0
2018_01_05_S4 01/04/2018 17:25:00 0.0
2018_01_05_S4 01/04/2018 17:30:00 0.0067
2018_01_05_S4 01/04/2018 17:35:00 0.3452
2018_01_05_S4 01/04/2018 17:40:00 0.2818
2018_01_05_S4 01/04/2018 17:45:00 0.26
2018_01_05_S4 01/04/2018 17:50:00 0.2883
2018_01_05_S4 01/04/2018 17:55:00 0.1415
2018_01_05_S4 01/04/2018 18:00:00 0.3065
2018_01_05_S4 01/04/2018 18:05:00 0.3447
2018_01_05_S4 01/04/2018 18:10:00 0.1905
2018_01_05_S4 01/04/2018 18:15:00 0.0744
2018_01_05_S4 01/04/2018 18:20:00 0.0001
2018_01_05_S4 01/04/2018 18:25:00 0.0
2018_01_05_S4 01/04/2018 18:30:00 0.0
2018_01_05_S4 01/04/2018 18:35:00 0.0
2018_01_05_S4 01/04/2018 18:40:00 0.0
2018_01_05_S4 01/04/2018 18:45:00 0.0
2018_01_05_S4 01/04/2018 18:50:00 0.0
2018_01_05_S4 01/04/2018 18:55:00 0.0
2018_01_05_S4 01/04/2018 19:00:00 0.0
2018_01_05_S4 01/04/2018 19:05:00 0.0
2018_01_05_S4 01/04/2018 19:10:00 0.0
2018_01_05_S4 01/04/2018 19:15:00 0.0
2018_01_05_S4 01/04/2018 19:20:00 0.0
2018_01_05_S4 01/04/2018 19:25:00 0.0
2018_01_05_S4 01/04/2018 19:30:00 0.0
2018_01_05_S4 01/04/2018 19:35:00 0.0
2018_01_05_S4 01/04/2018 19:40:00 0.0003
2018_01_05_S4 01/04/2018 19:45:00 0.0
2018_01_05_S4 01/04/2018 19:50:00 0.0
2018_01_05_S4 01/04/2018 19:55:00 0.0
2018_01_05_S4 01/04/2018 20:00:00 0.0
2018_01_05_S4 01/04/2018 20:05:00 0.0
2018_01_05_S4 01/04/2018 20:10:00 0.0
2018_01_05_S4 01/04/2018 20:15:00 0.0
2018_01_05_S4 01/04/2018 20:20:00 0.0
2018_01_05_S4 01/04/2018 20:25:00 0.0
2018_01_05_S4 01/04/2018 20:30:00 0.0
2018_01_05_S4 01/04/2018 20:35:00 0.0
2018_01_05_S4 01/04/2018 20:40:00 0.0
2018_01_05_S4 01/04/2018 20:45:00 0.0
2018_01_05_S4 01/04/2018 20:50:00 0.0
2018_01_05_S4 01/04/2018 20:55:00 0.0
2018_01_05_S4 01/04/2018 21:00:00 0.0
2018_01_05_S4 01/04/2018 21:05:00 0.0
2018_01_05_S4 01/04/2018 21:10:00 0.0
2018_01_05_S4 01/04/2018 21:15:00 0.0
2018_01_05_S4 01/04/2018 21:20:00 0.0
2018_01_05_S4 01/04/2018 21:25:00 0.0094
2018_01_05_S4 01/04/2018 21:30:00 0.7609
2018_01_05_S4 01/04/2018 21:35:00 0.0022
2018_01_05_S4 01/04/2018 21:40:00 0.0148
2018_01_05_S4 01/04/2018 21:45:00 0.0041
2018_01_05_S4 01/04/2018 21:50:00 0.0
2018_01_05_S4 01/04/2018 21:55:00 0.0
2018_01_05_S4 01/04/2018 22:00:00 0.0
2018_01_05_S4 01/04/2018 22:05:00 0.0
2018_01_05_S4 01/04/2018 22:10:00 0.0
2018_01_05_S4 01/04/2018 22:15:00 0.0
2018_01_05_S4 01/04/2018 22:20:00 0.0
2018_01_05_S4 01/04/2018 22:25:00 0.0
2018_01_05_S4 01/04/2018 22:30:00 0.0
2018_01_05_S4 01/04/2018 22:35:00 0.0
2018_01_05_S4 01/04/2018 22:40:00 0.0
2018_01_05_S4 01/04/2018 22:45:00 0.0
2018_01_05_S4 01/04/2018 22:50:00 0.0
2018_01_05_S4 01/04/2018 22:55:00 0.0
2018_01_05_S4 01/04/2018 23:00:00 0.0
2018_01_05_S4 01/04/2018 23:05:00 0.0
2018_01_05_S4 01/04/2018 23:10:00 0.0
2018_01_05_S4 01/04/2018 23:15:00 0.0
2018_01_05_S4 01/04/2018 23:20:00 0.0
2018_01_05_S4 01/04/2018 23:25:00 0.0
2018_01_05_S4 01/04/2018 23:30:00 0.0
2018_01_05_S4 01/04/2018 23:35:00 0.0
2018_01_05_S4 01/04/2018 23:40:00 0.0
2018_01_05_S4 01/04/2018 23:45:00 0.0
2018_01_05_S4 01/04/2018 23:50:00 0.0
2018_01_05_S4 01/04/2018 23:55:00 0.0
2018_01_05_S4 01/05/2018 00:00:00 0.0
2018_01_05_S4 01/05/2018 00:05:00 0.0
2018_01_05_S4 01/05/2018 00:10:00 0.0
2018_01_05_S4 01/05/2018 00:15:00 0.0
2018_01_05_S4 01/05/2018 00:20:00 0.0
2018_01_05_S4 01/05/2018 00:25:00 0.0
2018_01_05_S4 01/05/2018 00:30:00 0.0
2018_01_05_S4 01/05/2018 00:35:00 0.0
2018_01_05_S4 01/05/2018 00:40:00 0.0
2018_01_05_S4 01/05/2018 00:45:00 0.0
2018_01_05_S4 01/05/2018 00:50:00 0.2341
2018_01_05_S4 01/05/2018 00:55:00 0.2603
2018_01_05_S4 01/05/2018 01:00:00 0.0
2018_01_05_S4 01/05/2018 01:05:00 0.1716
2018_01_05_S4 01/05/2018 01:10:00 0.0265
2018_01_05_S4 01/05/2018 01:15:00 0.006
2018_01_05_S4 01/05/2018 01:20:00 0.1624
2018_01_05_S4 01/05/2018 01:25:00 0.0904
2018_01_05_S4 01/05/2018 01:30:00 0.0039
2018_01_05_S4 01/05/2018 01:35:00 0.0411
2018_01_05_S4 01/05/2018 01:40:00 0.0
2018_01_05_S4 01/05/2018 01:45:00 0.0467
2018_01_05_S4 01/05/2018 01:50:00 0.0578
2018_01_05_S4 01/05/2018 01:55:00 0.0046
2018_01_05_S4 01/05/2018 02:00:00 0.0124
2018_01_05_S4 01/05/2018 02:05:00 0.0074
2018_01_05_S4 01/05/2018 02:10:00 0.0038
2018_01_05_S4 01/05/2018 02:15:00 0.0086
2018_01_05_S4 01/05/2018 02:20:00 0.0013
2018_01_05_S4 01/05/2018 02:25:00 0.0
2018_01_05_S4 01/05/2018 02:30:00 0.0
2018_01_05_S4 01/05/2018 02:35:00 0.0
2018_01_05_S4 01/05/2018 02:40:00 0.0
2018_01_05_S4 01/05/2018 02:45:00 0.0
2018_01_05_S4 01/05/2018 02:50:00 0.0
2018_01_05_S4 01/05/2018 02:55:00 0.0
2018_01_05_S4 01/05/2018 03:00:00 0.0
2018_01_05_S4 01/05/2018 03:05:00 0.3468
2018_01_05_S4 01/05/2018 03:10:00 0.5501
2018_01_05_S4 01/05/2018 03:15:00 0.4353
2018_01_05_S4 01/05/2018 03:20:00 1.3932
2018_01_05_S4 01/05/2018 03:25:00 0.2297
2018_01_05_S4 01/05/2018 03:30:00 0.2615
2018_01_05_S4 01/05/2018 03:35:00 0.0665
2018_01_05_S4 01/05/2018 03:40:00 0.0
2018_01_05_S4 01/05/2018 03:45:00 0.0118
2018_01_05_S4 01/05/2018 03:50:00 0.047
2018_01_05_S4 01/05/2018 03:55:00 0.0219
2018_01_05_S4 01/05/2018 04:00:00 0.0487
2018_01_05_S4 01/05/2018 04:05:00 0.0
2018_01_05_S4 01/05/2018 04:10:00 0.0047
2018_01_05_S4 01/05/2018 04:15:00 0.0049
2018_01_05_S4 01/05/2018 04:20:00 0.0167
2018_01_05_S4 01/05/2018 04:25:00 0.1338
2018_01_05_S4 01/05/2018 04:30:00 0.0325
2018_01_05_S4 01/05/2018 04:35:00 0.0206
2018_01_05_S4 01/05/2018 04:40:00 0.0182
2018_01_05_S4 01/05/2018 04:45:00 0.2167
2018_01_05_S4 01/05/2018 04:50:00 0.0158
2018_01_05_S4 01/05/2018 04:55:00 0.0
2018_01_05_S4 01/05/2018 05:00:00 0.1142
2018_01_05_S4 01/05/2018 05:05:00 0.0059
2018_01_05_S4 01/05/2018 05:10:00 0.0
2018_01_05_S4 01/05/2018 05:15:00 0.0
2018_01_05_S4 01/05/2018 05:20:00 0.0128
2018_01_05_S4 01/05/2018 05:25:00 0.0
2018_01_05_S4 01/05/2018 05:30:00 0.0032
2018_01_05_S4 01/05/2018 05:35:00 0.0
2018_01_05_S4 01/05/2018 05:40:00 0.0
2018_01_05_S4 01/05/2018 05:45:00 0.0073
2018_01_05_S4 01/05/2018 05:50:00 0.0
2018_01_05_S4 01/05/2018 05:55:00 0.021
2018_01_05_S4 01/05/2018 06:00:00 0.1581
2018_01_05_S4 01/05/2018 06:05:00 0.202
2018_01_05_S4 01/05/2018 06:10:00 0.0012
2018_01_05_S4 01/05/2018 06:15:00 0.0566
2018_01_05_S4 01/05/2018 06:20:00 2.9126
2018_01_05_S4 01/05/2018 06:25:00 1.1892
2018_01_05_S4 01/05/2018 06:30:00 1.1051
2018_01_05_S4 01/05/2018 06:35:00 1.0971
2018_01_05_S4 01/05/2018 06:40:00 0.5196
2018_01_05_S4 01/05/2018 06:45:00 0.898
2018_01_05_S4 01/05/2018 06:50:00 1.2137
2018_01_05_S4 01/05/2018 06:55:00 0.1985
2018_01_05_S4 01/05/2018 07:00:00 0.3273
2018_01_05_S4 01/05/2018 07:05:00 0.0969
2018_01_05_S4 01/05/2018 07:10:00 0.0216
2018_01_05_S4 01/05/2018 07:15:00 0.0
2018_01_05_S4 01/05/2018 07:20:00 0.0
2018_01_05_S4 01/05/2018 07:25:00 0.0
2018_01_05_S4 01/05/2018 07:30:00 0.0
2018_01_05_S4 01/05/2018 07:35:00 0.0
2018_01_05_S4 01/05/2018 07:40:00 0.0
2018_01_05_S4 01/05/2018 07:45:00 0.0
2018_01_05_S4 01/05/2018 07:50:00 0.0
2018_01_05_S4 01/05/2018 07:55:00 0.0
2018_01_05_S4 01/05/2018 08:00:00 0.0068
2018_01_05_S4 01/05/2018 08:05:00 0.0
2018_01_05_S4 01/05/2018 08:10:00 0.0
2018_01_05_S4 01/05/2018 08:15:00 0.0242
2018_01_05_S4 01/05/2018 08:20:00 0.0
2018_01_05_S4 01/05/2018 08:25:00 0.0057
2018_01_05_S4 01/05/2018 08:30:00 0.189
2018_01_05_S4 01/05/2018 08:35:00 0.41
2018_01_05_S4 01/05/2018 08:40:00 0.7084
2018_01_05_S4 01/05/2018 08:45:00 1.9657
2018_01_05_S4 01/05/2018 08:50:00 0.5888
2018_01_05_S4 01/05/2018 08:55:00 3.0848
2018_01_05_S4 01/05/2018 09:00:00 0.3423
2018_01_05_S4 01/05/2018 09:05:00 0.7142
2018_01_05_S4 01/05/2018 09:10:00 0.6634
2018_01_05_S4 01/05/2018 09:15:00 0.1262
2018_01_05_S4 01/05/2018 09:20:00 0.0025
2018_01_05_S4 01/05/2018 09:25:00 0.0
2018_01_05_S4 01/05/2018 09:30:00 0.0
2018_01_05_S4 01/05/2018 09:35:00 0.0324
2018_01_05_S4 01/05/2018 09:40:00 2.4814
2018_01_05_S4 01/05/2018 09:45:00 0.024
2018_01_05_S4 01/05/2018 09:50:00 0.5584
2018_01_05_S4 01/05/2018 09:55:00 8.2268
2018_01_05_S4 01/05/2018 10:00:00 0.1654
2018_01_05_S4 01/05/2018 10:05:00 0.6761
2018_01_05_S4 01/05/2018 10:10:00 0.0
2018_01_05_S4 01/05/2018 10:15:00 0.0031
2018_01_05_S4 01/05/2018 10:20:00 0.0
2018_01_05_S4 01/05/2018 10:25:00 0.1256
2018_01_05_S4 01/05/2018 10:30:00 0.7688
2018_01_05_S4 01/05/2018 10:35:00 0.0228
2018_01_05_S4 01/05/2018 10:40:00 0.3236
2018_01_05_S4 01/05/2018 10:45:00 1.6798
2018_01_05_S4 01/05/2018 10:50:00 0.0547
2018_01_05_S4 01/05/2018 10:55:00 0.0
2018_01_05_S4 01/05/2018 11:00:00 0.0464
2018_01_05_S4 01/05/2018 11:05:00 0.1077
2018_01_05_S4 01/05/2018 11:10:00 0.1384
2018_01_05_S4 01/05/2018 11:15:00 0.3905
2018_01_05_S4 01/05/2018 11:20:00 0.1432
2018_01_05_S4 01/05/2018 11:25:00 0.076
2018_01_05_S4 01/05/2018 11:30:00 0.1326
2018_01_05_S4 01/05/2018 11:35:00 0.1484
2018_01_05_S4 01/05/2018 11:40:00 0.1362
2018_01_05_S4 01/05/2018 11:45:00 0.0111
2018_01_05_S4 01/05/2018 11:50:00 0.0
2018_01_05_S4 01/05/2018 11:55:00 0.0043
2018_01_05_S4 01/05/2018 12:00:00 0.0833
2018_01_05_S4 01/05/2018 12:05:00 0.1868
2018_01_05_S4 01/05/2018 12:10:00 1.3347
2018_01_05_S4 01/05/2018 12:15:00 0.8261
2018_01_05_S4 01/05/2018 12:20:00 0.3311
2018_01_05_S4 01/05/2018 12:25:00 0.154
2018_01_05_S4 01/05/2018 12:30:00 0.5279
2018_01_05_S4 01/05/2018 12:35:00 0.558
2018_01_05_S4 01/05/2018 12:40:00 0.5027
2018_01_05_S4 01/05/2018 12:45:00 3.6149
2018_01_05_S4 01/05/2018 12:50:00 0.0036
2018_01_05_S4 01/05/2018 12:55:00 0.0442
2018_01_05_S4 01/05/2018 13:00:00 0.0173
2018_01_05_S4 01/05/2018 13:05:00 0.3523
2018_01_05_S4 01/05/2018 13:10:00 0.0
2018_01_05_S4 01/05/2018 13:15:00 0.0
2018_01_05_S4 01/05/2018 13:20:00 0.0077
2018_01_05_S4 01/05/2018 13:25:00 0.0097
2018_01_05_S4 01/05/2018 13:30:00 0.01
2018_01_05_S4 01/05/2018 13:35:00 0.0
2018_01_05_S4 01/05/2018 13:40:00 0.0063
2018_01_05_S4 01/05/2018 13:45:00 0.305
2018_01_05_S4 01/05/2018 13:50:00 0.2923
2018_01_05_S4 01/05/2018 13:55:00 3.2494
2018_01_05_S4 01/05/2018 14:00:00 0.6075
2018_01_05_S4 01/05/2018 14:05:00 0.5193
2018_01_05_S4 01/05/2018 14:10:00 0.3485
2018_01_05_S4 01/05/2018 14:15:00 0.9028
2018_01_05_S4 01/05/2018 14:20:00 0.0
2018_01_05_S4 01/05/2018 14:25:00 0.0
2018_01_05_S4 01/05/2018 14:30:00 0.0
2018_01_05_S4 01/05/2018 14:35:00 0.0435
2018_01_05_S4 01/05/2018 14:40:00 0.0998
2018_01_05_S4 01/05/2018 14:45:00 0.5688
2018_01_05_S4 01/05/2018 14:50:00 0.0058
2018_01_05_S4 01/05/2018 14:55:00 0.0
2018_01_05_S4 01/05/2018 15:00:00 0.0
2018_01_05_S4 01/05/2018 15:05:00 0.0
2018_01_05_S4 01/05/2018 15:10:00 0.0
2018_01_05_S4 01/05/2018 15:15:00 0.4304
2018_01_05_S4 01/05/2018 15:20:00 0.3
2018_01_05_S4 01/05/2018 15:25:00 0.0
2018_01_05_S4 01/05/2018 15:30:00 0.0
2018_01_05_S4 01/05/2018 15:35:00 0.0752
2018_01_05_S4 01/05/2018 15:40:00 0.0348
2018_01_05_S4 01/05/2018 15:45:00 0.0
2018_01_05_S4 01/05/2018 15:50:00 0.0
2018_01_05_S4 01/05/2018 15:55:00 0.0
2018_01_05_S4 01/05/2018 16:00:00 0.0
2018_01_05_S4 01/05/2018 16:05:00 0.0
2018_01_05_S4 01/05/2018 16:10:00 0.0
2018_01_05_S4 01/05/2018 16:15:00 0.0
2018_01_05_S4 01/05/2018 16:20:00 0.0
2018_01_05_S4 01/05/2018 16:25:00 0.0
2018_01_05_S4 01/05/2018 16:30:00 0.0
2018_01_05_S4 01/05/2018 16:35:00 0.0
2018_01_05_S4 01/05/2018 16:40:00 0.0
2018_01_05_S4 01/05/2018 16:45:00 0.0
2018_01_05_S4 01/05/2018 16:50:00 0.0
2018_01_05_S4 01/05/2018 16:55:00 0.0
2018_01_05_S4 01/05/2018 17:00:00 0.0
2018_01_05_S4 01/05/2018 17:05:00 0.0
2018_01_05_S4 01/05/2018 17:10:00 0.0
2018_01_05_S4 01/05/2018 17:15:00 0.0
2018_01_05_S4 01/05/2018 17:20:00 0.0
2018_01_05_S4 01/05/2018 17:25:00 0.0
2018_01_05_S4 01/05/2018 17:30:00 0.0
2018_01_05_S4 01/05/2018 17:35:00 0.0
2018_01_05_S4 01/05/2018 17:40:00 0.0
2018_01_05_S4 01/05/2018 17:45:00 0.0
2018_01_05_S4 01/05/2018 17:50:00 0.002
2018_01_05_S4 01/05/2018 17:55:00 0.0271
2018_01_05_S4 01/05/2018 18:00:00 0.0062
2018_01_05_S4 01/05/2018 18:05:00 0.0
2018_01_05_S4 01/05/2018 18:10:00 0.0
2018_01_05_S4 01/05/2018 18:15:00 0.0653
2018_01_05_S4 01/05/2018 18:20:00 0.0066
2018_01_05_S4 01/05/2018 18:25:00 0.0
2018_01_05_S4 01/05/2018 18:30:00 0.0
2018_01_05_S4 01/05/2018 18:35:00 0.0
2018_01_05_S4 01/05/2018 18:40:00 0.0
2018_01_05_S4 01/05/2018 18:45:00 0.0
2018_01_05_S4 01/05/2018 18:50:00 0.0
2018_01_05_S4 01/05/2018 18:55:00 0.0
2018_01_05_S4 01/05/2018 19:00:00 0.0
2018_01_05_S4 01/05/2018 19:05:00 0.0
2018_01_05_S4 01/05/2018 19:10:00 0.0
2018_01_05_S4 01/05/2018 19:15:00 0.0
2018_01_05_S4 01/05/2018 19:20:00 0.0
2018_01_05_S4 01/05/2018 19:25:00 0.0
2018_01_05_S4 01/05/2018 19:30:00 0.0
2018_01_05_S4 01/05/2018 19:35:00 0.0
2018_01_05_S4 01/05/2018 19:40:00 0.0
2018_01_05_S4 01/05/2018 19:45:00 0.0305
2018_01_05_S4 01/05/2018 19:50:00 0.0654
2018_01_05_S4 01/05/2018 19:55:00 0.015
2018_01_05_S4 01/05/2018 20:00:00 0.0078
2018_01_05_S4 01/05/2018 20:05:00 0.0
2018_01_05_S4 01/05/2018 20:10:00 0.0
2018_01_05_S4 01/05/2018 20:15:00 0.0
2018_01_05_S4 01/05/2018 20:20:00 0.0
2018_01_05_S4 01/05/2018 20:25:00 0.0
2018_01_05_S4 01/05/2018 20:30:00 0.0
2018_01_05_S4 01/05/2018 20:35:00 0.0
2018_01_05_S4 01/05/2018 20:40:00 0.0
2018_01_05_S4 01/05/2018 20:45:00 0.0
2018_01_05_S4 01/05/2018 20:50:00 0.0716
2018_01_05_S4 01/05/2018 20:55:00 0.0016
2018_01_05_S4 01/05/2018 21:00:00 0.0
2018_01_05_S4 01/05/2018 21:05:00 0.0
2018_01_05_S4 01/05/2018 21:10:00 0.0
2018_01_05_S4 01/05/2018 21:15:00 0.0
2018_01_05_S4 01/05/2018 21:20:00 0.0
2018_01_05_S4 01/05/2018 21:25:00 0.0
2018_01_05_S4 01/05/2018 21:30:00 0.0
2018_01_05_S4 01/05/2018 21:35:00 0.0
2018_01_05_S4 01/05/2018 21:40:00 0.0
2018_01_05_S4 01/05/2018 21:45:00 0.0
2018_01_05_S4 01/05/2018 21:50:00 0.0
2018_01_05_S4 01/05/2018 21:55:00 0.0
2018_01_05_S4 01/05/2018 22:00:00 0.0
2018_01_05_S4 01/05/2018 22:05:00 0.0
2018_01_05_S4 01/05/2018 22:10:00 0.0
2018_01_05_S4 01/05/2018 22:15:00 0.0
2018_01_05_S4 01/05/2018 22:20:00 0.0
2018_01_05_S4 01/05/2018 22:25:00 0.0134
2018_01_05_S4 01/05/2018 22:30:00 0.0
2018_01_05_S4 01/05/2018 22:35:00 0.0042
2018_01_05_S4 01/05/2018 22:40:00 0.0051
2018_01_05_S4 01/05/2018 22:45:00 0.0
2018_01_05_S4 01/05/2018 22:50:00 0.0
2018_01_05_S4 01/05/2018 22:55:00 0.0
2018_01_05_S4 01/05/2018 23:00:00 0.0
2018_01_05_S4 01/05/2018 23:05:00 0.0
2018_01_05_S4 01/05/2018 23:10:00 0.0
2018_01_05_S4 01/05/2018 23:15:00 0.0
2018_01_05_S4 01/05/2018 23:20:00 0.0
2018_01_05_S4 01/05/2018 23:25:00 0.0
2018_01_05_S4 01/05/2018 23:30:00 0.0
2018_01_05_S4 01/05/2018 23:35:00 0.0
2018_01_05_S4 01/05/2018 23:40:00 0.002
2018_01_05_S4 01/05/2018 23:45:00 0.0897
2018_01_05_S4 01/05/2018 23:50:00 0.0155
2018_01_05_S4 01/05/2018 23:55:00 0.0034
2018_01_05_S4 01/06/2018 00:00:00 0.0061
2018_01_05_S4 01/06/2018 00:05:00 0.075
2018_01_05_S4 01/06/2018 00:10:00 0.0412
2018_01_05_S4 01/06/2018 00:15:00 0.3494
2018_01_05_S4 01/06/2018 00:20:00 0.0
2018_01_05_S4 01/06/2018 00:25:00 0.0
2018_01_05_S4 01/06/2018 00:30:00 0.0
2018_01_05_S4 01/06/2018 00:35:00 0.0
2018_01_05_S4 01/06/2018 00:40:00 0.0
2018_01_05_S4 01/06/2018 00:45:00 0.0
2018_01_05_S4 01/06/2018 00:50:00 0.0
2018_01_05_S4 01/06/2018 00:55:00 0.0
2018_01_05_S4 01/06/2018 01:00:00 0.0
2018_01_05_S4 01/06/2018 01:05:00 0.0118
2018_01_05_S4 01/06/2018 01:10:00 0.0082
2018_01_05_S4 01/06/2018 01:15:00 0.0
2018_01_05_S4 01/06/2018 01:20:00 0.0
2018_01_05_S4 01/06/2018 01:25:00 0.0
2018_01_05_S4 01/06/2018 01:30:00 0.0
2018_01_05_S4 01/06/2018 01:35:00 0.0
2018_01_05_S4 01/06/2018 01:40:00 0.0
2018_01_05_S4 01/06/2018 01:45:00 0.0
2018_01_05_S4 01/06/2018 01:50:00 0.0
2018_01_05_S4 01/06/2018 01:55:00 0.0
2018_01_05_S4 01/06/2018 02:00:00 0.0
2018_01_05_S4 01/06/2018 02:05:00 0.0
2018_01_05_S4 01/06/2018 02:10:00 0.0
2018_01_05_S4 01/06/2018 02:15:00 0.0
2018_01_05_S4 01/06/2018 02:20:00 0.0
2018_01_05_S4 01/06/2018 02:25:00 0.0
2018_01_05_S4 01/06/2018 02:30:00 0.0
2018_01_05_S4 01/06/2018 02:35:00 0.0
2018_01_05_S4 01/06/2018 02:40:00 0.0
2018_01_05_S4 01/06/2018 02:45:00 0.0232
2018_01_05_S4 01/06/2018 02:50:00 0.0
2018_01_05_S4 01/06/2018 02:55:00 0.0
2018_01_05_S4 01/06/2018 03:00:00 0.0
2018_01_05_S4 01/06/2018 03:05:00 0.0
2018_01_05_S4 01/06/2018 03:10:00 0.0
2018_01_05_S4 01/06/2018 03:15:00 0.0
2018_01_05_S4 01/06/2018 03:20:00 0.0
2018_01_05_S4 01/06/2018 03:25:00 0.0
2018_01_05_S4 01/06/2018 03:30:00 0.0
2018_01_05_S4 01/06/2018 03:35:00 0.0
2018_01_05_S4 01/06/2018 03:40:00 0.0993
2018_01_05_S4 01/06/2018 03:45:00 0.0
2018_01_05_S4 01/06/2018 03:50:00 0.0
2018_01_05_S4 01/06/2018 03:55:00 0.0
2018_01_05_S4 01/06/2018 04:00:00 0.0
2018_01_05_S4 01/06/2018 04:05:00 0.0
2018_01_05_S4 01/06/2018 04:10:00 0.0
2018_01_05_S4 01/06/2018 04:15:00 0.0
2018_01_05_S4 01/06/2018 04:20:00 0.0
2018_01_05_S4 01/06/2018 04:25:00 0.0
2018_01_05_S4 01/06/2018 04:30:00 0.0
2018_01_05_S4 01/06/2018 04:35:00 0.0
2018_01_05_S4 01/06/2018 04:40:00 0.0
2018_01_05_S4 01/06/2018 04:45:00 0.0
2018_01_05_S4 01/06/2018 04:50:00 0.0
2018_01_05_S4 01/06/2018 04:55:00 0.0
2018_01_05_S4 01/06/2018 05:00:00 0.0
2018_01_05_S4 01/06/2018 05:05:00 0.0
2018_01_05_S4 01/06/2018 05:10:00 0.0
2018_01_05_S4 01/06/2018 05:15:00 0.0
2018_01_05_S4 01/06/2018 05:20:00 0.0
2018_01_05_S4 01/06/2018 05:25:00 0.0
2018_01_05_S4 01/06/2018 05:30:00 0.0226
2018_01_05_S4 01/06/2018 05:35:00 0.6906
2018_01_05_S4 01/06/2018 05:40:00 0.0
2018_01_05_S4 01/06/2018 05:45:00 0.0
2018_01_05_S4 01/06/2018 05:50:00 0.0
2018_01_05_S4 01/06/2018 05:55:00 0.0
2018_01_05_S4 01/06/2018 06:00:00 0.0
2018_01_05_S4 01/06/2018 06:05:00 0.0056
2018_01_05_S4 01/06/2018 06:10:00 0.0199
2018_01_05_S4 01/06/2018 06:15:00 0.0081
2018_01_05_S4 01/06/2018 06:20:00 0.0134
2018_01_05_S4 01/06/2018 06:25:00 0.0095
2018_01_05_S4 01/06/2018 06:30:00 0.0
2018_01_05_S4 01/06/2018 06:35:00 0.0
2018_01_05_S4 01/06/2018 06:40:00 0.0051
2018_01_05_S4 01/06/2018 06:45:00 0.0229
2018_01_05_S4 01/06/2018 06:50:00 0.0151
2018_01_05_S4 01/06/2018 06:55:00 0.0478
2018_01_05_S4 01/06/2018 07:00:00 0.0223
2018_01_05_S4 01/06/2018 07:05:00 0.014
2018_01_05_S4 01/06/2018 07:10:00 0.0038
2018_01_05_S4 01/06/2018 07:15:00 0.0
2018_01_05_S4 01/06/2018 07:20:00 0.0
2018_01_05_S4 01/06/2018 07:25:00 0.0
2018_01_05_S4 01/06/2018 07:30:00 0.0
2018_01_05_S4 01/06/2018 07:35:00 0.0
2018_01_05_S4 01/06/2018 07:40:00 0.0011
2018_01_05_S4 01/06/2018 07:45:00 0.0458
2018_01_05_S4 01/06/2018 07:50:00 0.0701
2018_01_05_S4 01/06/2018 07:55:00 0.0172
2018_01_05_S4 01/06/2018 08:00:00 0.0

2018_01_05_S5 01/04/2018 10:25:00 0.0459
2018_01_05_S5 01/04/2018 10:30:00 0.0684
2018_01_05_S5 01/04/2018 10:35:00 0.0129
2018_01_05_S5 01/04/2018 10:40:00 0.0056
2018_01_05_S5 01/04/2018 10:45:00 0.0465
2018_01_05_S5 01/04/2018 10:50:00 0.0137
2018_01_05_S5 01/04/2018 10:55:00 0.0
2018_01_05_S5 01/04/2018 11:00:00 0.0
2018_01_05_S5 01/04/2018 11:05:00 1.8883
2018_01_05_S5 01/04/2018 11:10:00 0.1531
2018_01_05_S5 01/04/2018 11:15:00 6.1634
2018_01_05_S5 01/04/2018 11:20:00 0.0812
2018_01_05_S5 01/04/2018 11:25:00 0.3171
2018_01_05_S5 01/04/2018 11:30:00 0.0
2018_01_05_S5 01/04/2018 11:35:00 0.0
2018_01_05_S5 01/04/2018 11:40:00 0.0
2018_01_05_S5 01/04/2018 11:45:00 0.0
2018_01_05_S5 01/04/2018 11:50:00 0.0
2018_01_05_S5 01/04/2018 11:55:00 0.0
2018_01_05_S5 01/04/2018 12:00:00 0.0
2018_01_05_S5 01/04/2018 12:05:00 0.0
2018_01_05_S5 01/04/2018 12:10:00 0.0
2018_01_05_S5 01/04/2018 12:15:00 0.0
2018_01_05_S5 01/04/2018 12:20:00 0.0
2018_01_05_S5 01/04/2018 12:25:00 0.0
2018_01_05_S5 01/04/2018 12:30:00 0.0031
2018_01_05_S5 01/04/2018 12:35:00 0.0
2018_01_05_S5 01/04/2018 12:40:00 0.0
2018_01_05_S5 01/04/2018 12:45:00 0.001
2018_01_05_S5 01/04/2018 12:50:00 0.0
2018_01_05_S5 01/04/2018 12:55:00 0.0
2018_01_05_S5 01/04/2018 13:00:00 0.0
2018_01_05_S5 01/04/2018 13:05:00 0.0
2018_01_05_S5 01/04/2018 13:10:00 0.0
2018_01_05_S5 01/04/2018 13:15:00 0.0126
2018_01_05_S5 01/04/2018 13:20:00 0.0
2018_01_05_S5 01/04/2018 13:25:00 0.0
2018_01_05_S5 01/04/2018 13:30:00 0.0
2018_01_05_S5 01/04/2018 13:35:00 0.0
2018_01_05_S5 01/04/2018 13:40:00 0.0
2018_01_05_S5 01/04/2018 13:45:00 0.0
2018_01_05_S5 01/04/2018 13:50:00 0.0
2018_01_05_S5 01/04/2018 13:55:00 0.0
2018_01_05_S5 01/04/2018 14:00:00 0.0056
2018_01_05_S5 01/04/2018 14:05:00 0.0
2018_01_05_S5 01/04/2018 14:10:00 0.0
2018_01_05_S5 01/04/2018 14:15:00 0.0045
2018_01_05_S5 01/04/2018 14:20:00 0.0032
2018_01_05_S5 01/04/2018 14:25:00 0.0064
2018_01_05_S5 01/04/2018 14:30:00 0.0012
2018_01_05_S5 01/04/2018 14:35:00 0.0046
2018_01_05_S5 01/04/2018 14:40:00 0.0067
2018_01_05_S5 01/04/2018 14:45:00 0.0
2018_01_05_S5 01/04/2018 14:50:00 0.0
2018_01_05_S5 01/04/2018 14:55:00 0.0
2018_01_05_S5 01/04/2018 15:00:00 0.0
2018_01_05_S5 01/04/2018 15:05:00 0.0
2018_01_05_S5 01/04/2018 15:10:00 0.0
2018_01_05_S5 01/04/2018 15:15:00 0.0
2018_01_05_S5 01/04/2018 15:20:00 0.0
2018_01_05_S5 01/04/2018 15:25:00 0.0
2018_01_05_S5 01/04/2018 15:30:00 0.0171
2018_01_05_S5 01/04/2018 15:35:00 0.0861
2018_01_05_S5 01/04/2018 15:40:00 0.0
2018_01_05_S5 01/04/2018 15:45:00 0.0
2018_01_05_S5 01/04/2018 15:50:00 0.0
2018_01_05_S5 01/04/2018 15:55:00 0.0747
2018_01_05_S5 01/04/2018 16:00:00 0.0622
2018_01_05_S5 01/04/2018 16:05:00 0.1423
2018_01_05_S5 01/04/2018 16:10:00 0.0
2018_01_05_S5 01/04/2018 16:15:00 0.0398
2018_01_05_S5 01/04/2018 16:20:00 0.1499
2018_01_05_S5 01/04/2018 16:25:00 0.0068
2018_01_05_S5 01/04/2018 16:30:00 0.0115
2018_01_05_S5 01/04/2018 16:35:00 0.0
2018_01_05_S5 01/04/2018 16:40:00 0.0
2018_01_05_S5 01/04/2018 16:45:00 0.0
2018_01_05_S5 01/04/2018 16:50:00 0.0
2018_01_05_S5 01/04/2018 16:55:00 0.0
2018_01_05_S5 01/04/2018 17:00:00 0.0011
2018_01_05_S5 01/04/2018 17:05:00 0.0
2018_01_05_S5 01/04/2018 17:10:00 0.2874
2018_01_05_S5 01/04/2018 17:15:00 0.0
2018_01_05_S5 01/04/2018 17:20:00 0.0
2018_01_05_S5 01/04/2018 17:25:00 0.0
2018_01_05_S5 01/04/2018 17:30:00 0.012
2018_01_05_S5 01/04/2018 17:35:00 0.3847
2018_01_05_S5 01/04/2018 17:40:00 0.2718
2018_01_05_S5 01/04/2018 17:45:00 0.226
2018_01_05_S5 01/04/2018 17:50:00 0.2708
2018_01_05_S5 01/04/2018 17:55:00 0.1346
2018_01_05_S5 01/04/2018 18:00:00 0.3055
2018_01_05_S5 01/04/2018 18:05:00 0.3482
2018_01_05_S5 01/04/2018 18:10:00 0.1586
2018_01_05_S5 01/04/2018 18:15:00 0.0767
2018_01_05_S5 01/04/2018 18:20:00 0.0002
2018_01_05_S5 01/04/2018 18:25:00 0.0
2018_01_05_S5 01/04/2018 18:30:00 0.0
2018_01_05_S5 01/04/2018 18:35:00 0.0
2018_01_05_S5 01/04/2018 18:40:00 0.0
2018_01_05_S5 01/04/2018 18:45:00 0.0
2018_01_05_S5 01/04/2018 18:50:00 0.0
2018_01_05_S5 01/04/2018 18:55:00 0.0
2018_01_05_S5 01/04/2018 19:00:00 0.0
2018_01_05_S5 01/04/2018 19:05:00 0.0
2018_01_05_S5 01/04/2018 19:10:00 0.0
2018_01_05_S5 01/04/2018 19:15:00 0.0
2018_01_05_S5 01/04/2018 19:20:00 0.0
2018_01_05_S5 01/04/2018 19:25:00 0.0
2018_01_05_S5 01/04/2018 19:30:00 0.0
2018_01_05_S5 01/04/2018 19:35:00 0.0
2018_01_05_S5 01/04/2018 19:40:00 0.0
2018_01_05_S5 01/04/2018 19:45:00 0.0
2018_01_05_S5 01/04/2018 19:50:00 0.0
2018_01_05_S5 01/04/2018 19:55:00 0.0
2018_01_05_S5 01/04/2018 20:00:00 0.0
2018_01_05_S5 01/04/2018 20:05:00 0.0
2018_01_05_S5 01/04/2018 20:10:00 0.0
2018_01_05_S5 01/04/2018 20:15:00 0.0
2018_01_05_S5 01/04/2018 20:20:00 0.0
2018_01_05_S5 01/04/2018 20:25:00 0.0001
2018_01_05_S5 01/04/2018 20:30:00 0.0
2018_01_05_S5 01/04/2018 20:35:00 0.0
2018_01_05_S5 01/04/2018 20:40:00 0.0
2018_01_05_S5 01/04/2018 20:45:00 0.0
2018_01_05_S5 01/04/2018 20:50:00 0.0
2018_01_05_S5 01/04/2018 20:55:00 0.0
2018_01_05_S5 01/04/2018 21:00:00 0.0
2018_01_05_S5 01/04/2018 21:05:00 0.0
2018_01_05_S5 01/04/2018 21:10:00 0.0
2018_01_05_S5 01/04/2018 21:15:00 0.0
2018_01_05_S5 01/04/2018 21:20:00 0.0
2018_01_05_S5 01/04/2018 21:25:00 0.0085
2018_01_05_S5 01/04/2018 21:30:00 0.6924
2018_01_05_S5 01/04/2018 21:35:00 0.0001
2018_01_05_S5 01/04/2018 21:40:00 0.0249
2018_01_05_S5 01/04/2018 21:45:00 0.003
2018_01_05_S5 01/04/2018 21:50:00 0.0
2018_01_05_S5 01/04/2018 21:55:00 0.0
2018_01_05_S5 01/04/2018 22:00:00 0.0
2018_01_05_S5 01/04/2018 22:05:00 0.0
2018_01_05_S5 01/04/2018 22:10:00 0.0
2018_01_05_S5 01/04/2018 22:15:00 0.0
2018_01_05_S5 01/04/2018 22:20:00 0.0
2018_01_05_S5 01/04/2018 22:25:00 0.0
2018_01_05_S5 01/04/2018 22:30:00 0.0
2018_01_05_S5 01/04/2018 22:35:00 0.0
2018_01_05_S5 01/04/2018 22:40:00 0.0
2018_01_05_S5 01/04/2018 22:45:00 0.0
2018_01_05_S5 01/04/2018 22:50:00 0.0
2018_01_05_S5 01/04/2018 22:55:00 0.0
2018_01_05_S5 01/04/2018 23:00:00 0.0
2018_01_05_S5 01/04/2018 23:05:00 0.0
2018_01_05_S5 01/04/2018 23:10:00 0.0
2018_01_05_S5 01/04/2018 23:15:00 0.0
2018_01_05_S5 01/04/2018 23:20:00 0.0
2018_01_05_S5 01/04/2018 23:25:00 0.0
2018_01_05_S5 01/04/2018 23:30:00 0.0
2018_01_05_S5 01/04/2018 23:35:00 0.0
2018_01_05_S5 01/04/2018 23:40:00 0.0
2018_01_05_S5 01/04/2018 23:45:00 0.0
2018_01_05_S5 01/04/2018 23:50:00 0.0
2018_01_05_S5 01/04/2018 23:55:00 0.0
2018_01_05_S5 01/05/2018 00:00:00 0.0
2018_01_05_S5 01/05/2018 00:05:00 0.0
2018_01_05_S5 01/05/2018 00:10:00 0.0
2018_01_05_S5 01/05/2018 00:15:00 0.0
2018_01_05_S5 01/05/2018 00:20:00 0.0
2018_01_05_S5 01/05/2018 00:25:00 0.0
2018_01_05_S5 01/05/2018 00:30:00 0.0
2018_01_05_S5 01/05/2018 00:35:00 0.0
2018_01_05_S5 01/05/2018 00:40:00 0.0
2018_01_05_S5 01/05/2018 00:45:00 0.0
2018_01_05_S5 01/05/2018 00:50:00 0.2038
2018_01_05_S5 01/05/2018 00:55:00 0.2501
2018_01_05_S5 01/05/2018 01:00:00 0.0
2018_01_05_S5 01/05/2018 01:05:00 0.1797
2018_01_05_S5 01/05/2018 01:10:00 0.0288
2018_01_05_S5 01/05/2018 01:15:00 0.0059
2018_01_05_S5 01/05/2018 01:20:00 0.1416
2018_01_05_S5 01/05/2018 01:25:00 0.0889
2018_01_05_S5 01/05/2018 01:30:00 0.0055
2018_01_05_S5 01/05/2018 01:35:00 0.0441
2018_01_05_S5 01/05/2018 01:40:00 0.0
2018_01_05_S5 01/05/2018 01:45:00 0.0454
2018_01_05_S5 01/05/2018 01:50:00 0.0525
2018_01_05_S5 01/05/2018 01:55:00 0.0061
2018_01_05_S5 01/05/2018 02:00:00 0.0108
2018_01_05_S5 01/05/2018 02:05:00 0.0092
2018_01_05_S5 01/05/2018 02:10:00 0.0014
2018_01_05_S5 01/05/2018 02:15:00 0.0087
2018_01_05_S5 01/05/2018 02:20:00 0.001
2018_01_05_S5 01/05/2018 02:25:00 0.0
2018_01_05_S5 01/05/2018 02:30:00 0.0
2018_01_05_S5 01/05/2018 02:35:00 0.0
2018_01_05_S5 01/05/2018 02:40:00 0.0
2018_01_05_S5 01/05/2018 02:45:00 0.0
2018_01_05_S5 01/05/2018 02:50:00 0.0
2018_01_05_S5 01/05/2018 02:55:00 0.0
2018_01_05_S5 01/05/2018 03:00:00 0.0
2018_01_05_S5 01/05/2018 03:05:00 0.299
2018_01_05_S5 01/05/2018 03:10:00 0.5502
2018_01_05_S5 01/05/2018 03:15:00 0.436
2018_01_05_S5 01/05/2018 03:20:00 1.4062
2018_01_05_S5 01/05/2018 03:25:00 0.2629
2018_01_05_S5 01/05/2018 03:30:00 0.2696
2018_01_05_S5 01/05/2018 03:35:00 0.0706
2018_01_05_S5 01/05/2018 03:40:00 0.0
2018_01_05_S5 01/05/2018 03:45:00 0.0119
2018_01_05_S5 01/05/2018 03:50:00 0.0472
2018_01_05_S5 01/05/2018 03:55:00 0.0218
2018_01_05_S5 01/05/2018 04:00:00 0.0546
2018_01_05_S5 01/05/2018 04:05:00 0.0
2018_01_05_S5 01/05/2018 04:10:00 0.0066
2018_01_05_S5 01/05/2018 04:15:00 0.0042
2018_01_05_S5 01/05/2018 04:20:00 0.0162
2018_01_05_S5 01/05/2018 04:25:00 0.147
2018_01_05_S5 01/05/2018 04:30:00 0.0394
2018_01_05_S5 01/05/2018 04:35:00 0.0165
2018_01_05_S5 01/05/2018 04:40:00 0.0185
2018_01_05_S5 01/05/2018 04:45:00 0.227
2018_01_05_S5 01/05/2018 04:50:00 0.0173
2018_01_05_S5 01/05/2018 04:55:00 0.0
2018_01_05_S5 01/05/2018 05:00:00 0.1015
2018_01_05_S5 01/05/2018 05:05:00 0.0055
2018_01_05_S5 01/05/2018 05:10:00 0.0
2018_01_05_S5 01/05/2018 05:15:00 0.0
2018_01_05_S5 01/05/2018 05:20:00 0.0136
2018_01_05_S5 01/05/2018 05:25:00 0.0
2018_01_05_S5 01/05/2018 05:30:00 0.0049
2018_01_05_S5 01/05/2018 05:35:00 0.0
2018_01_05_S5 01/05/2018 05:40:00 0.0
2018_01_05_S5 01/05/2018 05:45:00 0.0051
2018_01_05_S5 01/05/2018 05:50:00 0.0
2018_01_05_S5 01/05/2018 05:55:00 0.0184
2018_01_05_S5 01/05/2018 06:00:00 0.1928
2018_01_05_S5 01/05/2018 06:05:00 0.2277
2018_01_05_S5 01/05/2018 06:10:00 0.0023
2018_01_05_S5 01/05/2018 06:15:00 0.0486
2018_01_05_S5 01/05/2018 06:20:00 3.189
2018_01_05_S5 01/05/2018 06:25:00 1.3146
2018_01_05_S5 01/05/2018 06:30:00 1.182
2018_01_05_S5 01/05/2018 06:35:00 1.2263
2018_01_05_S5 01/05/2018 06:40:00 0.45
2018_01_05_S5 01/05/2018 06:45:00 0.8865
2018_01_05_S5 01/05/2018 06:50:00 1.1575
2018_01_05_S5 01/05/2018 06:55:00 0.2378
2018_01_05_S5 01/05/2018 07:00:00 0.3287
2018_01_05_S5 01/05/2018 07:05:00 0.1098
2018_01_05_S5 01/05/2018 07:10:00 0.0282
2018_01_05_S5 01/05/2018 07:15:00 0.0
2018_01_05_S5 01/05/2018 07:20:00 0.0
2018_01_05_S5 01/05/2018 07:25:00 0.0
2018_01_05_S5 01/05/2018 07:30:00 0.0
2018_01_05_S5 01/05/2018 07:35:00 0.0
2018_01_05_S5 01/05/2018 07:40:00 0.0
2018_01_05_S5 01/05/2018 07:45:00 0.0
2018_01_05_S5 01/05/2018 07:50:00 0.0
2018_01_05_S5 01/05/2018 07:55:00 0.0
2018_01_05_S5 01/05/2018 08:00:00 0.0067
2018_01_05_S5 01/05/2018 08:05:00 0.0
2018_01_05_S5 01/05/2018 08:10:00 0.0
2018_01_05_S5 01/05/2018 08:15:00 0.0227
2018_01_05_S5 01/05/2018 08:20:00 0.0
2018_01_05_S5 01/05/2018 08:25:00 0.0042
2018_01_05_S5 01/05/2018 08:30:00 0.1075
2018_01_05_S5 01/05/2018 08:35:00 0.2957
2018_01_05_S5 01/05/2018 08:40:00 0.614
2018_01_05_S5 01/05/2018 08:45:00 1.944
2018_01_05_S5 01/05/2018 08:50:00 0.6072
2018_01_05_S5 01/05/2018 08:55:00 3.1945
2018_01_05_S5 01/05/2018 09:00:00 0.4363
2018_01_05_S5 01/05/2018 09:05:00 0.6095
2018_01_05_S5 01/05/2018 09:10:00 0.6827
2018_01_05_S5 01/05/2018 09:15:00 0.1273
2018_01_05_S5 01/05/2018 09:20:00 0.003
2018_01_05_S5 01/05/2018 09:25:00 0.0
2018_01_05_S5 01/05/2018 09:30:00 0.0
2018_01_05_S5 01/05/2018 09:35:00 0.0302
2018_01_05_S5 01/05/2018 09:40:00 2.6567
2018_01_05_S5 01/05/2018 09:45:00 0.0317
2018_01_05_S5 01/05/2018 09:50:00 0.5511
2018_01_05_S5 01/05/2018 09:55:00 7.1518
2018_01_05_S5 01/05/2018 10:00:00 0.14
2018_01_05_S5 01/05/2018 10:05:00 0.6416
2018_01_05_S5 01/05/2018 10:10:00 0.0
2018_01_05_S5 01/05/2018 10:15:00 0.001
2018_01_05_S5 01/05/2018 10:20:00 0.0
2018_01_05_S5 01/05/2018 10:25:00 0.1177
2018_01_05_S5 01/05/2018 10:30:00 0.8463
2018_01_05_S5 01/05/2018 10:35:00 0.0227
2018_01_05_S5 01/05/2018 10:40:00 0.3065
2018_01_05_S5 01/05/2018 10:45:00 1.7784
2018_01_05_S5 01/05/2018 10:50:00 0.0562
2018_01_05_S5 01/05/2018 10:55:00 0.0
2018_01_05_S5 01/05/2018 11:00:00 0.0401
2018_01_05_S5 01/05/2018 11:05:00 0.0997
2018_01_05_S5 01/05/2018 11:10:00 0.135
2018_01_05_S5 01/05/2018 11:15:00 0.3836
2018_01_05_S5 01/05/2018 11:20:00 0.1391
2018_01_05_S5 01/05/2018 11:25:00 0.0792
2018_01_05_S5 01/05/2018 11:30:00 0.1274
2018_01_05_S5 01/05/2018 11:35:00 0.1339
2018_01_05_S5 01/05/2018 11:40:00 0.1164
2018_01_05_S5 01/05/2018 11:45:00 0.0144
2018_01_05_S5 01/05/2018 11:50:00 0.0
2018_01_05_S5 01/05/2018 11:55:00 0.0
2018_01_05_S5 01/05/2018 12:00:00 0.0835
2018_01_05_S5 01/05/2018 12:05:00 0.2132
2018_01_05_S5 01/05/2018 12:10:00 1.0518
2018_01_05_S5 01/05/2018 12:15:00 0.8355
2018_01_05_S5 01/05/2018 12:20:00 0.3096
2018_01_05_S5 01/05/2018 12:25:00 0.1394
2018_01_05_S5 01/05/2018 12:30:00 0.6018
2018_01_05_S5 01/05/2018 12:35:00 0.5341
2018_01_05_S5 01/05/2018 12:40:00 0.5702
2018_01_05_S5 01/05/2018 12:45:00 3.5397
2018_01_05_S5 01/05/2018 12:50:00 0.0094
2018_01_05_S5 01/05/2018 12:55:00 0.0572
2018_01_05_S5 01/05/2018 13:00:00 0.0298
2018_01_05_S5 01/05/2018 13:05:00 0.3692
2018_01_05_S5 01/05/2018 13:10:00 0.0
2018_01_05_S5 01/05/2018 13:15:00 0.0
2018_01_05_S5 01/05/2018 13:20:00 0.0048
2018_01_05_S5 01/05/2018 13:25:00 0.009
2018_01_05_S5 01/05/2018 13:30:00 0.0109
2018_01_05_S5 01/05/2018 13:35:00 0.0001
2018_01_05_S5 01/05/2018 13:40:00 0.0133
2018_01_05_S5 01/05/2018 13:45:00 0.3146
2018_01_05_S5 01/05/2018 13:50:00 0.3027
2018_01_05_S5 01/05/2018 13:55:00 2.6611
2018_01_05_S5 01/05/2018 14:00:00 0.5381
2018_01_05_S5 01/05/2018 14:05:00 0.4775
2018_01_05_S5 01/05/2018 14:10:00 0.4008
2018_01_05_S5 01/05/2018 14:15:00 0.8012
2018_01_05_S5 01/05/2018 14:20:00 0.0
2018_01_05_S5 01/05/2018 14:25:00 0.0
2018_01_05_S5 01/05/2018 14:30:00 0.0
2018_01_05_S5 01/05/2018 14:35:00 0.0455
2018_01_05_S5 01/05/2018 14:40:00 0.0876
2018_01_05_S5 01/05/2018 14:45:00 0.562
2018_01_05_S5 01/05/2018 14:50:00 0.0089
2018_01_05_S5 01/05/2018 14:55:00 0.0
2018_01_05_S5 01/05/2018 15:00:00 0.0
2018_01_05_S5 01/05/2018 15:05:00 0.0
2018_01_05_S5 01/05/2018 15:10:00 0.0035
2018_01_05_S5 01/05/2018 15:15:00 0.3661
2018_01_05_S5 01/05/2018 15:20:00 0.3127
2018_01_05_S5 01/05/2018 15:25:00 0.0
2018_01_05_S5 01/05/2018 15:30:00 0.0
2018_01_05_S5 01/05/2018 15:35:00 0.0692
2018_01_05_S5 01/05/2018 15:40:00 0.0382
2018_01_05_S5 01/05/2018 15:45:00 0.0
2018_01_05_S5 01/05/2018 15:50:00 0.0
2018_01_05_S5 01/05/2018 15:55:00 0.0
2018_01_05_S5 01/05/2018 16:00:00 0.0
2018_01_05_S5 01/05/2018 16:05:00 0.0
2018_01_05_S5 01/05/2018 16:10:00 0.0
2018_01_05_S5 01/05/2018 16:15:00 0.0
2018_01_05_S5 01/05/2018 16:20:00 0.0
2018_01_05_S5 01/05/2018 16:25:00 0.0
2018_01_05_S5 01/05/2018 16:30:00 0.0
2018_01_05_S5 01/05/2018 16:35:00 0.0
2018_01_05_S5 01/05/2018 16:40:00 0.0
2018_01_05_S5 01/05/2018 16:45:00 0.0
2018_01_05_S5 01/05/2018 16:50:00 0.0
2018_01_05_S5 01/05/2018 16:55:00 0.0
2018_01_05_S5 01/05/2018 17:00:00 0.0
2018_01_05_S5 01/05/2018 17:05:00 0.0
2018_01_05_S5 01/05/2018 17:10:00 0.0
2018_01_05_S5 01/05/2018 17:15:00 0.0
2018_01_05_S5 01/05/2018 17:20:00 0.0
2018_01_05_S5 01/05/2018 17:25:00 0.0
2018_01_05_S5 01/05/2018 17:30:00 0.0
2018_01_05_S5 01/05/2018 17:35:00 0.0
2018_01_05_S5 01/05/2018 17:40:00 0.0
2018_01_05_S5 01/05/2018 17:45:00 0.0
2018_01_05_S5 01/05/2018 17:50:00 0.0
2018_01_05_S5 01/05/2018 17:55:00 0.0271
2018_01_05_S5 01/05/2018 18:00:00 0.0073
2018_01_05_S5 01/05/2018 18:05:00 0.0
2018_01_05_S5 01/05/2018 18:10:00 0.0
2018_01_05_S5 01/05/2018 18:15:00 0.0337
2018_01_05_S5 01/05/2018 18:20:00 0.0135
2018_01_05_S5 01/05/2018 18:25:00 0.0
2018_01_05_S5 01/05/2018 18:30:00 0.0
2018_01_05_S5 01/05/2018 18:35:00 0.0
2018_01_05_S5 01/05/2018 18:40:00 0.0
2018_01_05_S5 01/05/2018 18:45:00 0.0
2018_01_05_S5 01/05/2018 18:50:00 0.0
2018_01_05_S5 01/05/2018 18:55:00 0.0
2018_01_05_S5 01/05/2018 19:00:00 0.0
2018_01_05_S5 01/05/2018 19:05:00 0.0
2018_01_05_S5 01/05/2018 19:10:00 0.0
2018_01_05_S5 01/05/2018 19:15:00 0.0
2018_01_05_S5 01/05/2018 19:20:00 0.0
2018_01_05_S5 01/05/2018 19:25:00 0.0
2018_01_05_S5 01/05/2018 19:30:00 0.0
2018_01_05_S5 01/05/2018 19:35:00 0.0014
2018_01_05_S5 01/05/2018 19:40:00 0.0
2018_01_05_S5 01/05/2018 19:45:00 0.0241
2018_01_05_S5 01/05/2018 19:50:00 0.076
2018_01_05_S5 01/05/2018 19:55:00 0.0182
2018_01_05_S5 01/05/2018 20:00:00 0.0072
2018_01_05_S5 01/05/2018 20:05:00 0.0
2018_01_05_S5 01/05/2018 20:10:00 0.0
2018_01_05_S5 01/05/2018 20:15:00 0.0
2018_01_05_S5 01/05/2018 20:20:00 0.0
2018_01_05_S5 01/05/2018 20:25:00 0.0
2018_01_05_S5 01/05/2018 20:30:00 0.0
2018_01_05_S5 01/05/2018 20:35:00 0.0
2018_01_05_S5 01/05/2018 20:40:00 0.0
2018_01_05_S5 01/05/2018 20:45:00 0.0
2018_01_05_S5 01/05/2018 20:50:00 0.057
2018_01_05_S5 01/05/2018 20:55:00 0.0
2018_01_05_S5 01/05/2018 21:00:00 0.0
2018_01_05_S5 01/05/2018 21:05:00 0.0
2018_01_05_S5 01/05/2018 21:10:00 0.0
2018_01_05_S5 01/05/2018 21:15:00 0.0
2018_01_05_S5 01/05/2018 21:20:00 0.0
2018_01_05_S5 01/05/2018 21:25:00 0.0
2018_01_05_S5 01/05/2018 21:30:00 0.0
2018_01_05_S5 01/05/2018 21:35:00 0.0
2018_01_05_S5 01/05/2018 21:40:00 0.0
2018_01_05_S5 01/05/2018 21:45:00 0.0
2018_01_05_S5 01/05/2018 21:50:00 0.0
2018_01_05_S5 01/05/2018 21:55:00 0.0
2018_01_05_S5 01/05/2018 22:00:00 0.0
2018_01_05_S5 01/05/2018 22:05:00 0.0
2018_01_05_S5 01/05/2018 22:10:00 0.0
2018_01_05_S5 01/05/2018 22:15:00 0.0
2018_01_05_S5 01/05/2018 22:20:00 0.0
2018_01_05_S5 01/05/2018 22:25:00 0.014
2018_01_05_S5 01/05/2018 22:30:00 0.0023
2018_01_05_S5 01/05/2018 22:35:00 0.0013
2018_01_05_S5 01/05/2018 22:40:00 0.0082
2018_01_05_S5 01/05/2018 22:45:00 0.0
2018_01_05_S5 01/05/2018 22:50:00 0.0
2018_01_05_S5 01/05/2018 22:55:00 0.0
2018_01_05_S5 01/05/2018 23:00:00 0.0
2018_01_05_S5 01/05/2018 23:05:00 0.0
2018_01_05_S5 01/05/2018 23:10:00 0.0
2018_01_05_S5 01/05/2018 23:15:00 0.0
2018_01_05_S5 01/05/2018 23:20:00 0.0
2018_01_05_S5 01/05/2018 23:25:00 0.0
2018_01_05_S5 01/05/2018 23:30:00 0.0
2018_01_05_S5 01/05/2018 23:35:00 0.0
2018_01_05_S5 01/05/2018 23:40:00 0.0001
2018_01_05_S5 01/05/2018 23:45:00 0.0846
2018_01_05_S5 01/05/2018 23:50:00 0.0172
2018_01_05_S5 01/05/2018 23:55:00 0.0025
2018_01_05_S5 01/06/2018 00:00:00 0.0053
2018_01_05_S5 01/06/2018 00:05:00 0.067
2018_01_05_S5 01/06/2018 00:10:00 0.0425
2018_01_05_S5 01/06/2018 00:15:00 0.3757
2018_01_05_S5 01/06/2018 00:20:00 0.0
2018_01_05_S5 01/06/2018 00:25:00 0.0
2018_01_05_S5 01/06/2018 00:30:00 0.0
2018_01_05_S5 01/06/2018 00:35:00 0.0
2018_01_05_S5 01/06/2018 00:40:00 0.0
2018_01_05_S5 01/06/2018 00:45:00 0.0
2018_01_05_S5 01/06/2018 00:50:00 0.0
2018_01_05_S5 01/06/2018 00:55:00 0.0
2018_01_05_S5 01/06/2018 01:00:00 0.0
2018_01_05_S5 01/06/2018 01:05:00 0.0115
2018_01_05_S5 01/06/2018 01:10:00 0.0099
2018_01_05_S5 01/06/2018 01:15:00 0.0
2018_01_05_S5 01/06/2018 01:20:00 0.0
2018_01_05_S5 01/06/2018 01:25:00 0.0
2018_01_05_S5 01/06/2018 01:30:00 0.0
2018_01_05_S5 01/06/2018 01:35:00 0.0
2018_01_05_S5 01/06/2018 01:40:00 0.0
2018_01_05_S5 01/06/2018 01:45:00 0.0
2018_01_05_S5 01/06/2018 01:50:00 0.0
2018_01_05_S5 01/06/2018 01:55:00 0.0
2018_01_05_S5 01/06/2018 02:00:00 0.0
2018_01_05_S5 01/06/2018 02:05:00 0.0
2018_01_05_S5 01/06/2018 02:10:00 0.0
2018_01_05_S5 01/06/2018 02:15:00 0.0
2018_01_05_S5 01/06/2018 02:20:00 0.0
2018_01_05_S5 01/06/2018 02:25:00 0.0
2018_01_05_S5 01/06/2018 02:30:00 0.0
2018_01_05_S5 01/06/2018 02:35:00 0.0
2018_01_05_S5 01/06/2018 02:40:00 0.0
2018_01_05_S5 01/06/2018 02:45:00 0.0234
2018_01_05_S5 01/06/2018 02:50:00 0.0
2018_01_05_S5 01/06/2018 02:55:00 0.0
2018_01_05_S5 01/06/2018 03:00:00 0.0
2018_01_05_S5 01/06/2018 03:05:00 0.0
2018_01_05_S5 01/06/2018 03:10:00 0.0
2018_01_05_S5 01/06/2018 03:15:00 0.0
2018_01_05_S5 01/06/2018 03:20:00 0.0
2018_01_05_S5 01/06/2018 03:25:00 0.0
2018_01_05_S5 01/06/2018 03:30:00 0.0
2018_01_05_S5 01/06/2018 03:35:00 0.0
2018_01_05_S5 01/06/2018 03:40:00 0.1094
2018_01_05_S5 01/06/2018 03:45:00 0.0092
2018_01_05_S5 01/06/2018 03:50:00 0.0
2018_01_05_S5 01/06/2018 03:55:00 0.0
2018_01_05_S5 01/06/2018 04:00:00 0.0
2018_01_05_S5 01/06/2018 04:05:00 0.0
2018_01_05_S5 01/06/2018 04:10:00 0.0
2018_01_05_S5 01/06/2018 04:15:00 0.0
2018_01_05_S5 01/06/2018 04:20:00 0.002
2018_01_05_S5 01/06/2018 04:25:00 0.0
2018_01_05_S5 01/06/2018 04:30:00 0.0
2018_01_05_S5 01/06/2018 04:35:00 0.0
2018_01_05_S5 01/06/2018 04:40:00 0.0
2018_01_05_S5 01/06/2018 04:45:00 0.0
2018_01_05_S5 01/06/2018 04:50:00 0.0
2018_01_05_S5 01/06/2018 04:55:00 0.0
2018_01_05_S5 01/06/2018 05:00:00 0.0
2018_01_05_S5 01/06/2018 05:05:00 0.0
2018_01_05_S5 01/06/2018 05:10:00 0.0
2018_01_05_S5 01/06/2018 05:15:00 0.0
2018_01_05_S5 01/06/2018 05:20:00 0.0
2018_01_05_S5 01/06/2018 05:25:00 0.0
2018_01_05_S5 01/06/2018 05:30:00 0.0168
2018_01_05_S5 01/06/2018 05:35:00 0.6247
2018_01_05_S5 01/06/2018 05:40:00 0.0013
2018_01_05_S5 01/06/2018 05:45:00 0.0
2018_01_05_S5 01/06/2018 05:50:00 0.0
2018_01_05_S5 01/06/2018 05:55:00 0.0
2018_01_05_S5 01/06/2018 06:00:00 0.0
2018_01_05_S5 01/06/2018 06:05:00 0.0048
2018_01_05_S5 01/06/2018 06:10:00 0.0278
2018_01_05_S5 01/06/2018 06:15:00 0.0075
2018_01_05_S5 01/06/2018 06:20:00 0.0119
2018_01_05_S5 01/06/2018 06:25:00 0.0095
2018_01_05_S5 01/06/2018 06:30:00 0.0
2018_01_05_S5 01/06/2018 06:35:00 0.0
2018_01_05_S5 01/06/2018 06:40:00 0.003
2018_01_05_S5 01/06/2018 06:45:00 0.017
2018_01_05_S5 01/06/2018 06:50:00 0.0164
2018_01_05_S5 01/06/2018 06:55:00 0.0406
2018_01_05_S5 01/06/2018 07:00:00 0.034
2018_01_05_S5 01/06/2018 07:05:00 0.0169
2018_01_05_S5 01/06/2018 07:10:00 0.0056
2018_01_05_S5 01/06/2018 07:15:00 0.0
2018_01_05_S5 01/06/2018 07:20:00 0.0
2018_01_05_S5 01/06/2018 07:25:00 0.0
2018_01_05_S5 01/06/2018 07:30:00 0.0
2018_01_05_S5 01/06/2018 07:35:00 0.0
2018_01_05_S5 01/06/2018 07:40:00 0.0009
2018_01_05_S5 01/06/2018 07:45:00 0.0473
2018_01_05_S5 01/06/2018 07:50:00 0.0622
2018_01_05_S5 01/06/2018 07:55:00 0.0235
2018_01_05_S5 01/06/2018 08:00:00 0.0

2018_01_05_S6 01/04/2018 10:25:00 0.0719
2018_01_05_S6 01/04/2018 10:30:00 0.0663
2018_01_05_S6 01/04/2018 10:35:00 0.0414
2018_01_05_S6 01/04/2018 10:40:00 0.0001
2018_01_05_S6 01/04/2018 10:45:00 0.0128
2018_01_05_S6 01/04/2018 10:50:00 0.0037
2018_01_05_S6 01/04/2018 10:55:00 0.0
2018_01_05_S6 01/04/2018 11:00:00 0.0
2018_01_05_S6 01/04/2018 11:05:00 1.369
2018_01_05_S6 01/04/2018 11:10:00 0.0868
2018_01_05_S6 01/04/2018 11:15:00 3.2287
2018_01_05_S6 01/04/2018 11:20:00 0.0961
2018_01_05_S6 01/04/2018 11:25:00 0.1641
2018_01_05_S6 01/04/2018 11:30:00 0.0
2018_01_05_S6 01/04/2018 11:35:00 0.0
2018_01_05_S6 01/04/2018 11:40:00 0.0
2018_01_05_S6 01/04/2018 11:45:00 0.0
2018_01_05_S6 01/04/2018 11:50:00 0.0
2018_01_05_S6 01/04/2018 11:55:00 0.0
2018_01_05_S6 01/04/2018 12:00:00 0.0
2018_01_05_S6 01/04/2018 12:05:00 0.0
2018_01_05_S6 01/04/2018 12:10:00 0.0
2018_01_05_S6 01/04/2018 12:15:00 0.0
2018_01_05_S6 01/04/2018 12:20:00 0.0
2018_01_05_S6 01/04/2018 12:25:00 0.0
2018_01_05_S6 01/04/2018 12:30:00 0.0014
2018_01_05_S6 01/04/2018 12:35:00 0.0
2018_01_05_S6 01/04/2018 12:40:00 0.0
2018_01_05_S6 01/04/2018 12:45:00 0.0
2018_01_05_S6 01/04/2018 12:50:00 0.0
2018_01_05_S6 01/04/2018 12:55:00 0.0
2018_01_05_S6 01/04/2018 13:00:00 0.0
2018_01_05_S6 01/04/2018 13:05:00 0.0
2018_01_05_S6 01/04/2018 13:10:00 0.0
2018_01_05_S6 01/04/2018 13:15:00 0.0075
2018_01_05_S6 01/04/2018 13:20:00 0.0
2018_01_05_S6 01/04/2018 13:25:00 0.0
2018_01_05_S6 01/04/2018 13:30:00 0.0
2018_01_05_S6 01/04/2018 13:35:00 0.0
2018_01_05_S6 01/04/2018 13:40:00 0.0
2018_01_05_S6 01/04/2018 13:45:00 0.0
2018_01_05_S6 01/04/2018 13:50:00 0.0
2018_01_05_S6 01/04/2018 13:55:00 0.0009
2018_01_05_S6 01/04/2018 14:00:00 0.0015
2018_01_05_S6 01/04/2018 14:05:00 0.0
2018_01_05_S6 01/04/2018 14:10:00 0.0
2018_01_05_S6 01/04/2018 14:15:00 0.0024
2018_01_05_S6 01/04/2018 14:20:00 0.0
2018_01_05_S6 01/04/2018 14:25:00 0.0026
2018_01_05_S6 01/04/2018 14:30:00 0.0
2018_01_05_S6 01/04/2018 14:35:00 0.0033
2018_01_05_S6 01/04/2018 14:40:00 0.0027
2018_01_05_S6 01/04/2018 14:45:00 0.0
2018_01_05_S6 01/04/2018 14:50:00 0.0
2018_01_05_S6 01/04/2018 14:55:00 0.0
2018_01_05_S6 01/04/2018 15:00:00 0.0
2018_01_05_S6 01/04/2018 15:05:00 0.0
2018_01_05_S6 01/04/2018 15:10:00 0.0
2018_01_05_S6 01/04/2018 15:15:00 0.0
2018_01_05_S6 01/04/2018 15:20:00 0.0
2018_01_05_S6 01/04/2018 15:25:00 0.0
2018_01_05_S6 01/04/2018 15:30:00 0.0545
2018_01_05_S6 01/04/2018 15:35:00 0.0536
2018_01_05_S6 01/04/2018 15:40:00 0.0
2018_01_05_S6 01/04/2018 15:45:00 0.0
2018_01_05_S6 01/04/2018 15:50:00 0.0
2018_01_05_S6 01/04/2018 15:55:00 0.0558
2018_01_05_S6 01/04/2018 16:00:00 0.0648
2018_01_05_S6 01/04/2018 16:05:00 0.105
2018_01_05_S6 01/04/2018 16:10:00 0.0
2018_01_05_S6 01/04/2018 16:15:00 0.0571
2018_01_05_S6 01/04/2018 16:20:00 0.0927
2018_01_05_S6 01/04/2018 16:25:00 0.0032
2018_01_05_S6 01/04/2018 16:30:00 0.0
2018_01_05_S6 01/04/2018 16:35:00 0.0
2018_01_05_S6 01/04/2018 16:40:00 0.0
2018_01_05_S6 01/04/2018 16:45:00 0.0
2018_01_05_S6 01/04/2018 16:50:00 0.0
2018_01_05_S6 01/04/2018 16:55:00 0.0
2018_01_05_S6 01/04/2018 17:00:00 0.0052
2018_01_05_S6 01/04/2018 17:05:00 0.0
2018_01_05_S6 01/04/2018 17:10:00 0.1991
2018_01_05_S6 01/04/2018 17:15:00 0.0
2018_01_05_S6 01/04/2018 17:20:00 0.0
2018_01_05_S6 01/04/2018 17:25:00 0.0
2018_01_05_S6 01/04/2018 17:30:00 0.0828
2018_01_05_S6 01/04/2018 17:35:00 0.117
2018_01_05_S6 01/04/2018 17:40:00 0.2821
2018_01_05_S6 01/04/2018 17:45:00 0.1996
2018_01_05_S6 01/04/2018 17:50:00 0.0859
2018_01_05_S6 01/04/2018 17:55:00 0.1591
2018_01_05_S6 01/04/2018 18:00:00 0.2433
2018_01_05_S6 01/04/2018 18:05:00 0.259
2018_01_05_S6 01/04/2018 18:10:00 0.1255
2018_01_05_S6 01/04/2018 18:15:00 0.0249
2018_01_05_S6 01/04/2018 18:20:00 0.0004
2018_01_05_S6 01/04/2018 18:25:00 0.0
2018_01_05_S6 01/04/2018 18:30:00 0.0
2018_01_05_S6 01/04/2018 18:35:00 0.0
2018_01_05_S6 01/04/2018 18:40:00 0.0
2018_01_05_S6 01/04/2018 18:45:00 0.0
2018_01_05_S6 01/04/2018 18:50:00 0.0
2018_01_05_S6 01/04/2018 18:55:00 0.0
2018_01_05_S6 01/04/2018 19:00:00 0.0
2018_01_05_S6 01/04/2018 19:05:00 0.0
2018_01_05_S6 01/04/2018 19:10:00 0.0
2018_01_05_S6 01/04/2018 19:15:00 0.0
2018_01_05_S6 01/04/2018 19:20:00 0.0
2018_01_05_S6 01/04/2018 19:25:00 0.0
2018_01_05_S6 01/04/2018 19:30:00 0.0
2018_01_05_S6 01/04/2018 19:35:00 0.0
2018_01_05_S6 01/04/2018 19:40:00 0.0
2018_01_05_S6 01/04/2018 19:45:00 0.0
2018_01_05_S6 01/04/2018 19:50:00 0.0
2018_01_05_S6 01/04/2018 19:55:00 0.0
2018_01_05_S6 01/04/2018 20:00:00 0.0
2018_01_05_S6 01/04/2018 20:05:00 0.0
2018_01_05_S6 01/04/2018 20:10:00 0.0
2018_01_05_S6 01/04/2018 20:15:00 0.0
2018_01_05_S6 01/04/2018 20:20:00 0.0
2018_01_05_S6 01/04/2018 20:25:00 0.0027
2018_01_05_S6 01/04/2018 20:30:00 0.0
2018_01_05_S6 01/04/2018 20:35:00 0.0
2018_01_05_S6 01/04/2018 20:40:00 0.0
2018_01_05_S6 01/04/2018 20:45:00 0.0
2018_01_05_S6 01/04/2018 20:50:00 0.0
2018_01_05_S6 01/04/2018 20:55:00 0.0
2018_01_05_S6 01/04/2018 21:00:00 0.0
2018_01_05_S6 01/04/2018 21:05:00 0.0
2018_01_05_S6 01/04/2018 21:10:00 0.0
2018_01_05_S6 01/04/2018 21:15:00 0.0
2018_01_05_S6 01/04/2018 21:20:00 0.0
2018_01_05_S6 01/04/2018 21:25:00 0.0073
2018_01_05_S6 01/04/2018 21:30:00 0.5162
2018_01_05_S6 01/04/2018 21:35:00 0.0074
2018_01_05_S6 01/04/2018 21:40:00 0.0443
2018_01_05_S6 01/04/2018 21:45:00 0.0037
2018_01_05_S6 01/04/2018 21:50:00 0.0
2018_01_05_S6 01/04/2018 21:55:00 0.0
2018_01_05_S6 01/04/2018 22:00:00 0.0
2018_01_05_S6 01/04/2018 22:05:00 0.0
2018_01_05_S6 01/04/2018 22:10:00 0.0
2018_01_05_S6 01/04/2018 22:15:00 0.0
2018_01_05_S6 01/04/2018 22:20:00 0.0
2018_01_05_S6 01/04/2018 22:25:00 0.0
2018_01_05_S6 01/04/2018 22:30:00 0.0
2018_01_05_S6 01/04/2018 22:35:00 0.0
2018_01_05_S6 01/04/2018 22:40:00 0.0
2018_01_05_S6 01/04/2018 22:45:00 0.0
2018_01_05_S6 01/04/2018 22:50:00 0.0
2018_01_05_S6 01/04/2018 22:55:00 0.0
2018_01_05_S6 01/04/2018 23:00:00 0.0
2018_01_05_S6 01/04/2018 23:05:00 0.0
2018_01_05_S6 01/04/2018 23:10:00 0.0
2018_01_05_S6 01/04/2018 23:15:00 0.0
2018_01_05_S6 01/04/2018 23:20:00 0.0
2018_01_05_S6 01/04/2018 23:25:00 0.0
2018_01_05_S6 01/04/2018 23:30:00 0.0
2018_01_05_S6 01/04/2018 23:35:00 0.0
2018_01_05_S6 01/04/2018 23:40:00 0.0
2018_01_05_S6 01/04/2018 23:45:00 0.0
2018_01_05_S6 01/04/2018 23:50:00 0.0
2018_01_05_S6 01/04/2018 23:55:00 0.0
2018_01_05_S6 01/05/2018 00:00:00 0.0
2018_01_05_S6 01/05/2018 00:05:00 0.0
2018_01_05_S6 01/05/2018 00:10:00 0.0
2018_01_05_S6 01/05/2018 00:15:00 0.0
2018_01_05_S6 01/05/2018 00:20:00 0.0
2018_01_05_S6 01/05/2018 00:25:00 0.0
2018_01_05_S6 01/05/2018 00:30:00 0.0
2018_01_05_S6 01/05/2018 00:35:00 0.0
2018_01_05_S6 01/05/2018 00:40:00 0.0
2018_01_05_S6 01/05/2018 00:45:00 0.0
2018_01_05_S6 01/05/2018 00:50:00 0.2199
2018_01_05_S6 01/05/2018 00:55:00 0.1357
2018_01_05_S6 01/05/2018 01:00:00 0.0011
2018_01_05_S6 01/05/2018 01:05:00 0.1272
2018_01_05_S6 01/05/2018 01:10:00 0.0338
2018_01_05_S6 01/05/2018 01:15:00 0.0044
2018_01_05_S6 01/05/2018 01:20:00 0.1141
2018_01_05_S6 01/05/2018 01:25:00 0.0397
2018_01_05_S6 01/05/2018 01:30:00 0.0029
2018_01_05_S6 01/05/2018 01:35:00 0.0078
2018_01_05_S6 01/05/2018 01:40:00 0.0
2018_01_05_S6 01/05/2018 01:45:00 0.0387
2018_01_05_S6 01/05/2018 01:50:00 0.0572
2018_01_05_S6 01/05/2018 01:55:00 0.0013
2018_01_05_S6 01/05/2018 02:00:00 0.0187
2018_01_05_S6 01/05/2018 02:05:00 0.011
2018_01_05_S6 01/05/2018 02:10:00 0.0046
2018_01_05_S6 01/05/2018 02:15:00 0.0159
2018_01_05_S6 01/05/2018 02:20:00 0.0
2018_01_05_S6 01/05/2018 02:25:00 0.0
2018_01_05_S6 01/05/2018 02:30:00 0.0
2018_01_05_S6 01/05/2018 02:35:00 0.0
2018_01_05_S6 01/05/2018 02:40:00 0.0
2018_01_05_S6 01/05/2018 02:45:00 0.0
2018_01_05_S6 01/05/2018 02:50:00 0.0
2018_01_05_S6 01/05/2018 02:55:00 0.0
2018_01_05_S6 01/05/2018 03:00:00 0.0
2018_01_05_S6 01/05/2018 03:05:00 0.3553
2018_01_05_S6 01/05/2018 03:10:00 0.5311
2018_01_05_S6 01/05/2018 03:15:00 0.4588
2018_01_05_S6 01/05/2018 03:20:00 1.0371
2018_01_05_S6 01/05/2018 03:25:00 0.233
2018_01_05_S6 01/05/2018 03:30:00 0.2488
2018_01_05_S6 01/05/2018 03:35:00 0.0627
2018_01_05_S6 01/05/2018 03:40:00 0.0
2018_01_05_S6 01/05/2018 03:45:00 0.0132
2018_01_05_S6 01/05/2018 03:50:00 0.05
2018_01_05_S6 01/05/2018 03:55:00 0.0294
2018_01_05_S6 01/05/2018 04:00:00 0.0471
2018_01_05_S6 01/05/2018 04:05:00 0.0
2018_01_05_S6 01/05/2018 04:10:00 0.0023
2018_01_05_S6 01/05/2018 04:15:00 0.0074
2018_01_05_S6 01/05/2018 04:20:00 0.0104
2018_01_05_S6 01/05/2018 04:25:00 0.1566
2018_01_05_S6 01/05/2018 04:30:00 0.0271
2018_01_05_S6 01/05/2018 04:35:00 0.0158
2018_01_05_S6 01/05/2018 04:40:00 0.0412
2018_01_05_S6 01/05/2018 04:45:00 0.1333
2018_01_05_S6 01/05/2018 04:50:00 0.0149
2018_01_05_S6 01/05/2018 04:55:00 0.0006
2018_01_05_S6 01/05/2018 05:00:00 0.1218
2018_01_05_S6 01/05/2018 05:05:00 0.0043
2018_01_05_S6 01/05/2018 05:10:00 0.0
2018_01_05_S6 01/05/2018 05:15:00 0.0
2018_01_05_S6 01/05/2018 05:20:00 0.009
2018_01_05_S6 01/05/2018 05:25:00 0.0
2018_01_05_S6 01/05/2018 05:30:00 0.0039
2018_01_05_S6 01/05/2018 05:35:00 0.0
2018_01_05_S6 01/05/2018 05:40:00 0.0
2018_01_05_S6 01/05/2018 05:45:00 0.0069
2018_01_05_S6 01/05/2018 05:50:00 0.0
2018_01_05_S6 01/05/2018 05:55:00 0.0348
2018_01_05_S6 01/05/2018 06:00:00 0.117
2018_01_05_S6 01/05/2018 06:05:00 0.1271
2018_01_05_S6 01/05/2018 06:10:00 0.0013
2018_01_05_S6 01/05/2018 06:15:00 0.0661
2018_01_05_S6 01/05/2018 06:20:00 4.1825
2018_01_05_S6 01/05/2018 06:25:00 1.2081
2018_01_05_S6 01/05/2018 06:30:00 1.0991
2018_01_05_S6 01/05/2018 06:35:00 1.0128
2018_01_05_S6 01/05/2018 06:40:00 0.5687
2018_01_05_S6 01/05/2018 06:45:00 0.9784
2018_01_05_S6 01/05/2018 06:50:00 1.2881
2018_01_05_S6 01/05/2018 06:55:00 0.2727
2018_01_05_S6 01/05/2018 07:00:00 0.3426
2018_01_05_S6 01/05/2018 07:05:00 0.0537
2018_01_05_S6 01/05/2018 07:10:00 0.0189
2018_01_05_S6 01/05/2018 07:15:00 0.0
2018_01_05_S6 01/05/2018 07:20:00 0.0
2018_01_05_S6 01/05/2018 07:25:00 0.0
2018_01_05_S6 01/05/2018 07:30:00 0.0
2018_01_05_S6 01/05/2018 07:35:00 0.0
2018_01_05_S6 01/05/2018 07:40:00 0.0
2018_01_05_S6 01/05/2018 07:45:00 0.0
2018_01_05_S6 01/05/2018 07:50:00 0.0
2018_01_05_S6 01/05/2018 07:55:00 0.0
2018_01_05_S6 01/05/2018 08:00:00 0.0
2018_01_05_S6 01/05/2018 08:05:00 0.0
2018_01_05_S6 01/05/2018 08:10:00 0.0
2018_01_05_S6 01/05/2018 08:15:00 0.0021
2018_01_05_S6 01/05/2018 08:20:00 0.0
2018_01_05_S6 01/05/2018 08:25:00 0.0144
2018_01_05_S6 01/05/2018 08:30:00 0.2561
2018_01_05_S6 01/05/2018 08:35:00 0.5579
2018_01_05_S6 01/05/2018 08:40:00 0.6027
2018_01_05_S6 01/05/2018 08:45:00 1.5241
2018_01_05_S6 01/05/2018 08:50:00 0.747
2018_01_05_S6 01/05/2018 08:55:00 2.3939
2018_01_05_S6 01/05/2018 09:00:00 0.5087
2018_01_05_S6 01/05/2018 09:05:00 0.5373
2018_01_05_S6 01/05/2018 09:10:00 0.7107
2018_01_05_S6 01/05/2018 09:15:00 0.1667
2018_01_05_S6 01/05/2018 09:20:00 0.0013
2018_01_05_S6 01/05/2018 09:25:00 0.0
2018_01_05_S6 01/05/2018 09:30:00 0.0
2018_01_05_S6 01/05/2018 09:35:00 0.0546
2018_01_05_S6 01/05/2018 09:40:00 1.9097
2018_01_05_S6 01/05/2018 09:45:00 0.0323
2018_01_05_S6 01/05/2018 09:50:00 0.5065
2018_01_05_S6 01/05/2018 09:55:00 7.3424
2018_01_05_S6 01/05/2018 10:00:00 0.1671
2018_01_05_S6 01/05/2018 10:05:00 0.2955
2018_01_05_S6 01/05/2018 10:10:00 0.0
2018_01_05_S6 01/05/2018 10:15:00 0.0025
2018_01_05_S6 01/05/2018 10:20:00 0.0
2018_01_05_S6 01/05/2018 10:25:00 0.1555
2018_01_05_S6 01/05/2018 10:30:00 0.957
2018_01_05_S6 01/05/2018 10:35:00 0.0224
2018_01_05_S6 01/05/2018 10:40:00 0.3326
2018_01_05_S6 01/05/2018 10:45:00 1.6964
2018_01_05_S6 01/05/2018 10:50:00 0.0332
2018_01_05_S6 01/05/2018 10:55:00 0.0
2018_01_05_S6 01/05/2018 11:00:00 0.0428
2018_01_05_S6 01/05/2018 11:05:00 0.0567
2018_01_05_S6 01/05/2018 11:10:00 0.1483
2018_01_05_S6 01/05/2018 11:15:00 0.3162
2018_01_05_S6 01/05/2018 11:20:00 0.1842
2018_01_05_S6 01/05/2018 11:25:00 0.0859
2018_01_05_S6 01/05/2018 11:30:00 0.2282
2018_01_05_S6 01/05/2018 11:35:00 0.1917
2018_01_05_S6 01/05/2018 11:40:00 0.1191
2018_01_05_S6 01/05/2018 11:45:00 0.003
2018_01_05_S6 01/05/2018 11:50:00 0.0
2018_01_05_S6 01/05/2018 11:55:00 0.0205
2018_01_05_S6 01/05/2018 12:00:00 0.029
2018_01_05_S6 01/05/2018 12:05:00 0.1162
2018_01_05_S6 01/05/2018 12:10:00 2.1493
2018_01_05_S6 01/05/2018 12:15:00 0.9009
2018_01_05_S6 01/05/2018 12:20:00 0.3886
2018_01_05_S6 01/05/2018 12:25:00 0.147
2018_01_05_S6 01/05/2018 12:30:00 0.3139
2018_01_05_S6 01/05/2018 12:35:00 0.5795
2018_01_05_S6 01/05/2018 12:40:00 0.6718
2018_01_05_S6 01/05/2018 12:45:00 3.946
2018_01_05_S6 01/05/2018 12:50:00 0.0095
2018_01_05_S6 01/05/2018 12:55:00 0.0509
2018_01_05_S6 01/05/2018 13:00:00 0.0324
2018_01_05_S6 01/05/2018 13:05:00 0.6306
2018_01_05_S6 01/05/2018 13:10:00 0.0
2018_01_05_S6 01/05/2018 13:15:00 0.0
2018_01_05_S6 01/05/2018 13:20:00 0.0136
2018_01_05_S6 01/05/2018 13:25:00 0.0189
2018_01_05_S6 01/05/2018 13:30:00 0.009
2018_01_05_S6 01/05/2018 13:35:00 0.0001
2018_01_05_S6 01/05/2018 13:40:00 0.024
2018_01_05_S6 01/05/2018 13:45:00 0.3721
2018_01_05_S6 01/05/2018 13:50:00 0.277
2018_01_05_S6 01/05/2018 13:55:00 1.5333
2018_01_05_S6 01/05/2018 14:00:00 0.6099
2018_01_05_S6 01/05/2018 14:05:00 0.1994
2018_01_05_S6 01/05/2018 14:10:00 0.889
2018_01_05_S6 01/05/2018 14:15:00 0.2226
2018_01_05_S6 01/05/2018 14:20:00 0.0
2018_01_05_S6 01/05/2018 14:25:00 0.0
2018_01_05_S6 01/05/2018 14:30:00 0.0
2018_01_05_S6 01/05/2018 14:35:00 0.0272
2018_01_05_S6 01/05/2018 14:40:00 0.117
2018_01_05_S6 01/05/2018 14:45:00 0.6749
2018_01_05_S6 01/05/2018 14:50:00 0.0225
2018_01_05_S6 01/05/2018 14:55:00 0.0
2018_01_05_S6 01/05/2018 15:00:00 0.0
2018_01_05_S6 01/05/2018 15:05:00 0.0
2018_01_05_S6 01/05/2018 15:10:00 0.0068
2018_01_05_S6 01/05/2018 15:15:00 0.686
2018_01_05_S6 01/05/2018 15:20:00 0.084
2018_01_05_S6 01/05/2018 15:25:00 0.0
2018_01_05_S6 01/05/2018 15:30:00 0.0005
2018_01_05_S6 01/05/2018 15:35:00 0.1045
2018_01_05_S6 01/05/2018 15:40:00 0.0379
2018_01_05_S6 01/05/2018 15:45:00 0.0
2018_01_05_S6 01/05/2018 15:50:00 0.0
2018_01_05_S6 01/05/2018 15:55:00 0.0
2018_01_05_S6 01/05/2018 16:00:00 0.0
2018_01_05_S6 01/05/2018 16:05:00 0.0
2018_01_05_S6 01/05/2018 16:10:00 0.0
2018_01_05_S6 01/05/2018 16:15:00 0.0
2018_01_05_S6 01/05/2018 16:20:00 0.0
2018_01_05_S6 01/05/2018 16:25:00 0.0
2018_01_05_S6 01/05/2018 16:30:00 0.0
2018_01_05_S6 01/05/2018 16:35:00 0.0
2018_01_05_S6 01/05/2018 16:40:00 0.0
2018_01_05_S6 01/05/2018 16:45:00 0.0
2018_01_05_S6 01/05/2018 16:50:00 0.0
2018_01_05_S6 01/05/2018 16:55:00 0.0
2018_01_05_S6 01/05/2018 17:00:00 0.0
2018_01_05_S6 01/05/2018 17:05:00 0.0
2018_01_05_S6 01/05/2018 17:10:00 0.0
2018_01_05_S6 01/05/2018 17:15:00 0.0
2018_01_05_S6 01/05/2018 17:20:00 0.0
2018_01_05_S6 01/05/2018 17:25:00 0.0
2018_01_05_S6 01/05/2018 17:30:00 0.0
2018_01_05_S6 01/05/2018 17:35:00 0.0
2018_01_05_S6 01/05/2018 17:40:00 0.0
2018_01_05_S6 01/05/2018 17:45:00 0.0
2018_01_05_S6 01/05/2018 17:50:00 0.0066
2018_01_05_S6 01/05/2018 17:55:00 0.0249
2018_01_05_S6 01/05/2018 18:00:00 0.0085
2018_01_05_S6 01/05/2018 18:05:00 0.0
2018_01_05_S6 01/05/2018 18:10:00 0.0
2018_01_05_S6 01/05/2018 18:15:00 0.0762
2018_01_05_S6 01/05/2018 18:20:00 0.0102
2018_01_05_S6 01/05/2018 18:25:00 0.0
2018_01_05_S6 01/05/2018 18:30:00 0.0
2018_01_05_S6 01/05/2018 18:35:00 0.0
2018_01_05_S6 01/05/2018 18:40:00 0.0
2018_01_05_S6 01/05/2018 18:45:00 0.0
2018_01_05_S6 01/05/2018 18:50:00 0.0
2018_01_05_S6 01/05/2018 18:55:00 0.0
2018_01_05_S6 01/05/2018 19:00:00 0.0
2018_01_05_S6 01/05/2018 19:05:00 0.0
2018_01_05_S6 01/05/2018 19:10:00 0.0
2018_01_05_S6 01/05/2018 19:15:00 0.0
2018_01_05_S6 01/05/2018 19:20:00 0.0
2018_01_05_S6 01/05/2018 19:25:00 0.0
2018_01_05_S6 01/05/2018 19:30:00 0.0
2018_01_05_S6 01/05/2018 19:35:00 0.0028
2018_01_05_S6 01/05/2018 19:40:00 0.0
2018_01_05_S6 01/05/2018 19:45:00 0.0299
2018_01_05_S6 01/05/2018 19:50:00 0.1393
2018_01_05_S6 01/05/2018 19:55:00 0.0212
2018_01_05_S6 01/05/2018 20:00:00 0.0134
2018_01_05_S6 01/05/2018 20:05:00 0.0
2018_01_05_S6 01/05/2018 20:10:00 0.0
2018_01_05_S6 01/05/2018 20:15:00 0.0
2018_01_05_S6 01/05/2018 20:20:00 0.0
2018_01_05_S6 01/05/2018 20:25:00 0.0
2018_01_05_S6 01/05/2018 20:30:00 0.0
2018_01_05_S6 01/05/2018 20:35:00 0.0
2018_01_05_S6 01/05/2018 20:40:00 0.0
2018_01_05_S6 01/05/2018 20:45:00 0.0
2018_01_05_S6 01/05/2018 20:50:00 0.0053
2018_01_05_S6 01/05/2018 20:55:00 0.0033
2018_01_05_S6 01/05/2018 21:00:00 0.0
2018_01_05_S6 01/05/2018 21:05:00 0.0
2018_01_05_S6 01/05/2018 21:10:00 0.0
2018_01_05_S6 01/05/2018 21:15:00 0.0
2018_01_05_S6 01/05/2018 21:20:00 0.0
2018_01_05_S6 01/05/2018 21:25:00 0.0
2018_01_05_S6 01/05/2018 21:30:00 0.0
2018_01_05_S6 01/05/2018 21:35:00 0.0
2018_01_05_S6 01/05/2018 21:40:00 0.0
2018_01_05_S6 01/05/2018 21:45:00 0.0
2018_01_05_S6 01/05/2018 21:50:00 0.0
2018_01_05_S6 01/05/2018 21:55:00 0.0
2018_01_05_S6 01/05/2018 22:00:00 0.0
2018_01_05_S6 01/05/2018 22:05:00 0.0
2018_01_05_S6 01/05/2018 22:10:00 0.0
2018_01_05_S6 01/05/2018 22:15:00 0.0
2018_01_05_S6 01/05/2018 22:20:00 0.0
2018_01_05_S6 01/05/2018 22:25:00 0.0034
2018_01_05_S6 01/05/2018 22:30:00 0.006
2018_01_05_S6 01/05/2018 22:35:00 0.0
2018_01_05_S6 01/05/2018 22:40:00 0.0054
2018_01_05_S6 01/05/2018 22:45:00 0.0
2018_01_05_S6 01/05/2018 22:50:00 0.0
2018_01_05_S6 01/05/2018 22:55:00 0.0
2018_01_05_S6 01/05/2018 23:00:00 0.0
2018_01_05_S6 01/05/2018 23:05:00 0.0
2018_01_05_S6 01/05/2018 23:10:00 0.0
2018_01_05_S6 01/05/2018 23:15:00 0.0
2018_01_05_S6 01/05/2018 23:20:00 0.0
2018_01_05_S6 01/05/2018 23:25:00 0.0
2018_01_05_S6 01/05/2018 23:30:00 0.0
2018_01_05_S6 01/05/2018 23:35:00 0.0
2018_01_05_S6 01/05/2018 23:40:00 0.0089
2018_01_05_S6 01/05/2018 23:45:00 0.0365
2018_01_05_S6 01/05/2018 23:50:00 0.0116
2018_01_05_S6 01/05/2018 23:55:00 0.0
2018_01_05_S6 01/06/2018 00:00:00 0.0066
2018_01_05_S6 01/06/2018 00:05:00 0.0025
2018_01_05_S6 01/06/2018 00:10:00 0.1066
2018_01_05_S6 01/06/2018 00:15:00 0.1291
2018_01_05_S6 01/06/2018 00:20:00 0.0
2018_01_05_S6 01/06/2018 00:25:00 0.0
2018_01_05_S6 01/06/2018 00:30:00 0.0
2018_01_05_S6 01/06/2018 00:35:00 0.0
2018_01_05_S6 01/06/2018 00:40:00 0.0
2018_01_05_S6 01/06/2018 00:45:00 0.0
2018_01_05_S6 01/06/2018 00:50:00 0.0
2018_01_05_S6 01/06/2018 00:55:00 0.0
2018_01_05_S6 01/06/2018 01:00:00 0.0
2018_01_05_S6 01/06/2018 01:05:00 0.0038
2018_01_05_S6 01/06/2018 01:10:00 0.005
2018_01_05_S6 01/06/2018 01:15:00 0.0
2018_01_05_S6 01/06/2018 01:20:00 0.0
2018_01_05_S6 01/06/2018 01:25:00 0.0
2018_01_05_S6 01/06/2018 01:30:00 0.0
2018_01_05_S6 01/06/2018 01:35:00 0.0
2018_01_05_S6 01/06/2018 01:40:00 0.0
2018_01_05_S6 01/06/2018 01:45:00 0.0
2018_01_05_S6 01/06/2018 01:50:00 0.0
2018_01_05_S6 01/06/2018 01:55:00 0.0
2018_01_05_S6 01/06/2018 02:00:00 0.0
2018_01_05_S6 01/06/2018 02:05:00 0.0
2018_01_05_S6 01/06/2018 02:10:00 0.0
2018_01_05_S6 01/06/2018 02:15:00 0.0
2018_01_05_S6 01/06/2018 02:20:00 0.0
2018_01_05_S6 01/06/2018 02:25:00 0.0
2018_01_05_S6 01/06/2018 02:30:00 0.0
2018_01_05_S6 01/06/2018 02:35:00 0.0
2018_01_05_S6 01/06/2018 02:40:00 0.0
2018_01_05_S6 01/06/2018 02:45:00 0.0002
2018_01_05_S6 01/06/2018 02:50:00 0.0
2018_01_05_S6 01/06/2018 02:55:00 0.0
2018_01_05_S6 01/06/2018 03:00:00 0.0
2018_01_05_S6 01/06/2018 03:05:00 0.0
2018_01_05_S6 01/06/2018 03:10:00 0.0
2018_01_05_S6 01/06/2018 03:15:00 0.0
2018_01_05_S6 01/06/2018 03:20:00 0.0
2018_01_05_S6 01/06/2018 03:25:00 0.0
2018_01_05_S6 01/06/2018 03:30:00 0.0
2018_01_05_S6 01/06/2018 03:35:00 0.0
2018_01_05_S6 01/06/2018 03:40:00 0.4233
2018_01_05_S6 01/06/2018 03:45:00 0.0231
2018_01_05_S6 01/06/2018 03:50:00 0.0
2018_01_05_S6 01/06/2018 03:55:00 0.0
2018_01_05_S6 01/06/2018 04:00:00 0.0
2018_01_05_S6 01/06/2018 04:05:00 0.0
2018_01_05_S6 01/06/2018 04:10:00 0.0
2018_01_05_S6 01/06/2018 04:15:00 0.0
2018_01_05_S6 01/06/2018 04:20:00 0.0108
2018_01_05_S6 01/06/2018 04:25:00 0.0
2018_01_05_S6 01/06/2018 04:30:00 0.0
2018_01_05_S6 01/06/2018 04:35:00 0.0
2018_01_05_S6 01/06/2018 04:40:00 0.0
2018_01_05_S6 01/06/2018 04:45:00 0.0
2018_01_05_S6 01/06/2018 04:50:00 0.0
2018_01_05_S6 01/06/2018 04:55:00 0.0
2018_01_05_S6 01/06/2018 05:00:00 0.0
2018_01_05_S6 01/06/2018 05:05:00 0.0
2018_01_05_S6 01/06/2018 05:10:00 0.0
2018_01_05_S6 01/06/2018 05:15:00 0.0
2018_01_05_S6 01/06/2018 05:20:00 0.0
2018_01_05_S6 01/06/2018 05:25:00 0.0
2018_01_05_S6 01/06/2018 05:30:00 0.0196
2018_01_05_S6 01/06/2018 05:35:00 0.2025
2018_01_05_S6 01/06/2018 05:40:00 0.0031
2018_01_05_S6 01/06/2018 05:45:00 0.0
2018_01_05_S6 01/06/2018 05:50:00 0.0
2018_01_05_S6 01/06/2018 05:55:00 0.0
2018_01_05_S6 01/06/2018 06:00:00 0.0
2018_01_05_S6 01/06/2018 06:05:00 0.0
2018_01_05_S6 01/06/2018 06:10:00 0.0557
2018_01_05_S6 01/06/2018 06:15:00 0.0161
2018_01_05_S6 01/06/2018 06:20:00 0.0169
2018_01_05_S6 01/06/2018 06:25:00 0.0076
2018_01_05_S6 01/06/2018 06:30:00 0.0
2018_01_05_S6 01/06/2018 06:35:00 0.0
2018_01_05_S6 01/06/2018 06:40:00 0.0062
2018_01_05_S6 01/06/2018 06:45:00 0.0139
2018_01_05_S6 01/06/2018 06:50:00 0.0115
2018_01_05_S6 01/06/2018 06:55:00 0.0375
2018_01_05_S6 01/06/2018 07:00:00 0.0723
2018_01_05_S6 01/06/2018 07:05:00 0.0133
2018_01_05_S6 01/06/2018 07:10:00 0.0026
2018_01_05_S6 01/06/2018 07:15:00 0.0
2018_01_05_S6 01/06/2018 07:20:00 0.0
2018_01_05_S6 01/06/2018 07:25:00 0.0
2018_01_05_S6 01/06/2018 07:30:00 0.0
2018_01_05_S6 01/06/2018 07:35:00 0.0
2018_01_05_S6 01/06/2018 07:40:00 0.0024
2018_01_05_S6 01/06/2018 07:45:00 0.0164
2018_01_05_S6 01/06/2018 07:50:00 0.0548
2018_01_05_S6 01/06/2018 07:55:00 0.0156
2018_01_05_S6 01/06/2018 08:00:00 0.0

2018_01_05_S7 01/04/2018 10:25:00 0.1076
2018_01_05_S7 01/04/2018 10:30:00 0.0684
2018_01_05_S7 01/04/2018 10:35:00 0.0383
2018_01_05_S7 01/04/2018 10:40:00 0.0
2018_01_05_S7 01/04/2018 10:45:00 0.0075
2018_01_05_S7 01/04/2018 10:50:00 0.001
2018_01_05_S7 01/04/2018 10:55:00 0.0
2018_01_05_S7 01/04/2018 11:00:00 0.0
2018_01_05_S7 01/04/2018 11:05:00 2.1103
2018_01_05_S7 01/04/2018 11:10:00 0.0262
2018_01_05_S7 01/04/2018 11:15:00 2.5914
2018_01_05_S7 01/04/2018 11:20:00 0.1345
2018_01_05_S7 01/04/2018 11:25:00 0.1118
2018_01_05_S7 01/04/2018 11:30:00 0.0
2018_01_05_S7 01/04/2018 11:35:00 0.0
2018_01_05_S7 01/04/2018 11:40:00 0.0
2018_01_05_S7 01/04/2018 11:45:00 0.0
2018_01_05_S7 01/04/2018 11:50:00 0.0
2018_01_05_S7 01/04/2018 11:55:00 0.0
2018_01_05_S7 01/04/2018 12:00:00 0.0
2018_01_05_S7 01/04/2018 12:05:00 0.0
2018_01_05_S7 01/04/2018 12:10:00 0.0
2018_01_05_S7 01/04/2018 12:15:00 0.0
2018_01_05_S7 01/04/2018 12:20:00 0.0
2018_01_05_S7 01/04/2018 12:25:00 0.0008
2018_01_05_S7 01/04/2018 12:30:00 0.0026
2018_01_05_S7 01/04/2018 12:35:00 0.0
2018_01_05_S7 01/04/2018 12:40:00 0.0
2018_01_05_S7 01/04/2018 12:45:00 0.0
2018_01_05_S7 01/04/2018 12:50:00 0.0
2018_01_05_S7 01/04/2018 12:55:00 0.0
2018_01_05_S7 01/04/2018 13:00:00 0.0
2018_01_05_S7 01/04/2018 13:05:00 0.0
2018_01_05_S7 01/04/2018 13:10:00 0.0
2018_01_05_S7 01/04/2018 13:15:00 0.0032
2018_01_05_S7 01/04/2018 13:20:00 0.0
2018_01_05_S7 01/04/2018 13:25:00 0.0
2018_01_05_S7 01/04/2018 13:30:00 0.0
2018_01_05_S7 01/04/2018 13:35:00 0.0
2018_01_05_S7 01/04/2018 13:40:00 0.0
2018_01_05_S7 01/04/2018 13:45:00 0.0
2018_01_05_S7 01/04/2018 13:50:00 0.0
2018_01_05_S7 01/04/2018 13:55:00 0.0
2018_01_05_S7 01/04/2018 14:00:00 0.0
2018_01_05_S7 01/04/2018 14:05:00 0.0
2018_01_05_S7 01/04/2018 14:10:00 0.0
2018_01_05_S7 01/04/2018 14:15:00 0.0007
2018_01_05_S7 01/04/2018 14:20:00 0.0
2018_01_05_S7 01/04/2018 14:25:00 0.0043
2018_01_05_S7 01/04/2018 14:30:00 0.0
2018_01_05_S7 01/04/2018 14:35:00 0.0068
2018_01_05_S7 01/04/2018 14:40:00 0.0007
2018_01_05_S7 01/04/2018 14:45:00 0.0
2018_01_05_S7 01/04/2018 14:50:00 0.0
2018_01_05_S7 01/04/2018 14:55:00 0.0
2018_01_05_S7 01/04/2018 15:00:00 0.0
2018_01_05_S7 01/04/2018 15:05:00 0.0
2018_01_05_S7 01/04/2018 15:10:00 0.0
2018_01_05_S7 01/04/2018 15:15:00 0.0
2018_01_05_S7 01/04/2018 15:20:00 0.0
2018_01_05_S7 01/04/2018 15:25:00 0.0
2018_01_05_S7 01/04/2018 15:30:00 0.0343
2018_01_05_S7 01/04/2018 15:35:00 0.0202
2018_01_05_S7 01/04/2018 15:40:00 0.0
2018_01_05_S7 01/04/2018 15:45:00 0.0
2018_01_05_S7 01/04/2018 15:50:00 0.0
2018_01_05_S7 01/04/2018 15:55:00 0.0559
2018_01_05_S7 01/04/2018 16:00:00 0.0546
2018_01_05_S7 01/04/2018 16:05:00 0.077
2018_01_05_S7 01/04/2018 16:10:00 0.0
2018_01_05_S7 01/04/2018 16:15:00 0.063
2018_01_05_S7 01/04/2018 16:20:00 0.0883
2018_01_05_S7 01/04/2018 16:25:00 0.0
2018_01_05_S7 01/04/2018 16:30:00 0.0
2018_01_05_S7 01/04/2018 16:35:00 0.0
2018_01_05_S7 01/04/2018 16:40:00 0.0
2018_01_05_S7 01/04/2018 16:45:00 0.0
2018_01_05_S7 01/04/2018 16:50:00 0.0
2018_01_05_S7 01/04/2018 16:55:00 0.0
2018_01_05_S7 01/04/2018 17:00:00 0.0037
2018_01_05_S7 01/04/2018 17:05:00 0.0
2018_01_05_S7 01/04/2018 17:10:00 0.1471
2018_01_05_S7 01/04/2018 17:15:00 0.0
2018_01_05_S7 01/04/2018 17:20:00 0.0
2018_01_05_S7 01/04/2018 17:25:00 0.0
2018_01_05_S7 01/04/2018 17:30:00 0.1858
2018_01_05_S7 01/04/2018 17:35:00 0.2434
2018_01_05_S7 01/04/2018 17:40:00 0.2594
2018_01_05_S7 01/04/2018 17:45:00 0.0981
2018_01_05_S7 01/04/2018 17:50:00 0.1055
2018_01_05_S7 01/04/2018 17:55:00 0.1565
2018_01_05_S7 01/04/2018 18:00:00 0.2099
2018_01_05_S7 01/04/2018 18:05:00 0.2264
2018_01_05_S7 01/04/2018 18:10:00 0.0758
2018_01_05_S7 01/04/2018 18:15:00 0.021
2018_01_05_S7 01/04/2018 18:20:00 0.0
2018_01_05_S7 01/04/2018 18:25:00 0.0
2018_01_05_S7 01/04/2018 18:30:00 0.0
2018_01_05_S7 01/04/2018 18:35:00 0.0
2018_01_05_S7 01/04/2018 18:40:00 0.0
2018_01_05_S7 01/04/2018 18:45:00 0.0
2018_01_05_S7 01/04/2018 18:50:00 0.0
2018_01_05_S7 01/04/2018 18:55:00 0.0
2018_01_05_S7 01/04/2018 19:00:00 0.0
2018_01_05_S7 01/04/2018 19:05:00 0.0
2018_01_05_S7 01/04/2018 19:10:00 0.0
2018_01_05_S7 01/04/2018 19:15:00 0.0
2018_01_05_S7 01/04/2018 19:20:00 0.0
2018_01_05_S7 01/04/2018 19:25:00 0.0
2018_01_05_S7 01/04/2018 19:30:00 0.0
2018_01_05_S7 01/04/2018 19:35:00 0.0
2018_01_05_S7 01/04/2018 19:40:00 0.0
2018_01_05_S7 01/04/2018 19:45:00 0.0
2018_01_05_S7 01/04/2018 19:50:00 0.0
2018_01_05_S7 01/04/2018 19:55:00 0.0
2018_01_05_S7 01/04/2018 20:00:00 0.0
2018_01_05_S7 01/04/2018 20:05:00 0.0
2018_01_05_S7 01/04/2018 20:10:00 0.0
2018_01_05_S7 01/04/2018 20:15:00 0.0
2018_01_05_S7 01/04/2018 20:20:00 0.0
2018_01_05_S7 01/04/2018 20:25:00 0.0045
2018_01_05_S7 01/04/2018 20:30:00 0.0
2018_01_05_S7 01/04/2018 20:35:00 0.0
2018_01_05_S7 01/04/2018 20:40:00 0.0
2018_01_05_S7 01/04/2018 20:45:00 0.0
2018_01_05_S7 01/04/2018 20:50:00 0.0
2018_01_05_S7 01/04/2018 20:55:00 0.0
2018_01_05_S7 01/04/2018 21:00:00 0.0
2018_01_05_S7 01/04/2018 21:05:00 0.0
2018_01_05_S7 01/04/2018 21:10:00 0.0
2018_01_05_S7 01/04/2018 21:15:00 0.0
2018_01_05_S7 01/04/2018 21:20:00 0.0
2018_01_05_S7 01/04/2018 21:25:00 0.0079
2018_01_05_S7 01/04/2018 21:30:00 0.2836
2018_01_05_S7 01/04/2018 21:35:00 0.0049
2018_01_05_S7 01/04/2018 21:40:00 0.0802
2018_01_05_S7 01/04/2018 21:45:00 0.0015
2018_01_05_S7 01/04/2018 21:50:00 0.0
2018_01_05_S7 01/04/2018 21:55:00 0.0
2018_01_05_S7 01/04/2018 22:00:00 0.0
2018_01_05_S7 01/04/2018 22:05:00 0.0
2018_01_05_S7 01/04/2018 22:10:00 0.0
2018_01_05_S7 01/04/2018 22:15:00 0.0
2018_01_05_S7 01/04/2018 22:20:00 0.0
2018_01_05_S7 01/04/2018 22:25:00 0.0
2018_01_05_S7 01/04/2018 22:30:00 0.0
2018_01_05_S7 01/04/2018 22:35:00 0.0
2018_01_05_S7 01/04/2018 22:40:00 0.0
2018_01_05_S7 01/04/2018 22:45:00 0.0
2018_01_05_S7 01/04/2018 22:50:00 0.0
2018_01_05_S7 01/04/2018 22:55:00 0.0
2018_01_05_S7 01/04/2018 23:00:00 0.0
2018_01_05_S7 01/04/2018 23:05:00 0.0
2018_01_05_S7 01/04/2018 23:10:00 0.0
2018_01_05_S7 01/04/2018 23:15:00 0.0
2018_01_05_S7 01/04/2018 23:20:00 0.0
2018_01_05_S7 01/04/2018 23:25:00 0.0
2018_01_05_S7 01/04/2018 23:30:00 0.0
2018_01_05_S7 01/04/2018 23:35:00 0.0
2018_01_05_S7 01/04/2018 23:40:00 0.0
2018_01_05_S7 01/04/2018 23:45:00 0.0
2018_01_05_S7 01/04/2018 23:50:00 0.0
2018_01_05_S7 01/04/2018 23:55:00 0.0
2018_01_05_S7 01/05/2018 00:00:00 0.0
2018_01_05_S7 01/05/2018 00:05:00 0.0
2018_01_05_S7 01/05/2018 00:10:00 0.0
2018_01_05_S7 01/05/2018 00:15:00 0.0
2018_01_05_S7 01/05/2018 00:20:00 0.0
2018_01_05_S7 01/05/2018 00:25:00 0.0
2018_01_05_S7 01/05/2018 00:30:00 0.0
2018_01_05_S7 01/05/2018 00:35:00 0.0
2018_01_05_S7 01/05/2018 00:40:00 0.0
2018_01_05_S7 01/05/2018 00:45:00 0.0004
2018_01_05_S7 01/05/2018 00:50:00 0.1457
2018_01_05_S7 01/05/2018 00:55:00 0.0666
2018_01_05_S7 01/05/2018 01:00:00 0.0004
2018_01_05_S7 01/05/2018 01:05:00 0.1286
2018_01_05_S7 01/05/2018 01:10:00 0.0438
2018_01_05_S7 01/05/2018 01:15:00 0.0044
2018_01_05_S7 01/05/2018 01:20:00 0.0595
2018_01_05_S7 01/05/2018 01:25:00 0.0286
2018_01_05_S7 01/05/2018 01:30:00 0.0041
2018_01_05_S7 01/05/2018 01:35:00 0.005
2018_01_05_S7 01/05/2018 01:40:00 0.0
2018_01_05_S7 01/05/2018 01:45:00 0.0359
2018_01_05_S7 01/05/2018 01:50:00 0.0421
2018_01_05_S7 01/05/2018 01:55:00 0.0034
2018_01_05_S7 01/05/2018 02:00:00 0.0169
2018_01_05_S7 01/05/2018 02:05:00 0.0218
2018_01_05_S7 01/05/2018 02:10:00 0.004
2018_01_05_S7 01/05/2018 02:15:00 0.0244
2018_01_05_S7 01/05/2018 02:20:00 0.0
2018_01_05_S7 01/05/2018 02:25:00 0.0
2018_01_05_S7 01/05/2018 02:30:00 0.0
2018_01_05_S7 01/05/2018 02:35:00 0.0
2018_01_05_S7 01/05/2018 02:40:00 0.0
2018_01_05_S7 01/05/2018 02:45:00 0.0
2018_01_05_S7 01/05/2018 02:50:00 0.0
2018_01_05_S7 01/05/2018 02:55:00 0.0
2018_01_05_S7 01/05/2018 03:00:00 0.0
2018_01_05_S7 01/05/2018 03:05:00 0.2808
2018_01_05_S7 01/05/2018 03:10:00 0.4931
2018_01_05_S7 01/05/2018 03:15:00 0.3811
2018_01_05_S7 01/05/2018 03:20:00 0.8795
2018_01_05_S7 01/05/2018 03:25:00 0.2532
2018_01_05_S7 01/05/2018 03:30:00 0.2571
2018_01_05_S7 01/05/2018 03:35:00 0.0788
2018_01_05_S7 01/05/2018 03:40:00 0.0
2018_01_05_S7 01/05/2018 03:45:00 0.0119
2018_01_05_S7 01/05/2018 03:50:00 0.0486
2018_01_05_S7 01/05/2018 03:55:00 0.0285
2018_01_05_S7 01/05/2018 04:00:00 0.0513
2018_01_05_S7 01/05/2018 04:05:00 0.0
2018_01_05_S7 01/05/2018 04:10:00 0.0008
2018_01_05_S7 01/05/2018 04:15:00 0.0085
2018_01_05_S7 01/05/2018 04:20:00 0.0095
2018_01_05_S7 01/05/2018 04:25:00 0.1661
2018_01_05_S7 01/05/2018 04:30:00 0.0274
2018_01_05_S7 01/05/2018 04:35:00 0.0172
2018_01_05_S7 01/05/2018 04:40:00 0.0545
2018_01_05_S7 01/05/2018 04:45:00 0.1037
2018_01_05_S7 01/05/2018 04:50:00 0.0197
2018_01_05_S7 01/05/2018 04:55:00 0.0013
2018_01_05_S7 01/05/2018 05:00:00 0.0896
2018_01_05_S7 01/05/2018 05:05:00 0.0025
2018_01_05_S7 01/05/2018 05:10:00 0.0
2018_01_05_S7 01/05/2018 05:15:00 0.0
2018_01_05_S7 01/05/2018 05:20:00 0.0071
2018_01_05_S7 01/05/2018 05:25:00 0.0
2018_01_05_S7 01/05/2018 05:30:00 0.0051
2018_01_05_S7 01/05/2018 05:35:00 0.0
2018_01_05_S7 01/05/2018 05:40:00 0.0
2018_01_05_S7 01/05/2018 05:45:00 0.0044
2018_01_05_S7 01/05/2018 05:50:00 0.0
2018_01_05_S7 01/05/2018 05:55:00 0.0225
2018_01_05_S7 01/05/2018 06:00:00 0.1538
2018_01_05_S7 01/05/2018 06:05:00 0.1491
2018_01_05_S7 01/05/2018 06:10:00 0.0033
2018_01_05_S7 01/05/2018 06:15:00 0.0428
2018_01_05_S7 01/05/2018 06:20:00 4.6638
2018_01_05_S7 01/05/2018 06:25:00 1.7866
2018_01_05_S7 01/05/2018 06:30:00 1.2461
2018_01_05_S7 01/05/2018 06:35:00 1.3521
2018_01_05_S7 01/05/2018 06:40:00 0.5286
2018_01_05_S7 01/05/2018 06:45:00 1.0051
2018_01_05_S7 01/05/2018 06:50:00 1.1172
2018_01_05_S7 01/05/2018 06:55:00 0.3343
2018_01_05_S7 01/05/2018 07:00:00 0.3403
2018_01_05_S7 01/05/2018 07:05:00 0.059
2018_01_05_S7 01/05/2018 07:10:00 0.0299
2018_01_05_S7 01/05/2018 07:15:00 0.0
2018_01_05_S7 01/05/2018 07:20:00 0.0
2018_01_05_S7 01/05/2018 07:25:00 0.0
2018_01_05_S7 01/05/2018 07:30:00 0.0
2018_01_05_S7 01/05/2018 07:35:00 0.0
2018_01_05_S7 01/05/2018 07:40:00 0.0
2018_01_05_S7 01/05/2018 07:45:00 0.0
2018_01_05_S7 01/05/2018 07:50:00 0.0
2018_01_05_S7 01/05/2018 07:55:00 0.0
2018_01_05_S7 01/05/2018 08:00:00 0.0
2018_01_05_S7 01/05/2018 08:05:00 0.0
2018_01_05_S7 01/05/2018 08:10:00 0.0
2018_01_05_S7 01/05/2018 08:15:00 0.0
2018_01_05_S7 01/05/2018 08:20:00 0.0
2018_01_05_S7 01/05/2018 08:25:00 0.0237
2018_01_05_S7 01/05/2018 08:30:00 0.1256
2018_01_05_S7 01/05/2018 08:35:00 0.4409
2018_01_05_S7 01/05/2018 08:40:00 0.3776
2018_01_05_S7 01/05/2018 08:45:00 1.0949
2018_01_05_S7 01/05/2018 08:50:00 0.7263
2018_01_05_S7 01/05/2018 08:55:00 1.8696
2018_01_05_S7 01/05/2018 09:00:00 0.5895
2018_01_05_S7 01/05/2018 09:05:00 0.3838
2018_01_05_S7 01/05/2018 09:10:00 0.6471
2018_01_05_S7 01/05/2018 09:15:00 0.1893
2018_01_05_S7 01/05/2018 09:20:00 0.0023
2018_01_05_S7 01/05/2018 09:25:00 0.0
2018_01_05_S7 01/05/2018 09:30:00 0.0051
2018_01_05_S7 01/05/2018 09:35:00 0.0623
2018_01_05_S7 01/05/2018 09:40:00 1.5771
2018_01_05_S7 01/05/2018 09:45:00 0.2667
2018_01_05_S7 01/05/2018 09:50:00 0.5745
2018_01_05_S7 01/05/2018 09:55:00 3.9275
2018_01_05_S7 01/05/2018 10:00:00 0.1902
2018_01_05_S7 01/05/2018 10:05:00 0.1227
2018_01_05_S7 01/05/2018 10:10:00 0.0
2018_01_05_S7 01/05/2018 10:15:00 0.0
2018_01_05_S7 01/05/2018 10:20:00 0.0
2018_01_05_S7 01/05/2018 10:25:00 0.0919
2018_01_05_S7 01/05/2018 10:30:00 1.487
2018_01_05_S7 01/05/2018 10:35:00 0.0184
2018_01_05_S7 01/05/2018 10:40:00 0.2999
2018_01_05_S7 01/05/2018 10:45:00 1.6198
2018_01_05_S7 01/05/2018 10:50:00 0.0272
2018_01_05_S7 01/05/2018 10:55:00 0.0
2018_01_05_S7 01/05/2018 11:00:00 0.0323
2018_01_05_S7 01/05/2018 11:05:00 0.0483
2018_01_05_S7 01/05/2018 11:10:00 0.1288
2018_01_05_S7 01/05/2018 11:15:00 0.2498
2018_01_05_S7 01/05/2018 11:20:00 0.1944
2018_01_05_S7 01/05/2018 11:25:00 0.0971
2018_01_05_S7 01/05/2018 11:30:00 0.3345
2018_01_05_S7 01/05/2018 11:35:00 0.1824
2018_01_05_S7 01/05/2018 11:40:00 0.0911
2018_01_05_S7 01/05/2018 11:45:00 0.003
2018_01_05_S7 01/05/2018 11:50:00 0.0
2018_01_05_S7 01/05/2018 11:55:00 0.0059
2018_01_05_S7 01/05/2018 12:00:00 0.0165
2018_01_05_S7 01/05/2018 12:05:00 0.1409
2018_01_05_S7 01/05/2018 12:10:00 1.5493
2018_01_05_S7 01/05/2018 12:15:00 1.0036
2018_01_05_S7 01/05/2018 12:20:00 0.3735
2018_01_05_S7 01/05/2018 12:25:00 0.291
2018_01_05_S7 01/05/2018 12:30:00 0.2197
2018_01_05_S7 01/05/2018 12:35:00 0.5423
2018_01_05_S7 01/05/2018 12:40:00 0.9223
2018_01_05_S7 01/05/2018 12:45:00 3.5647
2018_01_05_S7 01/05/2018 12:50:00 0.0308
2018_01_05_S7 01/05/2018 12:55:00 0.1013
2018_01_05_S7 01/05/2018 13:00:00 0.067
2018_01_05_S7 01/05/2018 13:05:00 0.6449
2018_01_05_S7 01/05/2018 13:10:00 0.0
2018_01_05_S7 01/05/2018 13:15:00 0.0
2018_01_05_S7 01/05/2018 13:20:00 0.0063
2018_01_05_S7 01/05/2018 13:25:00 0.0245
2018_01_05_S7 01/05/2018 13:30:00 0.0108
2018_01_05_S7 01/05/2018 13:35:00 0.0
2018_01_05_S7 01/05/2018 13:40:00 0.1347
2018_01_05_S7 01/05/2018 13:45:00 0.5903
2018_01_05_S7 01/05/2018 13:50:00 0.2564
2018_01_05_S7 01/05/2018 13:55:00 0.2105
2018_01_05_S7 01/05/2018 14:00:00 0.3363
2018_01_05_S7 01/05/2018 14:05:00 0.1104
2018_01_05_S7 01/05/2018 14:10:00 1.1518
2018_01_05_S7 01/05/2018 14:15:00 0.0471
2018_01_05_S7 01/05/2018 14:20:00 0.0
2018_01_05_S7 01/05/2018 14:25:00 0.0
2018_01_05_S7 01/05/2018 14:30:00 0.0
2018_01_05_S7 01/05/2018 14:35:00 0.0234
2018_01_05_S7 01/05/2018 14:40:00 0.0873
2018_01_05_S7 01/05/2018 14:45:00 0.6986
2018_01_05_S7 01/05/2018 14:50:00 0.0552
2018_01_05_S7 01/05/2018 14:55:00 0.0
2018_01_05_S7 01/05/2018 15:00:00 0.0
2018_01_05_S7 01/05/2018 15:05:00 0.0
2018_01_05_S7 01/05/2018 15:10:00 0.0338
2018_01_05_S7 01/05/2018 15:15:00 0.9389
2018_01_05_S7 01/05/2018 15:20:00 0.1619
2018_01_05_S7 01/05/2018 15:25:00 0.0
2018_01_05_S7 01/05/2018 15:30:00 0.0011
2018_01_05_S7 01/05/2018 15:35:00 0.1264
2018_01_05_S7 01/05/2018 15:40:00 0.0679
2018_01_05_S7 01/05/2018 15:45:00 0.0
2018_01_05_S7 01/05/2018 15:50:00 0.0
2018_01_05_S7 01/05/2018 15:55:00 0.0
2018_01_05_S7 01/05/2018 16:00:00 0.0
2018_01_05_S7 01/05/2018 16:05:00 0.0
2018_01_05_S7 01/05/2018 16:10:00 0.0
2018_01_05_S7 01/05/2018 16:15:00 0.0
2018_01_05_S7 01/05/2018 16:20:00 0.0
2018_01_05_S7 01/05/2018 16:25:00 0.0
2018_01_05_S7 01/05/2018 16:30:00 0.0
2018_01_05_S7 01/05/2018 16:35:00 0.0
2018_01_05_S7 01/05/2018 16:40:00 0.0
2018_01_05_S7 01/05/2018 16:45:00 0.0
2018_01_05_S7 01/05/2018 16:50:00 0.0
2018_01_05_S7 01/05/2018 16:55:00 0.0
2018_01_05_S7 01/05/2018 17:00:00 0.0
2018_01_05_S7 01/05/2018 17:05:00 0.0
2018_01_05_S7 01/05/2018 17:10:00 0.0
2018_01_05_S7 01/05/2018 17:15:00 0.0
2018_01_05_S7 01/05/2018 17:20:00 0.0
2018_01_05_S7 01/05/2018 17:25:00 0.0
2018_01_05_S7 01/05/2018 17:30:00 0.0
2018_01_05_S7 01/05/2018 17:35:00 0.0
2018_01_05_S7 01/05/2018 17:40:00 0.0
2018_01_05_S7 01/05/2018 17:45:00 0.0
2018_01_05_S7 01/05/2018 17:50:00 0.0051
2018_01_05_S7 01/05/2018 17:55:00 0.0259
2018_01_05_S7 01/05/2018 18:00:00 0.0182
2018_01_05_S7 01/05/2018 18:05:00 0.0
2018_01_05_S7 01/05/2018 18:10:00 0.0
2018_01_05_S7 01/05/2018 18:15:00 0.0236
2018_01_05_S7 01/05/2018 18:20:00 0.0151
2018_01_05_S7 01/05/2018 18:25:00 0.0012
2018_01_05_S7 01/05/2018 18:30:00 0.0
2018_01_05_S7 01/05/2018 18:35:00 0.0
2018_01_05_S7 01/05/2018 18:40:00 0.0
2018_01_05_S7 01/05/2018 18:45:00 0.0
2018_01_05_S7 01/05/2018 18:50:00 0.0
2018_01_05_S7 01/05/2018 18:55:00 0.0
2018_01_05_S7 01/05/2018 19:00:00 0.0
2018_01_05_S7 01/05/2018 19:05:00 0.0
2018_01_05_S7 01/05/2018 19:10:00 0.0
2018_01_05_S7 01/05/2018 19:15:00 0.0
2018_01_05_S7 01/05/2018 19:20:00 0.0
2018_01_05_S7 01/05/2018 19:25:00 0.0026
2018_01_05_S7 01/05/2018 19:30:00 0.0006
2018_01_05_S7 01/05/2018 19:35:00 0.0051
2018_01_05_S7 01/05/2018 19:40:00 0.0
2018_01_05_S7 01/05/2018 19:45:00 0.0154
2018_01_05_S7 01/05/2018 19:50:00 0.2354
2018_01_05_S7 01/05/2018 19:55:00 0.0282
2018_01_05_S7 01/05/2018 20:00:00 0.0169
2018_01_05_S7 01/05/2018 20:05:00 0.0
2018_01_05_S7 01/05/2018 20:10:00 0.0
2018_01_05_S7 01/05/2018 20:15:00 0.0
2018_01_05_S7 01/05/2018 20:20:00 0.0
2018_01_05_S7 01/05/2018 20:25:00 0.0
2018_01_05_S7 01/05/2018 20:30:00 0.0
2018_01_05_S7 01/05/2018 20:35:00 0.0
2018_01_05_S7 01/05/2018 20:40:00 0.0
2018_01_05_S7 01/05/2018 20:45:00 0.0
2018_01_05_S7 01/05/2018 20:50:00 0.0008
2018_01_05_S7 01/05/2018 20:55:00 0.0118
2018_01_05_S7 01/05/2018 21:00:00 0.0
2018_01_05_S7 01/05/2018 21:05:00 0.0
2018_01_05_S7 01/05/2018 21:10:00 0.0
2018_01_05_S7 01/05/2018 21:15:00 0.0
2018_01_05_S7 01/05/2018 21:20:00 0.0
2018_01_05_S7 01/05/2018 21:25:00 0.0
2018_01_05_S7 01/05/2018 21:30:00 0.0
2018_01_05_S7 01/05/2018 21:35:00 0.0008
2018_01_05_S7 01/05/2018 21:40:00 0.0
2018_01_05_S7 01/05/2018 21:45:00 0.0
2018_01_05_S7 01/05/2018 21:50:00 0.0
2018_01_05_S7 01/05/2018 21:55:00 0.0
2018_01_05_S7 01/05/2018 22:00:00 0.0
2018_01_05_S7 01/05/2018 22:05:00 0.0024
2018_01_05_S7 01/05/2018 22:10:00 0.0
2018_01_05_S7 01/05/2018 22:15:00 0.0
2018_01_05_S7 01/05/2018 22:20:00 0.0
2018_01_05_S7 01/05/2018 22:25:00 0.0028
2018_01_05_S7 01/05/2018 22:30:00 0.0165
2018_01_05_S7 01/05/2018 22:35:00 0.0
2018_01_05_S7 01/05/2018 22:40:00 0.0079
2018_01_05_S7 01/05/2018 22:45:00 0.0
2018_01_05_S7 01/05/2018 22:50:00 0.0
2018_01_05_S7 01/05/2018 22:55:00 0.0
2018_01_05_S7 01/05/2018 23:00:00 0.0
2018_01_05_S7 01/05/2018 23:05:00 0.0
2018_01_05_S7 01/05/2018 23:10:00 0.0
2018_01_05_S7 01/05/2018 23:15:00 0.0
2018_01_05_S7 01/05/2018 23:20:00 0.0
2018_01_05_S7 01/05/2018 23:25:00 0.0
2018_01_05_S7 01/05/2018 23:30:00 0.0
2018_01_05_S7 01/05/2018 23:35:00 0.0
2018_01_05_S7 01/05/2018 23:40:00 0.0089
2018_01_05_S7 01/05/2018 23:45:00 0.0146
2018_01_05_S7 01/05/2018 23:50:00 0.0135
2018_01_05_S7 01/05/2018 23:55:00 0.0
2018_01_05_S7 01/06/2018 00:00:00 0.0057
2018_01_05_S7 01/06/2018 00:05:00 0.0
2018_01_05_S7 01/06/2018 00:10:00 0.1332
2018_01_05_S7 01/06/2018 00:15:00 0.1888
2018_01_05_S7 01/06/2018 00:20:00 0.0
2018_01_05_S7 01/06/2018 00:25:00 0.0
2018_01_05_S7 01/06/2018 00:30:00 0.0
2018_01_05_S7 01/06/2018 00:35:00 0.0
2018_01_05_S7 01/06/2018 00:40:00 0.0
2018_01_05_S7 01/06/2018 00:45:00 0.0
2018_01_05_S7 01/06/2018 00:50:00 0.0
2018_01_05_S7 01/06/2018 00:55:00 0.0
2018_01_05_S7 01/06/2018 01:00:00 0.0
2018_01_05_S7 01/06/2018 01:05:00 0.0011
2018_01_05_S7 01/06/2018 01:10:00 0.0083
2018_01_05_S7 01/06/2018 01:15:00 0.0
2018_01_05_S7 01/06/2018 01:20:00 0.0
2018_01_05_S7 01/06/2018 01:25:00 0.0
2018_01_05_S7 01/06/2018 01:30:00 0.0
2018_01_05_S7 01/06/2018 01:35:00 0.0
2018_01_05_S7 01/06/2018 01:40:00 0.0
2018_01_05_S7 01/06/2018 01:45:00 0.0
2018_01_05_S7 01/06/2018 01:50:00 0.0
2018_01_05_S7 01/06/2018 01:55:00 0.0
2018_01_05_S7 01/06/2018 02:00:00 0.0
2018_01_05_S7 01/06/2018 02:05:00 0.0
2018_01_05_S7 01/06/2018 02:10:00 0.0
2018_01_05_S7 01/06/2018 02:15:00 0.0
2018_01_05_S7 01/06/2018 02:20:00 0.0
2018_01_05_S7 01/06/2018 02:25:00 0.0
2018_01_05_S7 01/06/2018 02:30:00 0.0
2018_01_05_S7 01/06/2018 02:35:00 0.0
2018_01_05_S7 01/06/2018 02:40:00 0.0
2018_01_05_S7 01/06/2018 02:45:00 0.0
2018_01_05_S7 01/06/2018 02:50:00 0.0
2018_01_05_S7 01/06/2018 02:55:00 0.0
2018_01_05_S7 01/06/2018 03:00:00 0.0
2018_01_05_S7 01/06/2018 03:05:00 0.0
2018_01_05_S7 01/06/2018 03:10:00 0.0
2018_01_05_S7 01/06/2018 03:15:00 0.0
2018_01_05_S7 01/06/2018 03:20:00 0.0
2018_01_05_S7 01/06/2018 03:25:00 0.0
2018_01_05_S7 01/06/2018 03:30:00 0.0
2018_01_05_S7 01/06/2018 03:35:00 0.0
2018_01_05_S7 01/06/2018 03:40:00 0.3206
2018_01_05_S7 01/06/2018 03:45:00 0.2415
2018_01_05_S7 01/06/2018 03:50:00 0.0
2018_01_05_S7 01/06/2018 03:55:00 0.0
2018_01_05_S7 01/06/2018 04:00:00 0.0
2018_01_05_S7 01/06/2018 04:05:00 0.0
2018_01_05_S7 01/06/2018 04:10:00 0.0
2018_01_05_S7 01/06/2018 04:15:00 0.0
2018_01_05_S7 01/06/2018 04:20:00 0.0279
2018_01_05_S7 01/06/2018 04:25:00 0.0042
2018_01_05_S7 01/06/2018 04:30:00 0.0
2018_01_05_S7 01/06/2018 04:35:00 0.0
2018_01_05_S7 01/06/2018 04:40:00 0.0
2018_01_05_S7 01/06/2018 04:45:00 0.0
2018_01_05_S7 01/06/2018 04:50:00 0.0
2018_01_05_S7 01/06/2018 04:55:00 0.0
2018_01_05_S7 01/06/2018 05:00:00 0.0
2018_01_05_S7 01/06/2018 05:05:00 0.0
2018_01_05_S7 01/06/2018 05:10:00 0.0
2018_01_05_S7 01/06/2018 05:15:00 0.0
2018_01_05_S7 01/06/2018 05:20:00 0.0
2018_01_05_S7 01/06/2018 05:25:00 0.0
2018_01_05_S7 01/06/2018 05:30:00 0.0027
2018_01_05_S7 01/06/2018 05:35:00 0.2178
2018_01_05_S7 01/06/2018 05:40:00 0.0344
2018_01_05_S7 01/06/2018 05:45:00 0.0
2018_01_05_S7 01/06/2018 05:50:00 0.0
2018_01_05_S7 01/06/2018 05:55:00 0.0
2018_01_05_S7 01/06/2018 06:00:00 0.0
2018_01_05_S7 01/06/2018 06:05:00 0.0004
2018_01_05_S7 01/06/2018 06:10:00 0.1013
2018_01_05_S7 01/06/2018 06:15:00 0.019
2018_01_05_S7 01/06/2018 06:20:00 0.0215
2018_01_05_S7 01/06/2018 06:25:00 0.0049
2018_01_05_S7 01/06/2018 06:30:00 0.0
2018_01_05_S7 01/06/2018 06:35:00 0.0
2018_01_05_S7 01/06/2018 06:40:00 0.003
2018_01_05_S7 01/06/2018 06:45:00 0.0022
2018_01_05_S7 01/06/2018 06:50:00 0.0087
2018_01_05_S7 01/06/2018 06:55:00 0.0168
2018_01_05_S7 01/06/2018 07:00:00 0.147
2018_01_05_S7 01/06/2018 07:05:00 0.018
2018_01_05_S7 01/06/2018 07:10:00 0.0043
2018_01_05_S7 01/06/2018 07:15:00 0.0
2018_01_05_S7 01/06/2018 07:20:00 0.0
2018_01_05_S7 01/06/2018 07:25:00 0.0
2018_01_05_S7 01/06/2018 07:30:00 0.0
2018_01_05_S7 01/06/2018 07:35:00 0.0
2018_01_05_S7 01/06/2018 07:40:00 0.0012
2018_01_05_S7 01/06/2018 07:45:00 0.0103
2018_01_05_S7 01/06/2018 07:50:00 0.042
2018_01_05_S7 01/06/2018 07:55:00 0.0264
2018_01_05_S7 01/06/2018 08:00:00 0.0

2018_01_05_S8 01/04/2018 10:25:00 0.1362
2018_01_05_S8 01/04/2018 10:30:00 0.0717
2018_01_05_S8 01/04/2018 10:35:00 0.0289
2018_01_05_S8 01/04/2018 10:40:00 0.001
2018_01_05_S8 01/04/2018 10:45:00 0.0008
2018_01_05_S8 01/04/2018 10:50:00 0.0
2018_01_05_S8 01/04/2018 10:55:00 0.0
2018_01_05_S8 01/04/2018 11:00:00 0.0
2018_01_05_S8 01/04/2018 11:05:00 1.8678
2018_01_05_S8 01/04/2018 11:10:00 0.0205
2018_01_05_S8 01/04/2018 11:15:00 1.2248
2018_01_05_S8 01/04/2018 11:20:00 0.1356
2018_01_05_S8 01/04/2018 11:25:00 0.0677
2018_01_05_S8 01/04/2018 11:30:00 0.0
2018_01_05_S8 01/04/2018 11:35:00 0.0
2018_01_05_S8 01/04/2018 11:40:00 0.0
2018_01_05_S8 01/04/2018 11:45:00 0.0
2018_01_05_S8 01/04/2018 11:50:00 0.0
2018_01_05_S8 01/04/2018 11:55:00 0.0
2018_01_05_S8 01/04/2018 12:00:00 0.0
2018_01_05_S8 01/04/2018 12:05:00 0.0
2018_01_05_S8 01/04/2018 12:10:00 0.0
2018_01_05_S8 01/04/2018 12:15:00 0.0
2018_01_05_S8 01/04/2018 12:20:00 0.0
2018_01_05_S8 01/04/2018 12:25:00 0.0026
2018_01_05_S8 01/04/2018 12:30:00 0.0007
2018_01_05_S8 01/04/2018 12:35:00 0.0
2018_01_05_S8 01/04/2018 12:40:00 0.0
2018_01_05_S8 01/04/2018 12:45:00 0.0
2018_01_05_S8 01/04/2018 12:50:00 0.0
2018_01_05_S8 01/04/2018 12:55:00 0.0
2018_01_05_S8 01/04/2018 13:00:00 0.0
2018_01_05_S8 01/04/2018 13:05:00 0.0
2018_01_05_S8 01/04/2018 13:10:00 0.0
2018_01_05_S8 01/04/2018 13:15:00 0.0005
2018_01_05_S8 01/04/2018 13:20:00 0.0
2018_01_05_S8 01/04/2018 13:25:00 0.0
2018_01_05_S8 01/04/2018 13:30:00 0.0
2018_01_05_S8 01/04/2018 13:35:00 0.0
2018_01_05_S8 01/04/2018 13:40:00 0.0
2018_01_05_S8 01/04/2018 13:45:00 0.0
2018_01_05_S8 01/04/2018 13:50:00 0.0
2018_01_05_S8 01/04/2018 13:55:00 0.0
2018_01_05_S8 01/04/2018 14:00:00 0.0
2018_01_05_S8 01/04/2018 14:05:00 0.0
2018_01_05_S8 01/04/2018 14:10:00 0.0
2018_01_05_S8 01/04/2018 14:15:00 0.0
2018_01_05_S8 01/04/2018 14:20:00 0.0
2018_01_05_S8 01/04/2018 14:25:00 0.0029
2018_01_05_S8 01/04/2018 14:30:00 0.0
2018_01_05_S8 01/04/2018 14:35:00 0.0313
2018_01_05_S8 01/04/2018 14:40:00 0.0009
2018_01_05_S8 01/04/2018 14:45:00 0.0
2018_01_05_S8 01/04/2018 14:50:00 0.0
2018_01_05_S8 01/04/2018 14:55:00 0.0
2018_01_05_S8 01/04/2018 15:00:00 0.0
2018_01_05_S8 01/04/2018 15:05:00 0.0
2018_01_05_S8 01/04/2018 15:10:00 0.0
2018_01_05_S8 01/04/2018 15:15:00 0.0
2018_01_05_S8 01/04/2018 15:20:00 0.0
2018_01_05_S8 01/04/2018 15:25:00 0.0
2018_01_05_S8 01/04/2018 15:30:00 0.0187
2018_01_05_S8 01/04/2018 15:35:00 0.0066
2018_01_05_S8 01/04/2018 15:40:00 0.0
2018_01_05_S8 01/04/2018 15:45:00 0.0
2018_01_05_S8 01/04/2018 15:50:00 0.0
2018_01_05_S8 01/04/2018 15:55:00 0.0409
2018_01_05_S8 01/04/2018 16:00:00 0.0464
2018_01_05_S8 01/04/2018 16:05:00 0.0457
2018_01_05_S8 01/04/2018 16:10:00 0.0
2018_01_05_S8 01/04/2018 16:15:00 0.0751
2018_01_05_S8 01/04/2018 16:20:00 0.0856
2018_01_05_S8 01/04/2018 16:25:00 0.0
2018_01_05_S8 01/04/2018 16:30:00 0.0
2018_01_05_S8 01/04/2018 16:35:00 0.0
2018_01_05_S8 01/04/2018 16:40:00 0.0
2018_01_05_S8 01/04/2018 16:45:00 0.0
2018_01_05_S8 01/04/2018 16:50:00 0.0
2018_01_05_S8 01/04/2018 16:55:00 0.0
2018_01_05_S8 01/04/2018 17:00:00 0.0005
2018_01_05_S8 01/04/2018 17:05:00 0.0
2018_01_05_S8 01/04/2018 17:10:00 0.1716
2018_01_05_S8 01/04/2018 17:15:00 0.0
2018_01_05_S8 01/04/2018 17:20:00 0.0
2018_01_05_S8 01/04/2018 17:25:00 0.0
2018_01_05_S8 01/04/2018 17:30:00 0.2566
2018_01_05_S8 01/04/2018 17:35:00 0.3518
2018_01_05_S8 01/04/2018 17:40:00 0.209
2018_01_05_S8 01/04/2018 17:45:00 0.0815
2018_01_05_S8 01/04/2018 17:50:00 0.1456
2018_01_05_S8 01/04/2018 17:55:00 0.1608
2018_01_05_S8 01/04/2018 18:00:00 0.1756
2018_01_05_S8 01/04/2018 18:05:00 0.2054
2018_01_05_S8 01/04/2018 18:10:00 0.0505
2018_01_05_S8 01/04/2018 18:15:00 0.0244
2018_01_05_S8 01/04/2018 18:20:00 0.0
2018_01_05_S8 01/04/2018 18:25:00 0.0
2018_01_05_S8 01/04/2018 18:30:00 0.0
2018_01_05_S8 01/04/2018 18:35:00 0.0
2018_01_05_S8 01/04/2018 18:40:00 0.0
2018_01_05_S8 01/04/2018 18:45:00 0.0
2018_01_05_S8 01/04/2018 18:50:00 0.0
2018_01_05_S8 01/04/2018 18:55:00 0.0
2018_01_05_S8 01/04/2018 19:00:00 0.0
2018_01_05_S8 01/04/2018 19:05:00 0.0
2018_01_05_S8 01/04/2018 19:10:00 0.0
2018_01_05_S8 01/04/2018 19:15:00 0.0
2018_01_05_S8 01/04/2018 19:20:00 0.0
2018_01_05_S8 01/04/2018 19:25:00 0.0
2018_01_05_S8 01/04/2018 19:30:00 0.0
2018_01_05_S8 01/04/2018 19:35:00 0.0
2018_01_05_S8 01/04/2018 19:40:00 0.0
2018_01_05_S8 01/04/2018 19:45:00 0.0
2018_01_05_S8 01/04/2018 19:50:00 0.0
2018_01_05_S8 01/04/2018 19:55:00 0.0
2018_01_05_S8 01/04/2018 20:00:00 0.0
2018_01_05_S8 01/04/2018 20:05:00 0.0
2018_01_05_S8 01/04/2018 20:10:00 0.0
2018_01_05_S8 01/04/2018 20:15:00 0.0
2018_01_05_S8 01/04/2018 20:20:00 0.0
2018_01_05_S8 01/04/2018 20:25:00 0.0052
2018_01_05_S8 01/04/2018 20:30:00 0.0
2018_01_05_S8 01/04/2018 20:35:00 0.0
2018_01_05_S8 01/04/2018 20:40:00 0.0
2018_01_05_S8 01/04/2018 20:45:00 0.0
2018_01_05_S8 01/04/2018 20:50:00 0.0
2018_01_05_S8 01/04/2018 20:55:00 0.0
2018_01_05_S8 01/04/2018 21:00:00 0.0
2018_01_05_S8 01/04/2018 21:05:00 0.0
2018_01_05_S8 01/04/2018 21:10:00 0.0
2018_01_05_S8 01/04/2018 21:15:00 0.0
2018_01_05_S8 01/04/2018 21:20:00 0.0
2018_01_05_S8 01/04/2018 21:25:00 0.0072
2018_01_05_S8 01/04/2018 21:30:00 0.1524
2018_01_05_S8 01/04/2018 21:35:00 0.0097
2018_01_05_S8 01/04/2018 21:40:00 0.0777
2018_01_05_S8 01/04/2018 21:45:00 0.0
2018_01_05_S8 01/04/2018 21:50:00 0.0
2018_01_05_S8 01/04/2018 21:55:00 0.0
2018_01_05_S8 01/04/2018 22:00:00 0.0
2018_01_05_S8 01/04/2018 22:05:00 0.0
2018_01_05_S8 01/04/2018 22:10:00 0.0
2018_01_05_S8 01/04/2018 22:15:00 0.0
2018_01_05_S8 01/04/2018 22:20:00 0.0
2018_01_05_S8 01/04/2018 22:25:00 0.0
2018_01_05_S8 01/04/2018 22:30:00 0.0
2018_01_05_S8 01/04/2018 22:35:00 0.0
2018_01_05_S8 01/04/2018 22:40:00 0.0
2018_01_05_S8 01/04/2018 22:45:00 0.0
2018_01_05_S8 01/04/2018 22:50:00 0.0
2018_01_05_S8 01/04/2018 22:55:00 0.0
2018_01_05_S8 01/04/2018 23:00:00 0.0
2018_01_05_S8 01/04/2018 23:05:00 0.0
2018_01_05_S8 01/04/2018 23:10:00 0.0
2018_01_05_S8 01/04/2018 23:15:00 0.0
2018_01_05_S8 01/04/2018 23:20:00 0.0
2018_01_05_S8 01/04/2018 23:25:00 0.0
2018_01_05_S8 01/04/2018 23:30:00 0.0
2018_01_05_S8 01/04/2018 23:35:00 0.0
2018_01_05_S8 01/04/2018 23:40:00 0.0
2018_01_05_S8 01/04/2018 23:45:00 0.0
2018_01_05_S8 01/04/2018 23:50:00 0.0
2018_01_05_S8 01/04/2018 23:55:00 0.0
2018_01_05_S8 01/05/2018 00:00:00 0.0
2018_01_05_S8 01/05/2018 00:05:00 0.0
2018_01_05_S8 01/05/2018 00:10:00 0.0
2018_01_05_S8 01/05/2018 00:15:00 0.0
2018_01_05_S8 01/05/2018 00:20:00 0.0
2018_01_05_S8 01/05/2018 00:25:00 0.0
2018_01_05_S8 01/05/2018 00:30:00 0.0
2018_01_05_S8 01/05/2018 00:35:00 0.0
2018_01_05_S8 01/05/2018 00:40:00 0.0
2018_01_05_S8 01/05/2018 00:45:00 0.0015
2018_01_05_S8 01/05/2018 00:50:00 0.1001
2018_01_05_S8 01/05/2018 00:55:00 0.0412
2018_01_05_S8 01/05/2018 01:00:00 0.0036
2018_01_05_S8 01/05/2018 01:05:00 0.1174
2018_01_05_S8 01/05/2018 01:10:00 0.0486
2018_01_05_S8 01/05/2018 01:15:00 0.0025
2018_01_05_S8 01/05/2018 01:20:00 0.0562
2018_01_05_S8 01/05/2018 01:25:00 0.0218
2018_01_05_S8 01/05/2018 01:30:00 0.0048
2018_01_05_S8 01/05/2018 01:35:00 0.0024
2018_01_05_S8 01/05/2018 01:40:00 0.0
2018_01_05_S8 01/05/2018 01:45:00 0.0313
2018_01_05_S8 01/05/2018 01:50:00 0.0269
2018_01_05_S8 01/05/2018 01:55:00 0.0059
2018_01_05_S8 01/05/2018 02:00:00 0.0148
2018_01_05_S8 01/05/2018 02:05:00 0.0202
2018_01_05_S8 01/05/2018 02:10:00 0.003
2018_01_05_S8 01/05/2018 02:15:00 0.0391
2018_01_05_S8 01/05/2018 02:20:00 0.0009
2018_01_05_S8 01/05/2018 02:25:00 0.0
2018_01_05_S8 01/05/2018 02:30:00 0.0
2018_01_05_S8 01/05/2018 02:35:00 0.0
2018_01_05_S8 01/05/2018 02:40:00 0.0
2018_01_05_S8 01/05/2018 02:45:00 0.0
2018_01_05_S8 01/05/2018 02:50:00 0.0
2018_01_05_S8 01/05/2018 02:55:00 0.0
2018_01_05_S8 01/05/2018 03:00:00 0.0
2018_01_05_S8 01/05/2018 03:05:00 0.2078
2018_01_05_S8 01/05/2018 03:10:00 0.4435
2018_01_05_S8 01/05/2018 03:15:00 0.2867
2018_01_05_S8 01/05/2018 03:20:00 0.7383
2018_01_05_S8 01/05/2018 03:25:00 0.2417
2018_01_05_S8 01/05/2018 03:30:00 0.2374
2018_01_05_S8 01/05/2018 03:35:00 0.0881
2018_01_05_S8 01/05/2018 03:40:00 0.0
2018_01_05_S8 01/05/2018 03:45:00 0.0112
2018_01_05_S8 01/05/2018 03:50:00 0.0434
2018_01_05_S8 01/05/2018 03:55:00 0.0278
2018_01_05_S8 01/05/2018 04:00:00 0.0478
2018_01_05_S8 01/05/2018 04:05:00 0.0
2018_01_05_S8 01/05/2018 04:10:00 0.0
2018_01_05_S8 01/05/2018 04:15:00 0.0114
2018_01_05_S8 01/05/2018 04:20:00 0.0096
2018_01_05_S8 01/05/2018 04:25:00 0.1444
2018_01_05_S8 01/05/2018 04:30:00 0.0161
2018_01_05_S8 01/05/2018 04:35:00 0.0223
2018_01_05_S8 01/05/2018 04:40:00 0.0535
2018_01_05_S8 01/05/2018 04:45:00 0.0779
2018_01_05_S8 01/05/2018 04:50:00 0.0258
2018_01_05_S8 01/05/2018 04:55:00 0.0024
2018_01_05_S8 01/05/2018 05:00:00 0.0795
2018_01_05_S8 01/05/2018 05:05:00 0.0005
2018_01_05_S8 01/05/2018 05:10:00 0.0
2018_01_05_S8 01/05/2018 05:15:00 0.0
2018_01_05_S8 01/05/2018 05:20:00 0.0058
2018_01_05_S8 01/05/2018 05:25:00 0.0
2018_01_05_S8 01/05/2018 05:30:00 0.0051
2018_01_05_S8 01/05/2018 05:35:00 0.0
2018_01_05_S8 01/05/2018 05:40:00 0.0
2018_01_05_S8 01/05/2018 05:45:00 0.0059
2018_01_05_S8 01/05/2018 05:50:00 0.0
2018_01_05_S8 01/05/2018 05:55:00 0.0164
2018_01_05_S8 01/05/2018 06:00:00 0.1653
2018_01_05_S8 01/05/2018 06:05:00 0.1692
2018_01_05_S8 01/05/2018 06:10:00 0.0064
2018_01_05_S8 01/05/2018 06:15:00 0.0347
2018_01_05_S8 01/05/2018 06:20:00 4.4031
2018_01_05_S8 01/05/2018 06:25:00 2.4933
2018_01_05_S8 01/05/2018 06:30:00 1.4317
2018_01_05_S8 01/05/2018 06:35:00 1.6184
2018_01_05_S8 01/05/2018 06:40:00 0.5885
2018_01_05_S8 01/05/2018 06:45:00 1.0762
2018_01_05_S8 01/05/2018 06:50:00 1.1033
2018_01_05_S8 01/05/2018 06:55:00 0.3362
2018_01_05_S8 01/05/2018 07:00:00 0.3146
2018_01_05_S8 01/05/2018 07:05:00 0.0528
2018_01_05_S8 01/05/2018 07:10:00 0.0378
2018_01_05_S8 01/05/2018 07:15:00 0.0
2018_01_05_S8 01/05/2018 07:20:00 0.0
2018_01_05_S8 01/05/2018 07:25:00 0.0
2018_01_05_S8 01/05/2018 07:30:00 0.0
2018_01_05_S8 01/05/2018 07:35:00 0.0
2018_01_05_S8 01/05/2018 07:40:00 0.0
2018_01_05_S8 01/05/2018 07:45:00 0.0
2018_01_05_S8 01/05/2018 07:50:00 0.0
2018_01_05_S8 01/05/2018 07:55:00 0.0
2018_01_05_S8 01/05/2018 08:00:00 0.0
2018_01_05_S8 01/05/2018 08:05:00 0.0
2018_01_05_S8 01/05/2018 08:10:00 0.0
2018_01_05_S8 01/05/2018 08:15:00 0.0
2018_01_05_S8 01/05/2018 08:20:00 0.0
2018_01_05_S8 01/05/2018 08:25:00 0.006
2018_01_05_S8 01/05/2018 08:30:00 0.0647
2018_01_05_S8 01/05/2018 08:35:00 0.374
2018_01_05_S8 01/05/2018 08:40:00 0.3617
2018_01_05_S8 01/05/2018 08:45:00 0.8902
2018_01_05_S8 01/05/2018 08:50:00 0.6184
2018_01_05_S8 01/05/2018 08:55:00 1.1745
2018_01_05_S8 01/05/2018 09:00:00 0.4837
2018_01_05_S8 01/05/2018 09:05:00 0.433
2018_01_05_S8 01/05/2018 09:10:00 0.6011
2018_01_05_S8 01/05/2018 09:15:00 0.1972
2018_01_05_S8 01/05/2018 09:20:00 0.0031
2018_01_05_S8 01/05/2018 09:25:00 0.0
2018_01_05_S8 01/05/2018 09:30:00 0.0209
2018_01_05_S8 01/05/2018 09:35:00 0.0962
2018_01_05_S8 01/05/2018 09:40:00 1.2447
2018_01_05_S8 01/05/2018 09:45:00 0.5471
2018_01_05_S8 01/05/2018 09:50:00 0.8578
2018_01_05_S8 01/05/2018 09:55:00 1.5161
2018_01_05_S8 01/05/2018 10:00:00 0.2283
2018_01_05_S8 01/05/2018 10:05:00 0.0803
2018_01_05_S8 01/05/2018 10:10:00 0.0
2018_01_05_S8 01/05/2018 10:15:00 0.0007
2018_01_05_S8 01/05/2018 10:20:00 0.0
2018_01_05_S8 01/05/2018 10:25:00 0.0581
2018_01_05_S8 01/05/2018 10:30:00 2.1311
2018_01_05_S8 01/05/2018 10:35:00 0.0172
2018_01_05_S8 01/05/2018 10:40:00 0.2426
2018_01_05_S8 01/05/2018 10:45:00 1.4287
2018_01_05_S8 01/05/2018 10:50:00 0.0121
2018_01_05_S8 01/05/2018 10:55:00 0.0
2018_01_05_S8 01/05/2018 11:00:00 0.0222
2018_01_05_S8 01/05/2018 11:05:00 0.044
2018_01_05_S8 01/05/2018 11:10:00 0.106
2018_01_05_S8 01/05/2018 11:15:00 0.234
2018_01_05_S8 01/05/2018 11:20:00 0.1744
2018_01_05_S8 01/05/2018 11:25:00 0.1006
2018_01_05_S8 01/05/2018 11:30:00 0.391
2018_01_05_S8 01/05/2018 11:35:00 0.1635
2018_01_05_S8 01/05/2018 11:40:00 0.0885
2018_01_05_S8 01/05/2018 11:45:00 0.0006
2018_01_05_S8 01/05/2018 11:50:00 0.0
2018_01_05_S8 01/05/2018 11:55:00 0.0043
2018_01_05_S8 01/05/2018 12:00:00 0.009
2018_01_05_S8 01/05/2018 12:05:00 0.1544
2018_01_05_S8 01/05/2018 12:10:00 1.1729
2018_01_05_S8 01/05/2018 12:15:00 0.9787
2018_01_05_S8 01/05/2018 12:20:00 0.2915
2018_01_05_S8 01/05/2018 12:25:00 0.5045
2018_01_05_S8 01/05/2018 12:30:00 0.2036
2018_01_05_S8 01/05/2018 12:35:00 0.4958
2018_01_05_S8 01/05/2018 12:40:00 1.0371
2018_01_05_S8 01/05/2018 12:45:00 2.9448
2018_01_05_S8 01/05/2018 12:50:00 0.0323
2018_01_05_S8 01/05/2018 12:55:00 0.1424
2018_01_05_S8 01/05/2018 13:00:00 0.0783
2018_01_05_S8 01/05/2018 13:05:00 0.5604
2018_01_05_S8 01/05/2018 13:10:00 0.0
2018_01_05_S8 01/05/2018 13:15:00 0.0
2018_01_05_S8 01/05/2018 13:20:00 0.0055
2018_01_05_S8 01/05/2018 13:25:00 0.0288
2018_01_05_S8 01/05/2018 13:30:00 0.0145
2018_01_05_S8 01/05/2018 13:35:00 0.0
2018_01_05_S8 01/05/2018 13:40:00 0.2274
2018_01_05_S8 01/05/2018 13:45:00 0.7521
2018_01_05_S8 01/05/2018 13:50:00 0.2637
2018_01_05_S8 01/05/2018 13:55:00 0.0955
2018_01_05_S8 01/05/2018 14:00:00 0.2335
2018_01_05_S8 01/05/2018 14:05:00 0.06
2018_01_05_S8 01/05/2018 14:10:00 1.0252
2018_01_05_S8 01/05/2018 14:15:00 0.0223
2018_01_05_S8 01/05/2018 14:20:00 0.0
2018_01_05_S8 01/05/2018 14:25:00 0.0
2018_01_05_S8 01/05/2018 14:30:00 0.0
2018_01_05_S8 01/05/2018 14:35:00 0.0184
2018_01_05_S8 01/05/2018 14:40:00 0.0669
2018_01_05_S8 01/05/2018 14:45:00 1.2515
2018_01_05_S8 01/05/2018 14:50:00 0.0933
2018_01_05_S8 01/05/2018 14:55:00 0.0009
2018_01_05_S8 01/05/2018 15:00:00 0.0
2018_01_05_S8 01/05/2018 15:05:00 0.0
2018_01_05_S8 01/05/2018 15:10:00 0.0517
2018_01_05_S8 01/05/2018 15:15:00 1.3442
2018_01_05_S8 01/05/2018 15:20:00 0.1103
2018_01_05_S8 01/05/2018 15:25:00 0.0
2018_01_05_S8 01/05/2018 15:30:00 0.0006
2018_01_05_S8 01/05/2018 15:35:00 0.1235
2018_01_05_S8 01/05/2018 15:40:00 0.0786
2018_01_05_S8 01/05/2018 15:45:00 0.0
2018_01_05_S8 01/05/2018 15:50:00 0.0
2018_01_05_S8 01/05/2018 15:55:00 0.0
2018_01_05_S8 01/05/2018 16:00:00 0.0
2018_01_05_S8 01/05/2018 16:05:00 0.0
2018_01_05_S8 01/05/2018 16:10:00 0.0
2018_01_05_S8 01/05/2018 16:15:00 0.0
2018_01_05_S8 01/05/2018 16:20:00 0.0
2018_01_05_S8 01/05/2018 16:25:00 0.0
2018_01_05_S8 01/05/2018 16:30:00 0.0
2018_01_05_S8 01/05/2018 16:35:00 0.0
2018_01_05_S8 01/05/2018 16:40:00 0.0
2018_01_05_S8 01/05/2018 16:45:00 0.0
2018_01_05_S8 01/05/2018 16:50:00 0.0
2018_01_05_S8 01/05/2018 16:55:00 0.0
2018_01_05_S8 01/05/2018 17:00:00 0.0
2018_01_05_S8 01/05/2018 17:05:00 0.0
2018_01_05_S8 01/05/2018 17:10:00 0.0
2018_01_05_S8 01/05/2018 17:15:00 0.0
2018_01_05_S8 01/05/2018 17:20:00 0.0
2018_01_05_S8 01/05/2018 17:25:00 0.0
2018_01_05_S8 01/05/2018 17:30:00 0.0
2018_01_05_S8 01/05/2018 17:35:00 0.0
2018_01_05_S8 01/05/2018 17:40:00 0.0
2018_01_05_S8 01/05/2018 17:45:00 0.0
2018_01_05_S8 01/05/2018 17:50:00 0.005
2018_01_05_S8 01/05/2018 17:55:00 0.0256
2018_01_05_S8 01/05/2018 18:00:00 0.0223
2018_01_05_S8 01/05/2018 18:05:00 0.0
2018_01_05_S8 01/05/2018 18:10:00 0.0
2018_01_05_S8 01/05/2018 18:15:00 0.0045
2018_01_05_S8 01/05/2018 18:20:00 0.0091
2018_01_05_S8 01/05/2018 18:25:00 0.0043
2018_01_05_S8 01/05/2018 18:30:00 0.0
2018_01_05_S8 01/05/2018 18:35:00 0.0
2018_01_05_S8 01/05/2018 18:40:00 0.0
2018_01_05_S8 01/05/2018 18:45:00 0.0
2018_01_05_S8 01/05/2018 18:50:00 0.0
2018_01_05_S8 01/05/2018 18:55:00 0.0
2018_01_05_S8 01/05/2018 19:00:00 0.0
2018_01_05_S8 01/05/2018 19:05:00 0.0
2018_01_05_S8 01/05/2018 19:10:00 0.0
2018_01_05_S8 01/05/2018 19:15:00 0.0
2018_01_05_S8 01/05/2018 19:20:00 0.0
2018_01_05_S8 01/05/2018 19:25:00 0.0107
2018_01_05_S8 01/05/2018 19:30:00 0.0027
2018_01_05_S8 01/05/2018 19:35:00 0.0063
2018_01_05_S8 01/05/2018 19:40:00 0.0
2018_01_05_S8 01/05/2018 19:45:00 0.0074
2018_01_05_S8 01/05/2018 19:50:00 0.3434
2018_01_05_S8 01/05/2018 19:55:00 0.0351
2018_01_05_S8 01/05/2018 20:00:00 0.0193
2018_01_05_S8 01/05/2018 20:05:00 0.0
2018_01_05_S8 01/05/2018 20:10:00 0.0
2018_01_05_S8 01/05/2018 20:15:00 0.0
2018_01_05_S8 01/05/2018 20:20:00 0.0
2018_01_05_S8 01/05/2018 20:25:00 0.0
2018_01_05_S8 01/05/2018 20:30:00 0.0
2018_01_05_S8 01/05/2018 20:35:00 0.0
2018_01_05_S8 01/05/2018 20:40:00 0.0
2018_01_05_S8 01/05/2018 20:45:00 0.0
2018_01_05_S8 01/05/2018 20:50:00 0.0
2018_01_05_S8 01/05/2018 20:55:00 0.0225
2018_01_05_S8 01/05/2018 21:00:00 0.0
2018_01_05_S8 01/05/2018 21:05:00 0.0
2018_01_05_S8 01/05/2018 21:10:00 0.0
2018_01_05_S8 01/05/2018 21:15:00 0.0
2018_01_05_S8 01/05/2018 21:20:00 0.0
2018_01_05_S8 01/05/2018 21:25:00 0.0
2018_01_05_S8 01/05/2018 21:30:00 0.0
2018_01_05_S8 01/05/2018 21:35:00 0.002
2018_01_05_S8 01/05/2018 21:40:00 0.0
2018_01_05_S8 01/05/2018 21:45:00 0.0
2018_01_05_S8 01/05/2018 21:50:00 0.0
2018_01_05_S8 01/05/2018 21:55:00 0.0
2018_01_05_S8 01/05/2018 22:00:00 0.0
2018_01_05_S8 01/05/2018 22:05:00 0.0046
2018_01_05_S8 01/05/2018 22:10:00 0.0
2018_01_05_S8 01/05/2018 22:15:00 0.0
2018_01_05_S8 01/05/2018 22:20:00 0.0
2018_01_05_S8 01/05/2018 22:25:00 0.0017
2018_01_05_S8 01/05/2018 22:30:00 0.0273
2018_01_05_S8 01/05/2018 22:35:00 0.0
2018_01_05_S8 01/05/2018 22:40:00 0.0083
2018_01_05_S8 01/05/2018 22:45:00 0.0
2018_01_05_S8 01/05/2018 22:50:00 0.0
2018_01_05_S8 01/05/2018 22:55:00 0.0
2018_01_05_S8 01/05/2018 23:00:00 0.0
2018_01_05_S8 01/05/2018 23:05:00 0.0
2018_01_05_S8 01/05/2018 23:10:00 0.0
2018_01_05_S8 01/05/2018 23:15:00 0.0
2018_01_05_S8 01/05/2018 23:20:00 0.0
2018_01_05_S8 01/05/2018 23:25:00 0.0
2018_01_05_S8 01/05/2018 23:30:00 0.0
2018_01_05_S8 01/05/2018 23:35:00 0.0
2018_01_05_S8 01/05/2018 23:40:00 0.0056
2018_01_05_S8 01/05/2018 23:45:00 0.0085
2018_01_05_S8 01/05/2018 23:50:00 0.0094
2018_01_05_S8 01/05/2018 23:55:00 0.0
2018_01_05_S8 01/06/2018 00:00:00 0.0074
2018_01_05_S8 01/06/2018 00:05:00 0.0
2018_01_05_S8 01/06/2018 00:10:00 0.1408
2018_01_05_S8 01/06/2018 00:15:00 0.2192
2018_01_05_S8 01/06/2018 00:20:00 0.0
2018_01_05_S8 01/06/2018 00:25:00 0.0
2018_01_05_S8 01/06/2018 00:30:00 0.0
2018_01_05_S8 01/06/2018 00:35:00 0.0
2018_01_05_S8 01/06/2018 00:40:00 0.0
2018_01_05_S8 01/06/2018 00:45:00 0.0
2018_01_05_S8 01/06/2018 00:50:00 0.0
2018_01_05_S8 01/06/2018 00:55:00 0.0
2018_01_05_S8 01/06/2018 01:00:00 0.0
2018_01_05_S8 01/06/2018 01:05:00 0.0006
2018_01_05_S8 01/06/2018 01:10:00 0.0122
2018_01_05_S8 01/06/2018 01:15:00 0.0
2018_01_05_S8 01/06/2018 01:20:00 0.0
2018_01_05_S8 01/06/2018 01:25:00 0.0
2018_01_05_S8 01/06/2018 01:30:00 0.0
2018_01_05_S8 01/06/2018 01:35:00 0.0
2018_01_05_S8 01/06/2018 01:40:00 0.0
2018_01_05_S8 01/06/2018 01:45:00 0.0
2018_01_05_S8 01/06/2018 01:50:00 0.0
2018_01_05_S8 01/06/2018 01:55:00 0.0
2018_01_05_S8 01/06/2018 02:00:00 0.0
2018_01_05_S8 01/06/2018 02:05:00 0.0
2018_01_05_S8 01/06/2018 02:10:00 0.0
2018_01_05_S8 01/06/2018 02:15:00 0.0
2018_01_05_S8 01/06/2018 02:20:00 0.0
2018_01_05_S8 01/06/2018 02:25:00 0.0
2018_01_05_S8 01/06/2018 02:30:00 0.0
2018_01_05_S8 01/06/2018 02:35:00 0.0
2018_01_05_S8 01/06/2018 02:40:00 0.0
2018_01_05_S8 01/06/2018 02:45:00 0.0
2018_01_05_S8 01/06/2018 02:50:00 0.0
2018_01_05_S8 01/06/2018 02:55:00 0.0
2018_01_05_S8 01/06/2018 03:00:00 0.0
2018_01_05_S8 01/06/2018 03:05:00 0.0
2018_01_05_S8 01/06/2018 03:10:00 0.0
2018_01_05_S8 01/06/2018 03:15:00 0.0
2018_01_05_S8 01/06/2018 03:20:00 0.0
2018_01_05_S8 01/06/2018 03:25:00 0.0
2018_01_05_S8 01/06/2018 03:30:00 0.0
2018_01_05_S8 01/06/2018 03:35:00 0.0
2018_01_05_S8 01/06/2018 03:40:00 0.2076
2018_01_05_S8 01/06/2018 03:45:00 0.6745
2018_01_05_S8 01/06/2018 03:50:00 0.0
2018_01_05_S8 01/06/2018 03:55:00 0.0
2018_01_05_S8 01/06/2018 04:00:00 0.0
2018_01_05_S8 01/06/2018 04:05:00 0.0
2018_01_05_S8 01/06/2018 04:10:00 0.0
2018_01_05_S8 01/06/2018 04:15:00 0.0
2018_01_05_S8 01/06/2018 04:20:00 0.0375
2018_01_05_S8 01/06/2018 04:25:00 0.0185
2018_01_05_S8 01/06/2018 04:30:00 0.0
2018_01_05_S8 01/06/2018 04:35:00 0.0
2018_01_05_S8 01/06/2018 04:40:00 0.0
2018_01_05_S8 01/06/2018 04:45:00 0.0
2018_01_05_S8 01/06/2018 04:50:00 0.0
2018_01_05_S8 01/06/2018 04:55:00 0.0
2018_01_05_S8 01/06/2018 05:00:00 0.0
2018_01_05_S8 01/06/2018 05:05:00 0.0
2018_01_05_S8 01/06/2018 05:10:00 0.0
2018_01_05_S8 01/06/2018 05:15:00 0.0
2018_01_05_S8 01/06/2018 05:20:00 0.0
2018_01_05_S8 01/06/2018 05:25:00 0.0
2018_01_05_S8 01/06/2018 05:30:00 0.0
2018_01_05_S8 01/06/2018 05:35:00 0.2656
2018_01_05_S8 01/06/2018 05:40:00 0.0274
2018_01_05_S8 01/06/2018 05:45:00 0.0
2018_01_05_S8 01/06/2018 05:50:00 0.0
2018_01_05_S8 01/06/2018 05:55:00 0.0
2018_01_05_S8 01/06/2018 06:00:00 0.0
2018_01_05_S8 01/06/2018 06:05:00 0.0036
2018_01_05_S8 01/06/2018 06:10:00 0.1231
2018_01_05_S8 01/06/2018 06:15:00 0.0225
2018_01_05_S8 01/06/2018 06:20:00 0.0315
2018_01_05_S8 01/06/2018 06:25:00 0.0077
2018_01_05_S8 01/06/2018 06:30:00 0.0
2018_01_05_S8 01/06/2018 06:35:00 0.0
2018_01_05_S8 01/06/2018 06:40:00 0.0012
2018_01_05_S8 01/06/2018 06:45:00 0.0
2018_01_05_S8 01/06/2018 06:50:00 0.0079
2018_01_05_S8 01/06/2018 06:55:00 0.0072
2018_01_05_S8 01/06/2018 07:00:00 0.1273
2018_01_05_S8 01/06/2018 07:05:00 0.0191
2018_01_05_S8 01/06/2018 07:10:00 0.0037
2018_01_05_S8 01/06/2018 07:15:00 0.0
2018_01_05_S8 01/06/2018 07:20:00 0.0
2018_01_05_S8 01/06/2018 07:25:00 0.0
2018_01_05_S8 01/06/2018 07:30:00 0.0
2018_01_05_S8 01/06/2018 07:35:00 0.0009
2018_01_05_S8 01/06/2018 07:40:00 0.0
2018_01_05_S8 01/06/2018 07:45:00 0.0048
2018_01_05_S8 01/06/2018 07:50:00 0.0287
2018_01_05_S8 01/06/2018 07:55:00 0.0266
2018_01_05_S8 01/06/2018 08:00:00 0.0

2018_01_05_S9 01/04/2018 10:25:00 0.1407
2018_01_05_S9 01/04/2018 10:30:00 0.0411
2018_01_05_S9 01/04/2018 10:35:00 0.0235
2018_01_05_S9 01/04/2018 10:40:00 0.0124
2018_01_05_S9 01/04/2018 10:45:00 0.0005
2018_01_05_S9 01/04/2018 10:50:00 0.0001
2018_01_05_S9 01/04/2018 10:55:00 0.0
2018_01_05_S9 01/04/2018 11:00:00 0.0
2018_01_05_S9 01/04/2018 11:05:00 0.7247
2018_01_05_S9 01/04/2018 11:10:00 0.1843
2018_01_05_S9 01/04/2018 11:15:00 0.4012
2018_01_05_S9 01/04/2018 11:20:00 0.1765
2018_01_05_S9 01/04/2018 11:25:00 0.0397
2018_01_05_S9 01/04/2018 11:30:00 0.0
2018_01_05_S9 01/04/2018 11:35:00 0.0
2018_01_05_S9 01/04/2018 11:40:00 0.0
2018_01_05_S9 01/04/2018 11:45:00 0.0
2018_01_05_S9 01/04/2018 11:50:00 0.0
2018_01_05_S9 01/04/2018 11:55:00 0.0
2018_01_05_S9 01/04/2018 12:00:00 0.0
2018_01_05_S9 01/04/2018 12:05:00 0.0
2018_01_05_S9 01/04/2018 12:10:00 0.0
2018_01_05_S9 01/04/2018 12:15:00 0.0
2018_01_05_S9 01/04/2018 12:20:00 0.0
2018_01_05_S9 01/04/2018 12:25:00 0.0017
2018_01_05_S9 01/04/2018 12:30:00 0.0
2018_01_05_S9 01/04/2018 12:35:00 0.0
2018_01_05_S9 01/04/2018 12:40:00 0.0
2018_01_05_S9 01/04/2018 12:45:00 0.0
2018_01_05_S9 01/04/2018 12:50:00 0.0
2018_01_05_S9 01/04/2018 12:55:00 0.0
2018_01_05_S9 01/04/2018 13:00:00 0.0
2018_01_05_S9 01/04/2018 13:05:00 0.0
2018_01_05_S9 01/04/2018 13:10:00 0.0
2018_01_05_S9 01/04/2018 13:15:00 0.0005
2018_01_05_S9 01/04/2018 13:20:00 0.0
2018_01_05_S9 01/04/2018 13:25:00 0.0
2018_01_05_S9 01/04/2018 13:30:00 0.0
2018_01_05_S9 01/04/2018 13:35:00 0.0
2018_01_05_S9 01/04/2018 13:40:00 0.0
2018_01_05_S9 01/04/2018 13:45:00 0.0
2018_01_05_S9 01/04/2018 13:50:00 0.0
2018_01_05_S9 01/04/2018 13:55:00 0.0
2018_01_05_S9 01/04/2018 14:00:00 0.0
2018_01_05_S9 01/04/2018 14:05:00 0.0
2018_01_05_S9 01/04/2018 14:10:00 0.0
2018_01_05_S9 01/04/2018 14:15:00 0.0
2018_01_05_S9 01/04/2018 14:20:00 0.0
2018_01_05_S9 01/04/2018 14:25:00 0.0001
2018_01_05_S9 01/04/2018 14:30:00 0.0002
2018_01_05_S9 01/04/2018 14:35:00 0.0571
2018_01_05_S9 01/04/2018 14:40:00 0.0
2018_01_05_S9 01/04/2018 14:45:00 0.0
2018_01_05_S9 01/04/2018 14:50:00 0.0
2018_01_05_S9 01/04/2018 14:55:00 0.0
2018_01_05_S9 01/04/2018 15:00:00 0.0
2018_01_05_S9 01/04/2018 15:05:00 0.0
2018_01_05_S9 01/04/2018 15:10:00 0.0
2018_01_05_S9 01/04/2018 15:15:00 0.0
2018_01_05_S9 01/04/2018 15:20:00 0.0
2018_01_05_S9 01/04/2018 15:25:00 0.0
2018_01_05_S9 01/04/2018 15:30:00 0.0154
2018_01_05_S9 01/04/2018 15:35:00 0.001
2018_01_05_S9 01/04/2018 15:40:00 0.0
2018_01_05_S9 01/04/2018 15:45:00 0.0
2018_01_05_S9 01/04/2018 15:50:00 0.0
2018_01_05_S9 01/04/2018 15:55:00 0.023
2018_01_05_S9 01/04/2018 16:00:00 0.0432
2018_01_05_S9 01/04/2018 16:05:00 0.0339
2018_01_05_S9 01/04/2018 16:10:00 0.0038
2018_01_05_S9 01/04/2018 16:15:00 0.1333
2018_01_05_S9 01/04/2018 16:20:00 0.079
2018_01_05_S9 01/04/2018 16:25:00 0.0
2018_01_05_S9 01/04/2018 16:30:00 0.0
2018_01_05_S9 01/04/2018 16:35:00 0.0
2018_01_05_S9 01/04/2018 16:40:00 0.0
2018_01_05_S9 01/04/2018 16:45:00 0.0
2018_01_05_S9 01/04/2018 16:50:00 0.0
2018_01_05_S9 01/04/2018 16:55:00 0.0
2018_01_05_S9 01/04/2018 17:00:00 0.0
2018_01_05_S9 01/04/2018 17:05:00 0.0002
2018_01_05_S9 01/04/2018 17:10:00 0.3604
2018_01_05_S9 01/04/2018 17:15:00 0.0
2018_01_05_S9 01/04/2018 17:20:00 0.0
2018_01_05_S9 01/04/2018 17:25:00 0.0036
2018_01_05_S9 01/04/2018 17:30:00 0.3833
2018_01_05_S9 01/04/2018 17:35:00 0.4277
2018_01_05_S9 01/04/2018 17:40:00 0.0929
2018_01_05_S9 01/04/2018 17:45:00 0.1366
2018_01_05_S9 01/04/2018 17:50:00 0.2305
2018_01_05_S9 01/04/2018 17:55:00 0.1529
2018_01_05_S9 01/04/2018 18:00:00 0.1459
2018_01_05_S9 01/04/2018 18:05:00 0.1779
2018_01_05_S9 01/04/2018 18:10:00 0.0266
2018_01_05_S9 01/04/2018 18:15:00 0.0149
2018_01_05_S9 01/04/2018 18:20:00 0.0
2018_01_05_S9 01/04/2018 18:25:00 0.0
2018_01_05_S9 01/04/2018 18:30:00 0.0
2018_01_05_S9 01/04/2018 18:35:00 0.0
2018_01_05_S9 01/04/2018 18:40:00 0.0
2018_01_05_S9 01/04/2018 18:45:00 0.0
2018_01_05_S9 01/04/2018 18:50:00 0.0
2018_01_05_S9 01/04/2018 18:55:00 0.0
2018_01_05_S9 01/04/2018 19:00:00 0.0
2018_01_05_S9 01/04/2018 19:05:00 0.0
2018_01_05_S9 01/04/2018 19:10:00 0.0
2018_01_05_S9 01/04/2018 19:15:00 0.0
2018_01_05_S9 01/04/2018 19:20:00 0.0
2018_01_05_S9 01/04/2018 19:25:00 0.0
2018_01_05_S9 01/04/2018 19:30:00 0.0
2018_01_05_S9 01/04/2018 19:35:00 0.0
2018_01_05_S9 01/04/2018 19:40:00 0.0
2018_01_05_S9 01/04/2018 19:45:00 0.0
2018_01_05_S9 01/04/2018 19:50:00 0.0
2018_01_05_S9 01/04/2018 19:55:00 0.0
2018_01_05_S9 01/04/2018 20:00:00 0.0
2018_01_05_S9 01/04/2018 20:05:00 0.0
2018_01_05_S9 01/04/2018 20:10:00 0.0
2018_01_05_S9 01/04/2018 20:15:00 0.0
2018_01_05_S9 01/04/2018 20:20:00 0.0
2018_01_05_S9 01/04/2018 20:25:00 0.0055
2018_01_05_S9 01/04/2018 20:30:00 0.0
2018_01_05_S9 01/04/2018 20:35:00 0.0
2018_01_05_S9 01/04/2018 20:40:00 0.0
2018_01_05_S9 01/04/2018 20:45:00 0.0
2018_01_05_S9 01/04/2018 20:50:00 0.0
2018_01_05_S9 01/04/2018 20:55:00 0.0
2018_01_05_S9 01/04/2018 21:00:00 0.0
2018_01_05_S9 01/04/2018 21:05:00 0.0
2018_01_05_S9 01/04/2018 21:10:00 0.0
2018_01_05_S9 01/04/2018 21:15:00 0.0
2018_01_05_S9 01/04/2018 21:20:00 0.0001
2018_01_05_S9 01/04/2018 21:25:00 0.0059
2018_01_05_S9 01/04/2018 21:30:00 0.0608
2018_01_05_S9 01/04/2018 21:35:00 0.0078
2018_01_05_S9 01/04/2018 21:40:00 0.0418
2018_01_05_S9 01/04/2018 21:45:00 0.0
2018_01_05_S9 01/04/2018 21:50:00 0.0
2018_01_05_S9 01/04/2018 21:55:00 0.0
2018_01_05_S9 01/04/2018 22:00:00 0.0
2018_01_05_S9 01/04/2018 22:05:00 0.0
2018_01_05_S9 01/04/2018 22:10:00 0.0
2018_01_05_S9 01/04/2018 22:15:00 0.0
2018_01_05_S9 01/04/2018 22:20:00 0.0
2018_01_05_S9 01/04/2018 22:25:00 0.0
2018_01_05_S9 01/04/2018 22:30:00 0.0
2018_01_05_S9 01/04/2018 22:35:00 0.0
2018_01_05_S9 01/04/2018 22:40:00 0.0
2018_01_05_S9 01/04/2018 22:45:00 0.0
2018_01_05_S9 01/04/2018 22:50:00 0.0
2018_01_05_S9 01/04/2018 22:55:00 0.0
2018_01_05_S9 01/04/2018 23:00:00 0.0
2018_01_05_S9 01/04/2018 23:05:00 0.0
2018_01_05_S9 01/04/2018 23:10:00 0.0
2018_01_05_S9 01/04/2018 23:15:00 0.0
2018_01_05_S9 01/04/2018 23:20:00 0.0
2018_01_05_S9 01/04/2018 23:25:00 0.0
2018_01_05_S9 01/04/2018 23:30:00 0.0
2018_01_05_S9 01/04/2018 23:35:00 0.0
2018_01_05_S9 01/04/2018 23:40:00 0.0
2018_01_05_S9 01/04/2018 23:45:00 0.0
2018_01_05_S9 01/04/2018 23:50:00 0.0
2018_01_05_S9 01/04/2018 23:55:00 0.0
2018_01_05_S9 01/05/2018 00:00:00 0.0
2018_01_05_S9 01/05/2018 00:05:00 0.0
2018_01_05_S9 01/05/2018 00:10:00 0.0
2018_01_05_S9 01/05/2018 00:15:00 0.0
2018_01_05_S9 01/05/2018 00:20:00 0.0
2018_01_05_S9 01/05/2018 00:25:00 0.0
2018_01_05_S9 01/05/2018 00:30:00 0.0
2018_01_05_S9 01/05/2018 00:35:00 0.0
2018_01_05_S9 01/05/2018 00:40:00 0.0
2018_01_05_S9 01/05/2018 00:45:00 0.0075
2018_01_05_S9 01/05/2018 00:50:00 0.0911
2018_01_05_S9 01/05/2018 00:55:00 0.0205
2018_01_05_S9 01/05/2018 01:00:00 0.0173
2018_01_05_S9 01/05/2018 01:05:00 0.0976
2018_01_05_S9 01/05/2018 01:10:00 0.0408
2018_01_05_S9 01/05/2018 01:15:00 0.0017
2018_01_05_S9 01/05/2018 01:20:00 0.084
2018_01_05_S9 01/05/2018 01:25:00 0.0164
2018_01_05_S9 01/05/2018 01:30:00 0.0027
2018_01_05_S9 01/05/2018 01:35:00 0.0005
2018_01_05_S9 01/05/2018 01:40:00 0.0
2018_01_05_S9 01/05/2018 01:45:00 0.0644
2018_01_05_S9 01/05/2018 01:50:00 0.0209
2018_01_05_S9 01/05/2018 01:55:00 0.0077
2018_01_05_S9 01/05/2018 02:00:00 0.0166
2018_01_05_S9 01/05/2018 02:05:00 0.0155
2018_01_05_S9 01/05/2018 02:10:00 0.0001
2018_01_05_S9 01/05/2018 02:15:00 0.0725
2018_01_05_S9 01/05/2018 02:20:00 0.0002
2018_01_05_S9 01/05/2018 02:25:00 0.0
2018_01_05_S9 01/05/2018 02:30:00 0.0
2018_01_05_S9 01/05/2018 02:35:00 0.0
2018_01_05_S9 01/05/2018 02:40:00 0.0
2018_01_05_S9 01/05/2018 02:45:00 0.0
2018_01_05_S9 01/05/2018 02:50:00 0.0
2018_01_05_S9 01/05/2018 02:55:00 0.0
2018_01_05_S9 01/05/2018 03:00:00 0.0
2018_01_05_S9 01/05/2018 03:05:00 0.2029
2018_01_05_S9 01/05/2018 03:10:00 0.3786
2018_01_05_S9 01/05/2018 03:15:00 0.2597
2018_01_05_S9 01/05/2018 03:20:00 0.5457
2018_01_05_S9 01/05/2018 03:25:00 0.1951
2018_01_05_S9 01/05/2018 03:30:00 0.216
2018_01_05_S9 01/05/2018 03:35:00 0.0776
2018_01_05_S9 01/05/2018 03:40:00 0.0
2018_01_05_S9 01/05/2018 03:45:00 0.0102
2018_01_05_S9 01/05/2018 03:50:00 0.0326
2018_01_05_S9 01/05/2018 03:55:00 0.0306
2018_01_05_S9 01/05/2018 04:00:00 0.0345
2018_01_05_S9 01/05/2018 04:05:00 0.0
2018_01_05_S9 01/05/2018 04:10:00 0.0003
2018_01_05_S9 01/05/2018 04:15:00 0.0125
2018_01_05_S9 01/05/2018 04:20:00 0.0072
2018_01_05_S9 01/05/2018 04:25:00 0.1312
2018_01_05_S9 01/05/2018 04:30:00 0.0033
2018_01_05_S9 01/05/2018 04:35:00 0.0226
2018_01_05_S9 01/05/2018 04:40:00 0.0525
2018_01_05_S9 01/05/2018 04:45:00 0.0639
2018_01_05_S9 01/05/2018 04:50:00 0.0305
2018_01_05_S9 01/05/2018 04:55:00 0.0053
2018_01_05_S9 01/05/2018 05:00:00 0.0675
2018_01_05_S9 01/05/2018 05:05:00 0.0003
2018_01_05_S9 01/05/2018 05:10:00 0.0
2018_01_05_S9 01/05/2018 05:15:00 0.0
2018_01_05_S9 01/05/2018 05:20:00 0.0046
2018_01_05_S9 01/05/2018 05:25:00 0.0
2018_01_05_S9 01/05/2018 05:30:00 0.0056
2018_01_05_S9 01/05/2018 05:35:00 0.0
2018_01_05_S9 01/05/2018 05:40:00 0.0
2018_01_05_S9 01/05/2018 05:45:00 0.008
2018_01_05_S9 01/05/2018 05:50:00 0.0
2018_01_05_S9 01/05/2018 05:55:00 0.0171
2018_01_05_S9 01/05/2018 06:00:00 0.1561
2018_01_05_S9 01/05/2018 06:05:00 0.199
2018_01_05_S9 01/05/2018 06:10:00 0.0072
2018_01_05_S9 01/05/2018 06:15:00 0.0577
2018_01_05_S9 01/05/2018 06:20:00 4.2327
2018_01_05_S9 01/05/2018 06:25:00 2.8127
2018_01_05_S9 01/05/2018 06:30:00 1.4191
2018_01_05_S9 01/05/2018 06:35:00 1.4606
2018_01_05_S9 01/05/2018 06:40:00 0.7189
2018_01_05_S9 01/05/2018 06:45:00 1.065
2018_01_05_S9 01/05/2018 06:50:00 1.0467
2018_01_05_S9 01/05/2018 06:55:00 0.349
2018_01_05_S9 01/05/2018 07:00:00 0.3136
2018_01_05_S9 01/05/2018 07:05:00 0.0546
2018_01_05_S9 01/05/2018 07:10:00 0.0167
2018_01_05_S9 01/05/2018 07:15:00 0.0
2018_01_05_S9 01/05/2018 07:20:00 0.0
2018_01_05_S9 01/05/2018 07:25:00 0.0
2018_01_05_S9 01/05/2018 07:30:00 0.0
2018_01_05_S9 01/05/2018 07:35:00 0.0
2018_01_05_S9 01/05/2018 07:40:00 0.0
2018_01_05_S9 01/05/2018 07:45:00 0.0
2018_01_05_S9 01/05/2018 07:50:00 0.0
2018_01_05_S9 01/05/2018 07:55:00 0.0
2018_01_05_S9 01/05/2018 08:00:00 0.0
2018_01_05_S9 01/05/2018 08:05:00 0.0
2018_01_05_S9 01/05/2018 08:10:00 0.0
2018_01_05_S9 01/05/2018 08:15:00 0.0
2018_01_05_S9 01/05/2018 08:20:00 0.0024
2018_01_05_S9 01/05/2018 08:25:00 0.0
2018_01_05_S9 01/05/2018 08:30:00 0.0521
2018_01_05_S9 01/05/2018 08:35:00 0.3941
2018_01_05_S9 01/05/2018 08:40:00 0.4498
2018_01_05_S9 01/05/2018 08:45:00 0.5976
2018_01_05_S9 01/05/2018 08:50:00 0.4625
2018_01_05_S9 01/05/2018 08:55:00 0.6485
2018_01_05_S9 01/05/2018 09:00:00 0.51
2018_01_05_S9 01/05/2018 09:05:00 0.6356
2018_01_05_S9 01/05/2018 09:10:00 0.5398
2018_01_05_S9 01/05/2018 09:15:00 0.2806
2018_01_05_S9 01/05/2018 09:20:00 0.0019
2018_01_05_S9 01/05/2018 09:25:00 0.0002
2018_01_05_S9 01/05/2018 09:30:00 0.0342
2018_01_05_S9 01/05/2018 09:35:00 0.1116
2018_01_05_S9 01/05/2018 09:40:00 0.566
2018_01_05_S9 01/05/2018 09:45:00 0.6108
2018_01_05_S9 01/05/2018 09:50:00 1.3135
2018_01_05_S9 01/05/2018 09:55:00 0.5224
2018_01_05_S9 01/05/2018 10:00:00 0.1576
2018_01_05_S9 01/05/2018 10:05:00 0.1192
2018_01_05_S9 01/05/2018 10:10:00 0.0
2018_01_05_S9 01/05/2018 10:15:00 0.0058
2018_01_05_S9 01/05/2018 10:20:00 0.0
2018_01_05_S9 01/05/2018 10:25:00 0.0687
2018_01_05_S9 01/05/2018 10:30:00 1.5904
2018_01_05_S9 01/05/2018 10:35:00 0.0238
2018_01_05_S9 01/05/2018 10:40:00 0.2662
2018_01_05_S9 01/05/2018 10:45:00 1.2574
2018_01_05_S9 01/05/2018 10:50:00 0.0009
2018_01_05_S9 01/05/2018 10:55:00 0.0
2018_01_05_S9 01/05/2018 11:00:00 0.0215
2018_01_05_S9 01/05/2018 11:05:00 0.0669
2018_01_05_S9 01/05/2018 11:10:00 0.1116
2018_01_05_S9 01/05/2018 11:15:00 0.2013
2018_01_05_S9 01/05/2018 11:20:00 0.1554
2018_01_05_S9 01/05/2018 11:25:00 0.0635
2018_01_05_S9 01/05/2018 11:30:00 0.3855
2018_01_05_S9 01/05/2018 11:35:00 0.1197
2018_01_05_S9 01/05/2018 11:40:00 0.1266
2018_01_05_S9 01/05/2018 11:45:00 0.0
2018_01_05_S9 01/05/2018 11:50:00 0.0
2018_01_05_S9 01/05/2018 11:55:00 0.0197
2018_01_05_S9 01/05/2018 12:00:00 0.01
2018_01_05_S9 01/05/2018 12:05:00 0.1652
2018_01_05_S9 01/05/2018 12:10:00 1.1956
2018_01_05_S9 01/05/2018 12:15:00 0.9234
2018_01_05_S9 01/05/2018 12:20:00 0.2597
2018_01_05_S9 01/05/2018 12:25:00 0.644
2018_01_05_S9 01/05/2018 12:30:00 0.2907
2018_01_05_S9 01/05/2018 12:35:00 0.4415
2018_01_05_S9 01/05/2018 12:40:00 1.0827
2018_01_05_S9 01/05/2018 12:45:00 2.9373
2018_01_05_S9 01/05/2018 12:50:00 0.0093
2018_01_05_S9 01/05/2018 12:55:00 0.1113
2018_01_05_S9 01/05/2018 13:00:00 0.1131
2018_01_05_S9 01/05/2018 13:05:00 0.4025
2018_01_05_S9 01/05/2018 13:10:00 0.0
2018_01_05_S9 01/05/2018 13:15:00 0.0
2018_01_05_S9 01/05/2018 13:20:00 0.0063
2018_01_05_S9 01/05/2018 13:25:00 0.0398
2018_01_05_S9 01/05/2018 13:30:00 0.0248
2018_01_05_S9 01/05/2018 13:35:00 0.0
2018_01_05_S9 01/05/2018 13:40:00 0.6224
2018_01_05_S9 01/05/2018 13:45:00 0.7747
2018_01_05_S9 01/05/2018 13:50:00 0.3741
2018_01_05_S9 01/05/2018 13:55:00 0.0529
2018_01_05_S9 01/05/2018 14:00:00 0.1943
2018_01_05_S9 01/05/2018 14:05:00 0.0071
2018_01_05_S9 01/05/2018 14:10:00 1.5898
2018_01_05_S9 01/05/2018 14:15:00 0.0147
2018_01_05_S9 01/05/2018 14:20:00 0.0
2018_01_05_S9 01/05/2018 14:25:00 0.0
2018_01_05_S9 01/05/2018 14:30:00 0.0
2018_01_05_S9 01/05/2018 14:35:00 0.0175
2018_01_05_S9 01/05/2018 14:40:00 0.0569
2018_01_05_S9 01/05/2018 14:45:00 1.8022
2018_01_05_S9 01/05/2018 14:50:00 0.1068
2018_01_05_S9 01/05/2018 14:55:00 0.0025
2018_01_05_S9 01/05/2018 15:00:00 0.0054
2018_01_05_S9 01/05/2018 15:05:00 0.0
2018_01_05_S9 01/05/2018 15:10:00 0.0516
2018_01_05_S9 01/05/2018 15:15:00 1.9927
2018_01_05_S9 01/05/2018 15:20:00 0.0183
2018_01_05_S9 01/05/2018 15:25:00 0.0
2018_01_05_S9 01/05/2018 15:30:00 0.003
2018_01_05_S9 01/05/2018 15:35:00 0.1782
2018_01_05_S9 01/05/2018 15:40:00 0.0984
2018_01_05_S9 01/05/2018 15:45:00 0.0
2018_01_05_S9 01/05/2018 15:50:00 0.0
2018_01_05_S9 01/05/2018 15:55:00 0.0
2018_01_05_S9 01/05/2018 16:00:00 0.0
2018_01_05_S9 01/05/2018 16:05:00 0.0
2018_01_05_S9 01/05/2018 16:10:00 0.0
2018_01_05_S9 01/05/2018 16:15:00 0.0
2018_01_05_S9 01/05/2018 16:20:00 0.0
2018_01_05_S9 01/05/2018 16:25:00 0.0
2018_01_05_S9 01/05/2018 16:30:00 0.0
2018_01_05_S9 01/05/2018 16:35:00 0.0
2018_01_05_S9 01/05/2018 16:40:00 0.0
2018_01_05_S9 01/05/2018 16:45:00 0.0
2018_01_05_S9 01/05/2018 16:50:00 0.0
2018_01_05_S9 01/05/2018 16:55:00 0.0
2018_01_05_S9 01/05/2018 17:00:00 0.0
2018_01_05_S9 01/05/2018 17:05:00 0.0
2018_01_05_S9 01/05/2018 17:10:00 0.0
2018_01_05_S9 01/05/2018 17:15:00 0.0
2018_01_05_S9 01/05/2018 17:20:00 0.0
2018_01_05_S9 01/05/2018 17:25:00 0.0
2018_01_05_S9 01/05/2018 17:30:00 0.0
2018_01_05_S9 01/05/2018 17:35:00 0.0
2018_01_05_S9 01/05/2018 17:40:00 0.0
2018_01_05_S9 01/05/2018 17:45:00 0.0
2018_01_05_S9 01/05/2018 17:50:00 0.0119
2018_01_05_S9 01/05/2018 17:55:00 0.0302
2018_01_05_S9 01/05/2018 18:00:00 0.0193
2018_01_05_S9 01/05/2018 18:05:00 0.0
2018_01_05_S9 01/05/2018 18:10:00 0.0
2018_01_05_S9 01/05/2018 18:15:00 0.0013
2018_01_05_S9 01/05/2018 18:20:00 0.0079
2018_01_05_S9 01/05/2018 18:25:00 0.0
2018_01_05_S9 01/05/2018 18:30:00 0.0
2018_01_05_S9 01/05/2018 18:35:00 0.0
2018_01_05_S9 01/05/2018 18:40:00 0.0
2018_01_05_S9 01/05/2018 18:45:00 0.0
2018_01_05_S9 01/05/2018 18:50:00 0.0
2018_01_05_S9 01/05/2018 18:55:00 0.0
2018_01_05_S9 01/05/2018 19:00:00 0.0
2018_01_05_S9 01/05/2018 19:05:00 0.0
2018_01_05_S9 01/05/2018 19:10:00 0.0
2018_01_05_S9 01/05/2018 19:15:00 0.0
2018_01_05_S9 01/05/2018 19:20:00 0.0021
2018_01_05_S9 01/05/2018 19:25:00 0.0197
2018_01_05_S9 01/05/2018 19:30:00 0.0108
2018_01_05_S9 01/05/2018 19:35:00 0.0077
2018_01_05_S9 01/05/2018 19:40:00 0.0004
2018_01_05_S9 01/05/2018 19:45:00 0.0075
2018_01_05_S9 01/05/2018 19:50:00 0.3595
2018_01_05_S9 01/05/2018 19:55:00 0.0337
2018_01_05_S9 01/05/2018 20:00:00 0.0226
2018_01_05_S9 01/05/2018 20:05:00 0.0
2018_01_05_S9 01/05/2018 20:10:00 0.0
2018_01_05_S9 01/05/2018 20:15:00 0.0
2018_01_05_S9 01/05/2018 20:20:00 0.0
2018_01_05_S9 01/05/2018 20:25:00 0.0
2018_01_05_S9 01/05/2018 20:30:00 0.0
2018_01_05_S9 01/05/2018 20:35:00 0.0
2018_01_05_S9 01/05/2018 20:40:00 0.0
2018_01_05_S9 01/05/2018 20:45:00 0.0
2018_01_05_S9 01/05/2018 20:50:00 0.0003
2018_01_05_S9 01/05/2018 20:55:00 0.0351
2018_01_05_S9 01/05/2018 21:00:00 0.0003
2018_01_05_S9 01/05/2018 21:05:00 0.0
2018_01_05_S9 01/05/2018 21:10:00 0.0
2018_01_05_S9 01/05/2018 21:15:00 0.0
2018_01_05_S9 01/05/2018 21:20:00 0.0
2018_01_05_S9 01/05/2018 21:25:00 0.0
2018_01_05_S9 01/05/2018 21:30:00 0.0
2018_01_05_S9 01/05/2018 21:35:00 0.0278
2018_01_05_S9 01/05/2018 21:40:00 0.0
2018_01_05_S9 01/05/2018 21:45:00 0.0
2018_01_05_S9 01/05/2018 21:50:00 0.0
2018_01_05_S9 01/05/2018 21:55:00 0.0
2018_01_05_S9 01/05/2018 22:00:00 0.0
2018_01_05_S9 01/05/2018 22:05:00 0.0028
2018_01_05_S9 01/05/2018 22:10:00 0.0
2018_01_05_S9 01/05/2018 22:15:00 0.0
2018_01_05_S9 01/05/2018 22:20:00 0.0001
2018_01_05_S9 01/05/2018 22:25:00 0.0
2018_01_05_S9 01/05/2018 22:30:00 0.033
2018_01_05_S9 01/05/2018 22:35:00 0.0003
2018_01_05_S9 01/05/2018 22:40:00 0.0077
2018_01_05_S9 01/05/2018 22:45:00 0.0
2018_01_05_S9 01/05/2018 22:50:00 0.0
2018_01_05_S9 01/05/2018 22:55:00 0.0
2018_01_05_S9 01/05/2018 23:00:00 0.0
2018_01_05_S9 01/05/2018 23:05:00 0.0
2018_01_05_S9 01/05/2018 23:10:00 0.0
2018_01_05_S9 01/05/2018 23:15:00 0.0
2018_01_05_S9 01/05/2018 23:20:00 0.0
2018_01_05_S9 01/05/2018 23:25:00 0.0
2018_01_05_S9 01/05/2018 23:30:00 0.0
2018_01_05_S9 01/05/2018 23:35:00 0.0
2018_01_05_S9 01/05/2018 23:40:00 0.0117
2018_01_05_S9 01/05/2018 23:45:00 0.008
2018_01_05_S9 01/05/2018 23:50:00 0.0002
2018_01_05_S9 01/05/2018 23:55:00 0.0
2018_01_05_S9 01/06/2018 00:00:00 0.0054
2018_01_05_S9 01/06/2018 00:05:00 0.0
2018_01_05_S9 01/06/2018 00:10:00 0.0962
2018_01_05_S9 01/06/2018 00:15:00 0.1821
2018_01_05_S9 01/06/2018 00:20:00 0.0002
2018_01_05_S9 01/06/2018 00:25:00 0.0
2018_01_05_S9 01/06/2018 00:30:00 0.0
2018_01_05_S9 01/06/2018 00:35:00 0.0
2018_01_05_S9 01/06/2018 00:40:00 0.0
2018_01_05_S9 01/06/2018 00:45:00 0.0
2018_01_05_S9 01/06/2018 00:50:00 0.0
2018_01_05_S9 01/06/2018 00:55:00 0.0
2018_01_05_S9 01/06/2018 01:00:00 0.0
2018_01_05_S9 01/06/2018 01:05:00 0.0029
2018_01_05_S9 01/06/2018 01:10:00 0.0305
2018_01_05_S9 01/06/2018 01:15:00 0.0
2018_01_05_S9 01/06/2018 01:20:00 0.0
2018_01_05_S9 01/06/2018 01:25:00 0.0
2018_01_05_S9 01/06/2018 01:30:00 0.0
2018_01_05_S9 01/06/2018 01:35:00 0.0
2018_01_05_S9 01/06/2018 01:40:00 0.0
2018_01_05_S9 01/06/2018 01:45:00 0.0
2018_01_05_S9 01/06/2018 01:50:00 0.0
2018_01_05_S9 01/06/2018 01:55:00 0.0
2018_01_05_S9 01/06/2018 02:00:00 0.0
2018_01_05_S9 01/06/2018 02:05:00 0.0
2018_01_05_S9 01/06/2018 02:10:00 0.0
2018_01_05_S9 01/06/2018 02:15:00 0.0
2018_01_05_S9 01/06/2018 02:20:00 0.0
2018_01_05_S9 01/06/2018 02:25:00 0.0
2018_01_05_S9 01/06/2018 02:30:00 0.0
2018_01_05_S9 01/06/2018 02:35:00 0.0
2018_01_05_S9 01/06/2018 02:40:00 0.0
2018_01_05_S9 01/06/2018 02:45:00 0.0
2018_01_05_S9 01/06/2018 02:50:00 0.0
2018_01_05_S9 01/06/2018 02:55:00 0.0
2018_01_05_S9 01/06/2018 03:00:00 0.0
2018_01_05_S9 01/06/2018 03:05:00 0.0
2018_01_05_S9 01/06/2018 03:10:00 0.0
2018_01_05_S9 01/06/2018 03:15:00 0.0
2018_01_05_S9 01/06/2018 03:20:00 0.0
2018_01_05_S9 01/06/2018 03:25:00 0.0
2018_01_05_S9 01/06/2018 03:30:00 0.0
2018_01_05_S9 01/06/2018 03:35:00 0.0
2018_01_05_S9 01/06/2018 03:40:00 0.4172
2018_01_05_S9 01/06/2018 03:45:00 0.5844
2018_01_05_S9 01/06/2018 03:50:00 0.0
2018_01_05_S9 01/06/2018 03:55:00 0.0
2018_01_05_S9 01/06/2018 04:00:00 0.0
2018_01_05_S9 01/06/2018 04:05:00 0.0
2018_01_05_S9 01/06/2018 04:10:00 0.0
2018_01_05_S9 01/06/2018 04:15:00 0.0
2018_01_05_S9 01/06/2018 04:20:00 0.0648
2018_01_05_S9 01/06/2018 04:25:00 0.0175
2018_01_05_S9 01/06/2018 04:30:00 0.0
2018_01_05_S9 01/06/2018 04:35:00 0.0
2018_01_05_S9 01/06/2018 04:40:00 0.0
2018_01_05_S9 01/06/2018 04:45:00 0.0
2018_01_05_S9 01/06/2018 04:50:00 0.001
2018_01_05_S9 01/06/2018 04:55:00 0.0
2018_01_05_S9 01/06/2018 05:00:00 0.0
2018_01_05_S9 01/06/2018 05:05:00 0.0
2018_01_05_S9 01/06/2018 05:10:00 0.0
2018_01_05_S9 01/06/2018 05:15:00 0.0
2018_01_05_S9 01/06/2018 05:20:00 0.0
2018_01_05_S9 01/06/2018 05:25:00 0.0081
2018_01_05_S9 01/06/2018 05:30:00 0.0
2018_01_05_S9 01/06/2018 05:35:00 0.0298
2018_01_05_S9 01/06/2018 05:40:00 0.0005
2018_01_05_S9 01/06/2018 05:45:00 0.0
2018_01_05_S9 01/06/2018 05:50:00 0.0
2018_01_05_S9 01/06/2018 05:55:00 0.0
2018_01_05_S9 01/06/2018 06:00:00 0.0
2018_01_05_S9 01/06/2018 06:05:00 0.0171
2018_01_05_S9 01/06/2018 06:10:00 0.1742
2018_01_05_S9 01/06/2018 06:15:00 0.0251
2018_01_05_S9 01/06/2018 06:20:00 0.0365
2018_01_05_S9 01/06/2018 06:25:00 0.011
2018_01_05_S9 01/06/2018 06:30:00 0.0
2018_01_05_S9 01/06/2018 06:35:00 0.0
2018_01_05_S9 01/06/2018 06:40:00 0.0051
2018_01_05_S9 01/06/2018 06:45:00 0.0
2018_01_05_S9 01/06/2018 06:50:00 0.0074
2018_01_05_S9 01/06/2018 06:55:00 0.0016
2018_01_05_S9 01/06/2018 07:00:00 0.0635
2018_01_05_S9 01/06/2018 07:05:00 0.0147
2018_01_05_S9 01/06/2018 07:10:00 0.0001
2018_01_05_S9 01/06/2018 07:15:00 0.0
2018_01_05_S9 01/06/2018 07:20:00 0.0
2018_01_05_S9 01/06/2018 07:25:00 0.0
2018_01_05_S9 01/06/2018 07:30:00 0.0
2018_01_05_S9 01/06/2018 07:35:00 0.0025
2018_01_05_S9 01/06/2018 07:40:00 0.0
2018_01_05_S9 01/06/2018 07:45:00 0.0007
2018_01_05_S9 01/06/2018 07:50:00 0.0154
2018_01_05_S9 01/06/2018 07:55:00 0.0124
2018_01_05_S9 01/06/2018 08:00:00 0.0

2018_01_05_S10 01/04/2018 10:25:00 0.0973
2018_01_05_S10 01/04/2018 10:30:00 0.0051
2018_01_05_S10 01/04/2018 10:35:00 0.0229
2018_01_05_S10 01/04/2018 10:40:00 0.0265
2018_01_05_S10 01/04/2018 10:45:00 0.0018
2018_01_05_S10 01/04/2018 10:50:00 0.0035
2018_01_05_S10 01/04/2018 10:55:00 0.0
2018_01_05_S10 01/04/2018 11:00:00 0.0063
2018_01_05_S10 01/04/2018 11:05:00 0.1659
2018_01_05_S10 01/04/2018 11:10:00 1.1238
2018_01_05_S10 01/04/2018 11:15:00 0.0966
2018_01_05_S10 01/04/2018 11:20:00 0.3208
2018_01_05_S10 01/04/2018 11:25:00 0.0257
2018_01_05_S10 01/04/2018 11:30:00 0.0
2018_01_05_S10 01/04/2018 11:35:00 0.0
2018_01_05_S10 01/04/2018 11:40:00 0.0
2018_01_05_S10 01/04/2018 11:45:00 0.0
2018_01_05_S10 01/04/2018 11:50:00 0.0
2018_01_05_S10 01/04/2018 11:55:00 0.0
2018_01_05_S10 01/04/2018 12:00:00 0.0
2018_01_05_S10 01/04/2018 12:05:00 0.0
2018_01_05_S10 01/04/2018 12:10:00 0.0
2018_01_05_S10 01/04/2018 12:15:00 0.0
2018_01_05_S10 01/04/2018 12:20:00 0.0
2018_01_05_S10 01/04/2018 12:25:00 0.0
2018_01_05_S10 01/04/2018 12:30:00 0.0
2018_01_05_S10 01/04/2018 12:35:00 0.0
2018_01_05_S10 01/04/2018 12:40:00 0.0001
2018_01_05_S10 01/04/2018 12:45:00 0.0
2018_01_05_S10 01/04/2018 12:50:00 0.0
2018_01_05_S10 01/04/2018 12:55:00 0.0
2018_01_05_S10 01/04/2018 13:00:00 0.0
2018_01_05_S10 01/04/2018 13:05:00 0.0
2018_01_05_S10 01/04/2018 13:10:00 0.0
2018_01_05_S10 01/04/2018 13:15:00 0.0
2018_01_05_S10 01/04/2018 13:20:00 0.0
2018_01_05_S10 01/04/2018 13:25:00 0.0
2018_01_05_S10 01/04/2018 13:30:00 0.0
2018_01_05_S10 01/04/2018 13:35:00 0.0
2018_01_05_S10 01/04/2018 13:40:00 0.0
2018_01_05_S10 01/04/2018 13:45:00 0.0
2018_01_05_S10 01/04/2018 13:50:00 0.0
2018_01_05_S10 01/04/2018 13:55:00 0.0
2018_01_05_S10 01/04/2018 14:00:00 0.0
2018_01_05_S10 01/04/2018 14:05:00 0.0
2018_01_05_S10 01/04/2018 14:10:00 0.0
2018_01_05_S10 01/04/2018 14:15:00 0.0
2018_01_05_S10 01/04/2018 14:20:00 0.0
2018_01_05_S10 01/04/2018 14:25:00 0.0
2018_01_05_S10 01/04/2018 14:30:00 0.0097
2018_01_05_S10 01/04/2018 14:35:00 0.0345
2018_01_05_S10 01/04/2018 14:40:00 0.0
2018_01_05_S10 01/04/2018 14:45:00 0.0
2018_01_05_S10 01/04/2018 14:50:00 0.0
2018_01_05_S10 01/04/2018 14:55:00 0.0
2018_01_05_S10 01/04/2018 15:00:00 0.0
2018_01_05_S10 01/04/2018 15:05:00 0.0
2018_01_05_S10 01/04/2018 15:10:00 0.0
2018_01_05_S10 01/04/2018 15:15:00 0.0
2018_01_05_S10 01/04/2018 15:20:00 0.0
2018_01_05_S10 01/04/2018 15:25:00 0.0
2018_01_05_S10 01/04/2018 15:30:00 0.3032
2018_01_05_S10 01/04/2018 15:35:00 0.0013
2018_01_05_S10 01/04/2018 15:40:00 0.0
2018_01_05_S10 01/04/2018 15:45:00 0.0
2018_01_05_S10 01/04/2018 15:50:00 0.0
2018_01_05_S10 01/04/2018 15:55:00 0.0127
2018_01_05_S10 01/04/2018 16:00:00 0.0541
2018_01_05_S10 01/04/2018 16:05:00 0.0307
2018_01_05_S10 01/04/2018 16:10:00 0.0205
2018_01_05_S10 01/04/2018 16:15:00 0.1746
2018_01_05_S10 01/04/2018 16:20:00 0.0576
2018_01_05_S10 01/04/2018 16:25:00 0.0
2018_01_05_S10 01/04/2018 16:30:00 0.0
2018_01_05_S10 01/04/2018 16:35:00 0.0
2018_01_05_S10 01/04/2018 16:40:00 0.0
2018_01_05_S10 01/04/2018 16:45:00 0.0
2018_01_05_S10 01/04/2018 16:50:00 0.0
2018_01_05_S10 01/04/2018 16:55:00 0.0
2018_01_05_S10 01/04/2018 17:00:00 0.0
2018_01_05_S10 01/04/2018 17:05:00 0.0102
2018_01_05_S10 01/04/2018 17:10:00 0.3288
2018_01_05_S10 01/04/2018 17:15:00 0.0
2018_01_05_S10 01/04/2018 17:20:00 0.0
2018_01_05_S10 01/04/2018 17:25:00 0.0391
2018_01_05_S10 01/04/2018 17:30:00 0.2276
2018_01_05_S10 01/04/2018 17:35:00 0.5081
2018_01_05_S10 01/04/2018 17:40:00 0.1488
2018_01_05_S10 01/04/2018 17:45:00 0.1892
2018_01_05_S10 01/04/2018 17:50:00 0.1552
2018_01_05_S10 01/04/2018 17:55:00 0.1293
2018_01_05_S10 01/04/2018 18:00:00 0.106
2018_01_05_S10 01/04/2018 18:05:00 0.1376
2018_01_05_S10 01/04/2018 18:10:00 0.0113
2018_01_05_S10 01/04/2018 18:15:00 0.0053
2018_01_05_S10 01/04/2018 18:20:00 0.0
2018_01_05_S10 01/04/2018 18:25:00 0.0
2018_01_05_S10 01/04/2018 18:30:00 0.0
2018_01_05_S10 01/04/2018 18:35:00 0.0
2018_01_05_S10 01/04/2018 18:40:00 0.0
2018_01_05_S10 01/04/2018 18:45:00 0.0
2018_01_05_S10 01/04/2018 18:50:00 0.0
2018_01_05_S10 01/04/2018 18:55:00 0.0
2018_01_05_S10 01/04/2018 19:00:00 0.0
2018_01_05_S10 01/04/2018 19:05:00 0.0
2018_01_05_S10 01/04/2018 19:10:00 0.0
2018_01_05_S10 01/04/2018 19:15:00 0.0
2018_01_05_S10 01/04/2018 19:20:00 0.0
2018_01_05_S10 01/04/2018 19:25:00 0.0
2018_01_05_S10 01/04/2018 19:30:00 0.0
2018_01_05_S10 01/04/2018 19:35:00 0.0
2018_01_05_S10 01/04/2018 19:40:00 0.0
2018_01_05_S10 01/04/2018 19:45:00 0.0
2018_01_05_S10 01/04/2018 19:50:00 0.0
2018_01_05_S10 01/04/2018 19:55:00 0.0
2018_01_05_S10 01/04/2018 20:00:00 0.0
2018_01_05_S10 01/04/2018 20:05:00 0.0
2018_01_05_S10 01/04/2018 20:10:00 0.0
2018_01_05_S10 01/04/2018 20:15:00 0.0
2018_01_05_S10 01/04/2018 20:20:00 0.0
2018_01_05_S10 01/04/2018 20:25:00 0.005
2018_01_05_S10 01/04/2018 20:30:00 0.0
2018_01_05_S10 01/04/2018 20:35:00 0.0
2018_01_05_S10 01/04/2018 20:40:00 0.0
2018_01_05_S10 01/04/2018 20:45:00 0.0
2018_01_05_S10 01/04/2018 20:50:00 0.0
2018_01_05_S10 01/04/2018 20:55:00 0.0
2018_01_05_S10 01/04/2018 21:00:00 0.0
2018_01_05_S10 01/04/2018 21:05:00 0.0
2018_01_05_S10 01/04/2018 21:10:00 0.0
2018_01_05_S10 01/04/2018 21:15:00 0.0
2018_01_05_S10 01/04/2018 21:20:00 0.0051
2018_01_05_S10 01/04/2018 21:25:00 0.005
2018_01_05_S10 01/04/2018 21:30:00 0.0208
2018_01_05_S10 01/04/2018 21:35:00 0.0084
2018_01_05_S10 01/04/2018 21:40:00 0.0216
2018_01_05_S10 01/04/2018 21:45:00 0.0
2018_01_05_S10 01/04/2018 21:50:00 0.0
2018_01_05_S10 01/04/2018 21:55:00 0.0
2018_01_05_S10 01/04/2018 22:00:00 0.0
2018_01_05_S10 01/04/2018 22:05:00 0.0
2018_01_05_S10 01/04/2018 22:10:00 0.0
2018_01_05_S10 01/04/2018 22:15:00 0.0
2018_01_05_S10 01/04/2018 22:20:00 0.0
2018_01_05_S10 01/04/2018 22:25:00 0.0
2018_01_05_S10 01/04/2018 22:30:00 0.0
2018_01_05_S10 01/04/2018 22:35:00 0.0
2018_01_05_S10 01/04/2018 22:40:00 0.0
2018_01_05_S10 01/04/2018 22:45:00 0.0
2018_01_05_S10 01/04/2018 22:50:00 0.0
2018_01_05_S10 01/04/2018 22:55:00 0.0
2018_01_05_S10 01/04/2018 23:00:00 0.0
2018_01_05_S10 01/04/2018 23:05:00 0.0
2018_01_05_S10 01/04/2018 23:10:00 0.0
2018_01_05_S10 01/04/2018 23:15:00 0.0
2018_01_05_S10 01/04/2018 23:20:00 0.0
2018_01_05_S10 01/04/2018 23:25:00 0.0
2018_01_05_S10 01/04/2018 23:30:00 0.0
2018_01_05_S10 01/04/2018 23:35:00 0.0
2018_01_05_S10 01/04/2018 23:40:00 0.0
2018_01_05_S10 01/04/2018 23:45:00 0.0
2018_01_05_S10 01/04/2018 23:50:00 0.0
2018_01_05_S10 01/04/2018 23:55:00 0.0
2018_01_05_S10 01/05/2018 00:00:00 0.0
2018_01_05_S10 01/05/2018 00:05:00 0.0
2018_01_05_S10 01/05/2018 00:10:00 0.0
2018_01_05_S10 01/05/2018 00:15:00 0.0
2018_01_05_S10 01/05/2018 00:20:00 0.0
2018_01_05_S10 01/05/2018 00:25:00 0.0
2018_01_05_S10 01/05/2018 00:30:00 0.0
2018_01_05_S10 01/05/2018 00:35:00 0.0
2018_01_05_S10 01/05/2018 00:40:00 0.0
2018_01_05_S10 01/05/2018 00:45:00 0.0066
2018_01_05_S10 01/05/2018 00:50:00 0.0707
2018_01_05_S10 01/05/2018 00:55:00 0.0018
2018_01_05_S10 01/05/2018 01:00:00 0.0273
2018_01_05_S10 01/05/2018 01:05:00 0.1161
2018_01_05_S10 01/05/2018 01:10:00 0.031
2018_01_05_S10 01/05/2018 01:15:00 0.0
2018_01_05_S10 01/05/2018 01:20:00 0.0657
2018_01_05_S10 01/05/2018 01:25:00 0.0174
2018_01_05_S10 01/05/2018 01:30:00 0.0045
2018_01_05_S10 01/05/2018 01:35:00 0.0002
2018_01_05_S10 01/05/2018 01:40:00 0.0
2018_01_05_S10 01/05/2018 01:45:00 0.148
2018_01_05_S10 01/05/2018 01:50:00 0.0283
2018_01_05_S10 01/05/2018 01:55:00 0.0114
2018_01_05_S10 01/05/2018 02:00:00 0.0163
2018_01_05_S10 01/05/2018 02:05:00 0.0117
2018_01_05_S10 01/05/2018 02:10:00 0.0
2018_01_05_S10 01/05/2018 02:15:00 0.2049
2018_01_05_S10 01/05/2018 02:20:00 0.0008
2018_01_05_S10 01/05/2018 02:25:00 0.0
2018_01_05_S10 01/05/2018 02:30:00 0.0
2018_01_05_S10 01/05/2018 02:35:00 0.0
2018_01_05_S10 01/05/2018 02:40:00 0.0
2018_01_05_S10 01/05/2018 02:45:00 0.0
2018_01_05_S10 01/05/2018 02:50:00 0.0
2018_01_05_S10 01/05/2018 02:55:00 0.0
2018_01_05_S10 01/05/2018 03:00:00 0.0
2018_01_05_S10 01/05/2018 03:05:00 0.196
2018_01_05_S10 01/05/2018 03:10:00 0.4352
2018_01_05_S10 01/05/2018 03:15:00 0.3066
2018_01_05_S10 01/05/2018 03:20:00 0.5353
2018_01_05_S10 01/05/2018 03:25:00 0.1306
2018_01_05_S10 01/05/2018 03:30:00 0.1977
2018_01_05_S10 01/05/2018 03:35:00 0.0607
2018_01_05_S10 01/05/2018 03:40:00 0.0014
2018_01_05_S10 01/05/2018 03:45:00 0.0096
2018_01_05_S10 01/05/2018 03:50:00 0.026
2018_01_05_S10 01/05/2018 03:55:00 0.0323
2018_01_05_S10 01/05/2018 04:00:00 0.0206
2018_01_05_S10 01/05/2018 04:05:00 0.0
2018_01_05_S10 01/05/2018 04:10:00 0.0039
2018_01_05_S10 01/05/2018 04:15:00 0.0092
2018_01_05_S10 01/05/2018 04:20:00 0.0005
2018_01_05_S10 01/05/2018 04:25:00 0.1519
2018_01_05_S10 01/05/2018 04:30:00 0.0009
2018_01_05_S10 01/05/2018 04:35:00 0.0405
2018_01_05_S10 01/05/2018 04:40:00 0.0521
2018_01_05_S10 01/05/2018 04:45:00 0.0728
2018_01_05_S10 01/05/2018 04:50:00 0.0502
2018_01_05_S10 01/05/2018 04:55:00 0.0069
2018_01_05_S10 01/05/2018 05:00:00 0.0304
2018_01_05_S10 01/05/2018 05:05:00 0.0034
2018_01_05_S10 01/05/2018 05:10:00 0.0
2018_01_05_S10 01/05/2018 05:15:00 0.0006
2018_01_05_S10 01/05/2018 05:20:00 0.0053
2018_01_05_S10 01/05/2018 05:25:00 0.0
2018_01_05_S10 01/05/2018 05:30:00 0.004
2018_01_05_S10 01/05/2018 05:35:00 0.0
2018_01_05_S10 01/05/2018 05:40:00 0.0
2018_01_05_S10 01/05/2018 05:45:00 0.0098
2018_01_05_S10 01/05/2018 05:50:00 0.0
2018_01_05_S10 01/05/2018 05:55:00 0.0207
2018_01_05_S10 01/05/2018 06:00:00 0.1805
2018_01_05_S10 01/05/2018 06:05:00 0.1255
2018_01_05_S10 01/05/2018 06:10:00 0.01
2018_01_05_S10 01/05/2018 06:15:00 0.0759
2018_01_05_S10 01/05/2018 06:20:00 3.7504
2018_01_05_S10 01/05/2018 06:25:00 2.8849
2018_01_05_S10 01/05/2018 06:30:00 1.6949
2018_01_05_S10 01/05/2018 06:35:00 1.546
2018_01_05_S10 01/05/2018 06:40:00 0.6981
2018_01_05_S10 01/05/2018 06:45:00 0.9064
2018_01_05_S10 01/05/2018 06:50:00 0.8234
2018_01_05_S10 01/05/2018 06:55:00 0.3666
2018_01_05_S10 01/05/2018 07:00:00 0.3758
2018_01_05_S10 01/05/2018 07:05:00 0.0549
2018_01_05_S10 01/05/2018 07:10:00 0.0149
2018_01_05_S10 01/05/2018 07:15:00 0.0
2018_01_05_S10 01/05/2018 07:20:00 0.0
2018_01_05_S10 01/05/2018 07:25:00 0.0
2018_01_05_S10 01/05/2018 07:30:00 0.0
2018_01_05_S10 01/05/2018 07:35:00 0.0
2018_01_05_S10 01/05/2018 07:40:00 0.0
2018_01_05_S10 01/05/2018 07:45:00 0.0
2018_01_05_S10 01/05/2018 07:50:00 0.0
2018_01_05_S10 01/05/2018 07:55:00 0.0
2018_01_05_S10 01/05/2018 08:00:00 0.0
2018_01_05_S10 01/05/2018 08:05:00 0.0
2018_01_05_S10 01/05/2018 08:10:00 0.0
2018_01_05_S10 01/05/2018 08:15:00 0.0
2018_01_05_S10 01/05/2018 08:20:00 0.006
2018_01_05_S10 01/05/2018 08:25:00 0.0
2018_01_05_S10 01/05/2018 08:30:00 0.0482
2018_01_05_S10 01/05/2018 08:35:00 0.2606
2018_01_05_S10 01/05/2018 08:40:00 0.4363
2018_01_05_S10 01/05/2018 08:45:00 0.458
2018_01_05_S10 01/05/2018 08:50:00 0.452
2018_01_05_S10 01/05/2018 08:55:00 0.6879
2018_01_05_S10 01/05/2018 09:00:00 0.3649
2018_01_05_S10 01/05/2018 09:05:00 1.3279
2018_01_05_S10 01/05/2018 09:10:00 0.7428
2018_01_05_S10 01/05/2018 09:15:00 0.3035
2018_01_05_S10 01/05/2018 09:20:00 0.0001
2018_01_05_S10 01/05/2018 09:25:00 0.0001
2018_01_05_S10 01/05/2018 09:30:00 0.0846
2018_01_05_S10 01/05/2018 09:35:00 0.2589
2018_01_05_S10 01/05/2018 09:40:00 0.2389
2018_01_05_S10 01/05/2018 09:45:00 0.4495
2018_01_05_S10 01/05/2018 09:50:00 2.9774
2018_01_05_S10 01/05/2018 09:55:00 0.1353
2018_01_05_S10 01/05/2018 10:00:00 0.0405
2018_01_05_S10 01/05/2018 10:05:00 0.14
2018_01_05_S10 01/05/2018 10:10:00 0.0007
2018_01_05_S10 01/05/2018 10:15:00 0.0159
2018_01_05_S10 01/05/2018 10:20:00 0.0
2018_01_05_S10 01/05/2018 10:25:00 0.1068
2018_01_05_S10 01/05/2018 10:30:00 0.3607
2018_01_05_S10 01/05/2018 10:35:00 0.0358
2018_01_05_S10 01/05/2018 10:40:00 0.2429
2018_01_05_S10 01/05/2018 10:45:00 0.704
2018_01_05_S10 01/05/2018 10:50:00 0.0001
2018_01_05_S10 01/05/2018 10:55:00 0.0
2018_01_05_S10 01/05/2018 11:00:00 0.0233
2018_01_05_S10 01/05/2018 11:05:00 0.0769
2018_01_05_S10 01/05/2018 11:10:00 0.0903
2018_01_05_S10 01/05/2018 11:15:00 0.1522
2018_01_05_S10 01/05/2018 11:20:00 0.1693
2018_01_05_S10 01/05/2018 11:25:00 0.048
2018_01_05_S10 01/05/2018 11:30:00 0.5872
2018_01_05_S10 01/05/2018 11:35:00 0.0978
2018_01_05_S10 01/05/2018 11:40:00 0.1579
2018_01_05_S10 01/05/2018 11:45:00 0.0
2018_01_05_S10 01/05/2018 11:50:00 0.0
2018_01_05_S10 01/05/2018 11:55:00 0.1016
2018_01_05_S10 01/05/2018 12:00:00 0.0159
2018_01_05_S10 01/05/2018 12:05:00 0.2673
2018_01_05_S10 01/05/2018 12:10:00 0.8742
2018_01_05_S10 01/05/2018 12:15:00 0.6572
2018_01_05_S10 01/05/2018 12:20:00 0.2553
2018_01_05_S10 01/05/2018 12:25:00 1.1184
2018_01_05_S10 01/05/2018 12:30:00 0.9737
2018_01_05_S10 01/05/2018 12:35:00 0.4976
2018_01_05_S10 01/05/2018 12:40:00 1.1016
2018_01_05_S10 01/05/2018 12:45:00 2.769
2018_01_05_S10 01/05/2018 12:50:00 0.0073
2018_01_05_S10 01/05/2018 12:55:00 0.063
2018_01_05_S10 01/05/2018 13:00:00 0.1216
2018_01_05_S10 01/05/2018 13:05:00 0.2215
2018_01_05_S10 01/05/2018 13:10:00 0.0
2018_01_05_S10 01/05/2018 13:15:00 0.0
2018_01_05_S10 01/05/2018 13:20:00 0.0005
2018_01_05_S10 01/05/2018 13:25:00 0.0591
2018_01_05_S10 01/05/2018 13:30:00 0.0495
2018_01_05_S10 01/05/2018 13:35:00 0.0
2018_01_05_S10 01/05/2018 13:40:00 1.0431
2018_01_05_S10 01/05/2018 13:45:00 0.4346
2018_01_05_S10 01/05/2018 13:50:00 0.7592
2018_01_05_S10 01/05/2018 13:55:00 0.06
2018_01_05_S10 01/05/2018 14:00:00 0.0508
2018_01_05_S10 01/05/2018 14:05:00 0.0
2018_01_05_S10 01/05/2018 14:10:00 1.4813
2018_01_05_S10 01/05/2018 14:15:00 0.0063
2018_01_05_S10 01/05/2018 14:20:00 0.0
2018_01_05_S10 01/05/2018 14:25:00 0.0
2018_01_05_S10 01/05/2018 14:30:00 0.0
2018_01_05_S10 01/05/2018 14:35:00 0.027
2018_01_05_S10 01/05/2018 14:40:00 0.1029
2018_01_05_S10 01/05/2018 14:45:00 1.7841
2018_01_05_S10 01/05/2018 14:50:00 0.2629
2018_01_05_S10 01/05/2018 14:55:00 0.0322
2018_01_05_S10 01/05/2018 15:00:00 0.0849
2018_01_05_S10 01/05/2018 15:05:00 0.0
2018_01_05_S10 01/05/2018 15:10:00 0.1097
2018_01_05_S10 01/05/2018 15:15:00 1.914
2018_01_05_S10 01/05/2018 15:20:00 0.043
2018_01_05_S10 01/05/2018 15:25:00 0.0
2018_01_05_S10 01/05/2018 15:30:00 0.0059
2018_01_05_S10 01/05/2018 15:35:00 0.2475
2018_01_05_S10 01/05/2018 15:40:00 0.0349
2018_01_05_S10 01/05/2018 15:45:00 0.0
2018_01_05_S10 01/05/2018 15:50:00 0.0
2018_01_05_S10 01/05/2018 15:55:00 0.0
2018_01_05_S10 01/05/2018 16:00:00 0.0
2018_01_05_S10 01/05/2018 16:05:00 0.0
2018_01_05_S10 01/05/2018 16:10:00 0.0
2018_01_05_S10 01/05/2018 16:15:00 0.0
2018_01_05_S10 01/05/2018 16:20:00 0.0
2018_01_05_S10 01/05/2018 16:25:00 0.0
2018_01_05_S10 01/05/2018 16:30:00 0.0
2018_01_05_S10 01/05/2018 16:35:00 0.0
2018_01_05_S10 01/05/2018 16:40:00 0.0
2018_01_05_S10 01/05/2018 16:45:00 0.0
2018_01_05_S10 01/05/2018 16:50:00 0.0
2018_01_05_S10 01/05/2018 16:55:00 0.0
2018_01_05_S10 01/05/2018 17:00:00 0.0
2018_01_05_S10 01/05/2018 17:05:00 0.0
2018_01_05_S10 01/05/2018 17:10:00 0.0
2018_01_05_S10 01/05/2018 17:15:00 0.0
2018_01_05_S10 01/05/2018 17:20:00 0.0
2018_01_05_S10 01/05/2018 17:25:00 0.0
2018_01_05_S10 01/05/2018 17:30:00 0.0
2018_01_05_S10 01/05/2018 17:35:00 0.0
2018_01_05_S10 01/05/2018 17:40:00 0.0
2018_01_05_S10 01/05/2018 17:45:00 0.0
2018_01_05_S10 01/05/2018 17:50:00 0.0191
2018_01_05_S10 01/05/2018 17:55:00 0.0504
2018_01_05_S10 01/05/2018 18:00:00 0.0063
2018_01_05_S10 01/05/2018 18:05:00 0.0
2018_01_05_S10 01/05/2018 18:10:00 0.0
2018_01_05_S10 01/05/2018 18:15:00 0.0
2018_01_05_S10 01/05/2018 18:20:00 0.0028
2018_01_05_S10 01/05/2018 18:25:00 0.0
2018_01_05_S10 01/05/2018 18:30:00 0.0
2018_01_05_S10 01/05/2018 18:35:00 0.0
2018_01_05_S10 01/05/2018 18:40:00 0.0
2018_01_05_S10 01/05/2018 18:45:00 0.0
2018_01_05_S10 01/05/2018 18:50:00 0.0
2018_01_05_S10 01/05/2018 18:55:00 0.0
2018_01_05_S10 01/05/2018 19:00:00 0.0
2018_01_05_S10 01/05/2018 19:05:00 0.0
2018_01_05_S10 01/05/2018 19:10:00 0.0
2018_01_05_S10 01/05/2018 19:15:00 0.0
2018_01_05_S10 01/05/2018 19:20:00 0.0062
2018_01_05_S10 01/05/2018 19:25:00 0.0241
2018_01_05_S10 01/05/2018 19:30:00 0.0166
2018_01_05_S10 01/05/2018 19:35:00 0.0401
2018_01_05_S10 01/05/2018 19:40:00 0.0046
2018_01_05_S10 01/05/2018 19:45:00 0.0016
2018_01_05_S10 01/05/2018 19:50:00 0.9867
2018_01_05_S10 01/05/2018 19:55:00 0.0305
2018_01_05_S10 01/05/2018 20:00:00 0.0224
2018_01_05_S10 01/05/2018 20:05:00 0.0
2018_01_05_S10 01/05/2018 20:10:00 0.0
2018_01_05_S10 01/05/2018 20:15:00 0.0
2018_01_05_S10 01/05/2018 20:20:00 0.0
2018_01_05_S10 01/05/2018 20:25:00 0.0
2018_01_05_S10 01/05/2018 20:30:00 0.0
2018_01_05_S10 01/05/2018 20:35:00 0.0
2018_01_05_S10 01/05/2018 20:40:00 0.0
2018_01_05_S10 01/05/2018 20:45:00 0.0
2018_01_05_S10 01/05/2018 20:50:00 0.0214
2018_01_05_S10 01/05/2018 20:55:00 0.0398
2018_01_05_S10 01/05/2018 21:00:00 0.0001
2018_01_05_S10 01/05/2018 21:05:00 0.0
2018_01_05_S10 01/05/2018 21:10:00 0.0
2018_01_05_S10 01/05/2018 21:15:00 0.0
2018_01_05_S10 01/05/2018 21:20:00 0.0
2018_01_05_S10 01/05/2018 21:25:00 0.0
2018_01_05_S10 01/05/2018 21:30:00 0.0
2018_01_05_S10 01/05/2018 21:35:00 0.0287
2018_01_05_S10 01/05/2018 21:40:00 0.0
2018_01_05_S10 01/05/2018 21:45:00 0.0
2018_01_05_S10 01/05/2018 21:50:00 0.0
2018_01_05_S10 01/05/2018 21:55:00 0.0
2018_01_05_S10 01/05/2018 22:00:00 0.0
2018_01_05_S10 01/05/2018 22:05:00 0.0014
2018_01_05_S10 01/05/2018 22:10:00 0.0
2018_01_05_S10 01/05/2018 22:15:00 0.0
2018_01_05_S10 01/05/2018 22:20:00 0.0032
2018_01_05_S10 01/05/2018 22:25:00 0.0
2018_01_05_S10 01/05/2018 22:30:00 0.0335
2018_01_05_S10 01/05/2018 22:35:00 0.0046
2018_01_05_S10 01/05/2018 22:40:00 0.0056
2018_01_05_S10 01/05/2018 22:45:00 0.0006
2018_01_05_S10 01/05/2018 22:50:00 0.0
2018_01_05_S10 01/05/2018 22:55:00 0.0
2018_01_05_S10 01/05/2018 23:00:00 0.0
2018_01_05_S10 01/05/2018 23:05:00 0.0
2018_01_05_S10 01/05/2018 23:10:00 0.0
2018_01_05_S10 01/05/2018 23:15:00 0.0
2018_01_05_S10 01/05/2018 23:20:00 0.0
2018_01_05_S10 01/05/2018 23:25:00 0.0
2018_01_05_S10 01/05/2018 23:30:00 0.0
2018_01_05_S10 01/05/2018 23:35:00 0.0
2018_01_05_S10 01/05/2018 23:40:00 0.0512
2018_01_05_S10 01/05/2018 23:45:00 0.0076
2018_01_05_S10 01/05/2018 23:50:00 0.0
2018_01_05_S10 01/05/2018 23:55:00 0.0
2018_01_05_S10 01/06/2018 00:00:00 0.0003
2018_01_05_S10 01/06/2018 00:05:00 0.0
2018_01_05_S10 01/06/2018 00:10:00 0.0311
2018_01_05_S10 01/06/2018 00:15:00 0.1605
2018_01_05_S10 01/06/2018 00:20:00 0.0007
2018_01_05_S10 01/06/2018 00:25:00 0.0009
2018_01_05_S10 01/06/2018 00:30:00 0.0
2018_01_05_S10 01/06/2018 00:35:00 0.0
2018_01_05_S10 01/06/2018 00:40:00 0.0
2018_01_05_S10 01/06/2018 00:45:00 0.0
2018_01_05_S10 01/06/2018 00:50:00 0.0
2018_01_05_S10 01/06/2018 00:55:00 0.0
2018_01_05_S10 01/06/2018 01:00:00 0.0
2018_01_05_S10 01/06/2018 01:05:00 0.0003
2018_01_05_S10 01/06/2018 01:10:00 0.0629
2018_01_05_S10 01/06/2018 01:15:00 0.0
2018_01_05_S10 01/06/2018 01:20:00 0.0
2018_01_05_S10 01/06/2018 01:25:00 0.0
2018_01_05_S10 01/06/2018 01:30:00 0.0
2018_01_05_S10 01/06/2018 01:35:00 0.0
2018_01_05_S10 01/06/2018 01:40:00 0.0
2018_01_05_S10 01/06/2018 01:45:00 0.0
2018_01_05_S10 01/06/2018 01:50:00 0.0
2018_01_05_S10 01/06/2018 01:55:00 0.0
2018_01_05_S10 01/06/2018 02:00:00 0.0
2018_01_05_S10 01/06/2018 02:05:00 0.0
2018_01_05_S10 01/06/2018 02:10:00 0.0
2018_01_05_S10 01/06/2018 02:15:00 0.0
2018_01_05_S10 01/06/2018 02:20:00 0.0
2018_01_05_S10 01/06/2018 02:25:00 0.0
2018_01_05_S10 01/06/2018 02:30:00 0.0
2018_01_05_S10 01/06/2018 02:35:00 0.0
2018_01_05_S10 01/06/2018 02:40:00 0.0
2018_01_05_S10 01/06/2018 02:45:00 0.0
2018_01_05_S10 01/06/2018 02:50:00 0.0
2018_01_05_S10 01/06/2018 02:55:00 0.0
2018_01_05_S10 01/06/2018 03:00:00 0.0
2018_01_05_S10 01/06/2018 03:05:00 0.0
2018_01_05_S10 01/06/2018 03:10:00 0.0
2018_01_05_S10 01/06/2018 03:15:00 0.0
2018_01_05_S10 01/06/2018 03:20:00 0.0
2018_01_05_S10 01/06/2018 03:25:00 0.0
2018_01_05_S10 01/06/2018 03:30:00 0.0
2018_01_05_S10 01/06/2018 03:35:00 0.0
2018_01_05_S10 01/06/2018 03:40:00 0.3048
2018_01_05_S10 01/06/2018 03:45:00 0.1706
2018_01_05_S10 01/06/2018 03:50:00 0.0
2018_01_05_S10 01/06/2018 03:55:00 0.0
2018_01_05_S10 01/06/2018 04:00:00 0.0
2018_01_05_S10 01/06/2018 04:05:00 0.0
2018_01_05_S10 01/06/2018 04:10:00 0.0
2018_01_05_S10 01/06/2018 04:15:00 0.0
2018_01_05_S10 01/06/2018 04:20:00 0.0956
2018_01_05_S10 01/06/2018 04:25:00 0.0381
2018_01_05_S10 01/06/2018 04:30:00 0.0
2018_01_05_S10 01/06/2018 04:35:00 0.0
2018_01_05_S10 01/06/2018 04:40:00 0.0
2018_01_05_S10 01/06/2018 04:45:00 0.0
2018_01_05_S10 01/06/2018 04:50:00 0.0244
2018_01_05_S10 01/06/2018 04:55:00 0.0
2018_01_05_S10 01/06/2018 05:00:00 0.0
2018_01_05_S10 01/06/2018 05:05:00 0.0
2018_01_05_S10 01/06/2018 05:10:00 0.0
2018_01_05_S10 01/06/2018 05:15:00 0.0
2018_01_05_S10 01/06/2018 05:20:00 0.0
2018_01_05_S10 01/06/2018 05:25:00 0.1193
2018_01_05_S10 01/06/2018 05:30:00 0.0008
2018_01_05_S10 01/06/2018 05:35:00 0.0
2018_01_05_S10 01/06/2018 05:40:00 0.0
2018_01_05_S10 01/06/2018 05:45:00 0.0
2018_01_05_S10 01/06/2018 05:50:00 0.0
2018_01_05_S10 01/06/2018 05:55:00 0.0
2018_01_05_S10 01/06/2018 06:00:00 0.0
2018_01_05_S10 01/06/2018 06:05:00 0.0148
2018_01_05_S10 01/06/2018 06:10:00 0.0881
2018_01_05_S10 01/06/2018 06:15:00 0.014
2018_01_05_S10 01/06/2018 06:20:00 0.0341
2018_01_05_S10 01/06/2018 06:25:00 0.0061
2018_01_05_S10 01/06/2018 06:30:00 0.0
2018_01_05_S10 01/06/2018 06:35:00 0.0
2018_01_05_S10 01/06/2018 06:40:00 0.0129
2018_01_05_S10 01/06/2018 06:45:00 0.0006
2018_01_05_S10 01/06/2018 06:50:00 0.0079
2018_01_05_S10 01/06/2018 06:55:00 0.0106
2018_01_05_S10 01/06/2018 07:00:00 0.0468
2018_01_05_S10 01/06/2018 07:05:00 0.016
2018_01_05_S10 01/06/2018 07:10:00 0.0
2018_01_05_S10 01/06/2018 07:15:00 0.0
2018_01_05_S10 01/06/2018 07:20:00 0.0
2018_01_05_S10 01/06/2018 07:25:00 0.0
2018_01_05_S10 01/06/2018 07:30:00 0.0
2018_01_05_S10 01/06/2018 07:35:00 0.004
2018_01_05_S10 01/06/2018 07:40:00 0.0
2018_01_05_S10 01/06/2018 07:45:00 0.0
2018_01_05_S10 01/06/2018 07:50:00 0.0045
2018_01_05_S10 01/06/2018 07:55:00 0.0146
2018_01_05_S10 01/06/2018 08:00:00 0.0

2018_01_05_S11 01/04/2018 10:25:00 0.0999
2018_01_05_S11 01/04/2018 10:30:00 0.0084
2018_01_05_S11 01/04/2018 10:35:00 0.0233
2018_01_05_S11 01/04/2018 10:40:00 0.0432
2018_01_05_S11 01/04/2018 10:45:00 0.2289
2018_01_05_S11 01/04/2018 10:50:00 0.0001
2018_01_05_S11 01/04/2018 10:55:00 0.0
2018_01_05_S11 01/04/2018 11:00:00 0.0786
2018_01_05_S11 01/04/2018 11:05:00 0.2942
2018_01_05_S11 01/04/2018 11:10:00 0.2427
2018_01_05_S11 01/04/2018 11:15:00 0.245
2018_01_05_S11 01/04/2018 11:20:00 0.2658
2018_01_05_S11 01/04/2018 11:25:00 0.0897
2018_01_05_S11 01/04/2018 11:30:00 0.0
2018_01_05_S11 01/04/2018 11:35:00 0.0
2018_01_05_S11 01/04/2018 11:40:00 0.0
2018_01_05_S11 01/04/2018 11:45:00 0.0
2018_01_05_S11 01/04/2018 11:50:00 0.0
2018_01_05_S11 01/04/2018 11:55:00 0.0
2018_01_05_S11 01/04/2018 12:00:00 0.0
2018_01_05_S11 01/04/2018 12:05:00 0.0
2018_01_05_S11 01/04/2018 12:10:00 0.0
2018_01_05_S11 01/04/2018 12:15:00 0.0
2018_01_05_S11 01/04/2018 12:20:00 0.0
2018_01_05_S11 01/04/2018 12:25:00 0.0025
2018_01_05_S11 01/04/2018 12:30:00 0.0
2018_01_05_S11 01/04/2018 12:35:00 0.0
2018_01_05_S11 01/04/2018 12:40:00 0.0
2018_01_05_S11 01/04/2018 12:45:00 0.0
2018_01_05_S11 01/04/2018 12:50:00 0.0
2018_01_05_S11 01/04/2018 12:55:00 0.0
2018_01_05_S11 01/04/2018 13:00:00 0.0
2018_01_05_S11 01/04/2018 13:05:00 0.0
2018_01_05_S11 01/04/2018 13:10:00 0.0
2018_01_05_S11 01/04/2018 13:15:00 0.0
2018_01_05_S11 01/04/2018 13:20:00 0.0
2018_01_05_S11 01/04/2018 13:25:00 0.0
2018_01_05_S11 01/04/2018 13:30:00 0.0
2018_01_05_S11 01/04/2018 13:35:00 0.0
2018_01_05_S11 01/04/2018 13:40:00 0.0
2018_01_05_S11 01/04/2018 13:45:00 0.0
2018_01_05_S11 01/04/2018 13:50:00 0.0
2018_01_05_S11 01/04/2018 13:55:00 0.0
2018_01_05_S11 01/04/2018 14:00:00 0.0
2018_01_05_S11 01/04/2018 14:05:00 0.0
2018_01_05_S11 01/04/2018 14:10:00 0.0009
2018_01_05_S11 01/04/2018 14:15:00 0.0
2018_01_05_S11 01/04/2018 14:20:00 0.0
2018_01_05_S11 01/04/2018 14:25:00 0.0
2018_01_05_S11 01/04/2018 14:30:00 0.0016
2018_01_05_S11 01/04/2018 14:35:00 0.2321
2018_01_05_S11 01/04/2018 14:40:00 0.0
2018_01_05_S11 01/04/2018 14:45:00 0.0
2018_01_05_S11 01/04/2018 14:50:00 0.0
2018_01_05_S11 01/04/2018 14:55:00 0.0
2018_01_05_S11 01/04/2018 15:00:00 0.0
2018_01_05_S11 01/04/2018 15:05:00 0.0
2018_01_05_S11 01/04/2018 15:10:00 0.0
2018_01_05_S11 01/04/2018 15:15:00 0.0
2018_01_05_S11 01/04/2018 15:20:00 0.0
2018_01_05_S11 01/04/2018 15:25:00 0.0
2018_01_05_S11 01/04/2018 15:30:00 1.3342
2018_01_05_S11 01/04/2018 15:35:00 0.0039
2018_01_05_S11 01/04/2018 15:40:00 0.0
2018_01_05_S11 01/04/2018 15:45:00 0.0
2018_01_05_S11 01/04/2018 15:50:00 0.0
2018_01_05_S11 01/04/2018 15:55:00 0.0116
2018_01_05_S11 01/04/2018 16:00:00 0.0416
2018_01_05_S11 01/04/2018 16:05:00 0.0995
2018_01_05_S11 01/04/2018 16:10:00 0.0211
2018_01_05_S11 01/04/2018 16:15:00 0.1442
2018_01_05_S11 01/04/2018 16:20:00 0.0328
2018_01_05_S11 01/04/2018 16:25:00 0.0
2018_01_05_S11 01/04/2018 16:30:00 0.0
2018_01_05_S11 01/04/2018 16:35:00 0.0
2018_01_05_S11 01/04/2018 16:40:00 0.0
2018_01_05_S11 01/04/2018 16:45:00 0.0
2018_01_05_S11 01/04/2018 16:50:00 0.0
2018_01_05_S11 01/04/2018 16:55:00 0.0
2018_01_05_S11 01/04/2018 17:00:00 0.0
2018_01_05_S11 01/04/2018 17:05:00 0.0001
2018_01_05_S11 01/04/2018 17:10:00 0.1838
2018_01_05_S11 01/04/2018 17:15:00 0.0
2018_01_05_S11 01/04/2018 17:20:00 0.0
2018_01_05_S11 01/04/2018 17:25:00 0.062
2018_01_05_S11 01/04/2018 17:30:00 0.122
2018_01_05_S11 01/04/2018 17:35:00 0.4027
2018_01_05_S11 01/04/2018 17:40:00 0.1284
2018_01_05_S11 01/04/2018 17:45:00 0.0709
2018_01_05_S11 01/04/2018 17:50:00 0.1785
2018_01_05_S11 01/04/2018 17:55:00 0.1399
2018_01_05_S11 01/04/2018 18:00:00 0.0867
2018_01_05_S11 01/04/2018 18:05:00 0.103
2018_01_05_S11 01/04/2018 18:10:00 0.0144
2018_01_05_S11 01/04/2018 18:15:00 0.0195
2018_01_05_S11 01/04/2018 18:20:00 0.0
2018_01_05_S11 01/04/2018 18:25:00 0.0
2018_01_05_S11 01/04/2018 18:30:00 0.0
2018_01_05_S11 01/04/2018 18:35:00 0.0
2018_01_05_S11 01/04/2018 18:40:00 0.0
2018_01_05_S11 01/04/2018 18:45:00 0.0
2018_01_05_S11 01/04/2018 18:50:00 0.0
2018_01_05_S11 01/04/2018 18:55:00 0.0
2018_01_05_S11 01/04/2018 19:00:00 0.0
2018_01_05_S11 01/04/2018 19:05:00 0.0
2018_01_05_S11 01/04/2018 19:10:00 0.0
2018_01_05_S11 01/04/2018 19:15:00 0.0
2018_01_05_S11 01/04/2018 19:20:00 0.0
2018_01_05_S11 01/04/2018 19:25:00 0.0
2018_01_05_S11 01/04/2018 19:30:00 0.0
2018_01_05_S11 01/04/2018 19:35:00 0.0
2018_01_05_S11 01/04/2018 19:40:00 0.0
2018_01_05_S11 01/04/2018 19:45:00 0.0
2018_01_05_S11 01/04/2018 19:50:00 0.0
2018_01_05_S11 01/04/2018 19:55:00 0.0
2018_01_05_S11 01/04/2018 20:00:00 0.0
2018_01_05_S11 01/04/2018 20:05:00 0.0
2018_01_05_S11 01/04/2018 20:10:00 0.0
2018_01_05_S11 01/04/2018 20:15:00 0.0
2018_01_05_S11 01/04/2018 20:20:00 0.0
2018_01_05_S11 01/04/2018 20:25:00 0.0019
2018_01_05_S11 01/04/2018 20:30:00 0.0
2018_01_05_S11 01/04/2018 20:35:00 0.0
2018_01_05_S11 01/04/2018 20:40:00 0.0
2018_01_05_S11 01/04/2018 20:45:00 0.0
2018_01_05_S11 01/04/2018 20:50:00 0.0
2018_01_05_S11 01/04/2018 20:55:00 0.0
2018_01_05_S11 01/04/2018 21:00:00 0.0
2018_01_05_S11 01/04/2018 21:05:00 0.0
2018_01_05_S11 01/04/2018 21:10:00 0.0
2018_01_05_S11 01/04/2018 21:15:00 0.0
2018_01_05_S11 01/04/2018 21:20:00 0.0001
2018_01_05_S11 01/04/2018 21:25:00 0.0047
2018_01_05_S11 01/04/2018 21:30:00 0.0407
2018_01_05_S11 01/04/2018 21:35:00 0.0142
2018_01_05_S11 01/04/2018 21:40:00 0.0477
2018_01_05_S11 01/04/2018 21:45:00 0.0
2018_01_05_S11 01/04/2018 21:50:00 0.0
2018_01_05_S11 01/04/2018 21:55:00 0.0
2018_01_05_S11 01/04/2018 22:00:00 0.0
2018_01_05_S11 01/04/2018 22:05:00 0.0
2018_01_05_S11 01/04/2018 22:10:00 0.0
2018_01_05_S11 01/04/2018 22:15:00 0.0
2018_01_05_S11 01/04/2018 22:20:00 0.0
2018_01_05_S11 01/04/2018 22:25:00 0.0
2018_01_05_S11 01/04/2018 22:30:00 0.0
2018_01_05_S11 01/04/2018 22:35:00 0.0
2018_01_05_S11 01/04/2018 22:40:00 0.0
2018_01_05_S11 01/04/2018 22:45:00 0.0
2018_01_05_S11 01/04/2018 22:50:00 0.0
2018_01_05_S11 01/04/2018 22:55:00 0.0
2018_01_05_S11 01/04/2018 23:00:00 0.0
2018_01_05_S11 01/04/2018 23:05:00 0.0
2018_01_05_S11 01/04/2018 23:10:00 0.0
2018_01_05_S11 01/04/2018 23:15:00 0.0
2018_01_05_S11 01/04/2018 23:20:00 0.0
2018_01_05_S11 01/04/2018 23:25:00 0.0
2018_01_05_S11 01/04/2018 23:30:00 0.0
2018_01_05_S11 01/04/2018 23:35:00 0.0
2018_01_05_S11 01/04/2018 23:40:00 0.0
2018_01_05_S11 01/04/2018 23:45:00 0.0
2018_01_05_S11 01/04/2018 23:50:00 0.0
2018_01_05_S11 01/04/2018 23:55:00 0.0
2018_01_05_S11 01/05/2018 00:00:00 0.0
2018_01_05_S11 01/05/2018 00:05:00 0.0
2018_01_05_S11 01/05/2018 00:10:00 0.0
2018_01_05_S11 01/05/2018 00:15:00 0.0
2018_01_05_S11 01/05/2018 00:20:00 0.0
2018_01_05_S11 01/05/2018 00:25:00 0.0
2018_01_05_S11 01/05/2018 00:30:00 0.0
2018_01_05_S11 01/05/2018 00:35:00 0.0
2018_01_05_S11 01/05/2018 00:40:00 0.0
2018_01_05_S11 01/05/2018 00:45:00 0.0011
2018_01_05_S11 01/05/2018 00:50:00 0.058
2018_01_05_S11 01/05/2018 00:55:00 0.0089
2018_01_05_S11 01/05/2018 01:00:00 0.0061
2018_01_05_S11 01/05/2018 01:05:00 0.1161
2018_01_05_S11 01/05/2018 01:10:00 0.0262
2018_01_05_S11 01/05/2018 01:15:00 0.001
2018_01_05_S11 01/05/2018 01:20:00 0.072
2018_01_05_S11 01/05/2018 01:25:00 0.0056
2018_01_05_S11 01/05/2018 01:30:00 0.0146
2018_01_05_S11 01/05/2018 01:35:00 0.0043
2018_01_05_S11 01/05/2018 01:40:00 0.0
2018_01_05_S11 01/05/2018 01:45:00 0.145
2018_01_05_S11 01/05/2018 01:50:00 0.0353
2018_01_05_S11 01/05/2018 01:55:00 0.0232
2018_01_05_S11 01/05/2018 02:00:00 0.0147
2018_01_05_S11 01/05/2018 02:05:00 0.0083
2018_01_05_S11 01/05/2018 02:10:00 0.001
2018_01_05_S11 01/05/2018 02:15:00 0.1088
2018_01_05_S11 01/05/2018 02:20:00 0.0087
2018_01_05_S11 01/05/2018 02:25:00 0.0
2018_01_05_S11 01/05/2018 02:30:00 0.0
2018_01_05_S11 01/05/2018 02:35:00 0.0
2018_01_05_S11 01/05/2018 02:40:00 0.0
2018_01_05_S11 01/05/2018 02:45:00 0.0
2018_01_05_S11 01/05/2018 02:50:00 0.0
2018_01_05_S11 01/05/2018 02:55:00 0.0
2018_01_05_S11 01/05/2018 03:00:00 0.0
2018_01_05_S11 01/05/2018 03:05:00 0.1667
2018_01_05_S11 01/05/2018 03:10:00 0.283
2018_01_05_S11 01/05/2018 03:15:00 0.2842
2018_01_05_S11 01/05/2018 03:20:00 0.5006
2018_01_05_S11 01/05/2018 03:25:00 0.1517
2018_01_05_S11 01/05/2018 03:30:00 0.1737
2018_01_05_S11 01/05/2018 03:35:00 0.0652
2018_01_05_S11 01/05/2018 03:40:00 0.003
2018_01_05_S11 01/05/2018 03:45:00 0.0086
2018_01_05_S11 01/05/2018 03:50:00 0.0238
2018_01_05_S11 01/05/2018 03:55:00 0.024
2018_01_05_S11 01/05/2018 04:00:00 0.0325
2018_01_05_S11 01/05/2018 04:05:00 0.0
2018_01_05_S11 01/05/2018 04:10:00 0.008
2018_01_05_S11 01/05/2018 04:15:00 0.0189
2018_01_05_S11 01/05/2018 04:20:00 0.0009
2018_01_05_S11 01/05/2018 04:25:00 0.1955
2018_01_05_S11 01/05/2018 04:30:00 0.0
2018_01_05_S11 01/05/2018 04:35:00 0.0365
2018_01_05_S11 01/05/2018 04:40:00 0.1627
2018_01_05_S11 01/05/2018 04:45:00 0.0725
2018_01_05_S11 01/05/2018 04:50:00 0.0691
2018_01_05_S11 01/05/2018 04:55:00 0.0122
2018_01_05_S11 01/05/2018 05:00:00 0.0358
2018_01_05_S11 01/05/2018 05:05:00 0.001
2018_01_05_S11 01/05/2018 05:10:00 0.0
2018_01_05_S11 01/05/2018 05:15:00 0.001
2018_01_05_S11 01/05/2018 05:20:00 0.0062
2018_01_05_S11 01/05/2018 05:25:00 0.0
2018_01_05_S11 01/05/2018 05:30:00 0.0029
2018_01_05_S11 01/05/2018 05:35:00 0.0
2018_01_05_S11 01/05/2018 05:40:00 0.0
2018_01_05_S11 01/05/2018 05:45:00 0.0057
2018_01_05_S11 01/05/2018 05:50:00 0.0
2018_01_05_S11 01/05/2018 05:55:00 0.0293
2018_01_05_S11 01/05/2018 06:00:00 0.2329
2018_01_05_S11 01/05/2018 06:05:00 0.1192
2018_01_05_S11 01/05/2018 06:10:00 0.0169
2018_01_05_S11 01/05/2018 06:15:00 0.0213
2018_01_05_S11 01/05/2018 06:20:00 1.5114
2018_01_05_S11 01/05/2018 06:25:00 4.4322
2018_01_05_S11 01/05/2018 06:30:00 2.2394
2018_01_05_S11 01/05/2018 06:35:00 2.144
2018_01_05_S11 01/05/2018 06:40:00 0.5581
2018_01_05_S11 01/05/2018 06:45:00 1.0297
2018_01_05_S11 01/05/2018 06:50:00 0.9187
2018_01_05_S11 01/05/2018 06:55:00 0.4711
2018_01_05_S11 01/05/2018 07:00:00 0.4866
2018_01_05_S11 01/05/2018 07:05:00 0.1041
2018_01_05_S11 01/05/2018 07:10:00 0.0221
2018_01_05_S11 01/05/2018 07:15:00 0.0
2018_01_05_S11 01/05/2018 07:20:00 0.0
2018_01_05_S11 01/05/2018 07:25:00 0.0
2018_01_05_S11 01/05/2018 07:30:00 0.0
2018_01_05_S11 01/05/2018 07:35:00 0.0
2018_01_05_S11 01/05/2018 07:40:00 0.0
2018_01_05_S11 01/05/2018 07:45:00 0.0
2018_01_05_S11 01/05/2018 07:50:00 0.0
2018_01_05_S11 01/05/2018 07:55:00 0.0
2018_01_05_S11 01/05/2018 08:00:00 0.0
2018_01_05_S11 01/05/2018 08:05:00 0.0
2018_01_05_S11 01/05/2018 08:10:00 0.0
2018_01_05_S11 01/05/2018 08:15:00 0.0
2018_01_05_S11 01/05/2018 08:20:00 0.0001
2018_01_05_S11 01/05/2018 08:25:00 0.0
2018_01_05_S11 01/05/2018 08:30:00 0.0128
2018_01_05_S11 01/05/2018 08:35:00 0.1848
2018_01_05_S11 01/05/2018 08:40:00 0.4136
2018_01_05_S11 01/05/2018 08:45:00 0.3663
2018_01_05_S11 01/05/2018 08:50:00 0.4119
2018_01_05_S11 01/05/2018 08:55:00 0.9587
2018_01_05_S11 01/05/2018 09:00:00 0.38
2018_01_05_S11 01/05/2018 09:05:00 1.4427
2018_01_05_S11 01/05/2018 09:10:00 0.552
2018_01_05_S11 01/05/2018 09:15:00 0.2939
2018_01_05_S11 01/05/2018 09:20:00 0.0008
2018_01_05_S11 01/05/2018 09:25:00 0.0009
2018_01_05_S11 01/05/2018 09:30:00 0.055
2018_01_05_S11 01/05/2018 09:35:00 0.7277
2018_01_05_S11 01/05/2018 09:40:00 0.4603
2018_01_05_S11 01/05/2018 09:45:00 0.9508
2018_01_05_S11 01/05/2018 09:50:00 3.1186
2018_01_05_S11 01/05/2018 09:55:00 0.1038
2018_01_05_S11 01/05/2018 10:00:00 0.0246
2018_01_05_S11 01/05/2018 10:05:00 0.1468
2018_01_05_S11 01/05/2018 10:10:00 0.0
2018_01_05_S11 01/05/2018 10:15:00 0.0333
2018_01_05_S11 01/05/2018 10:20:00 0.0
2018_01_05_S11 01/05/2018 10:25:00 0.0724
2018_01_05_S11 01/05/2018 10:30:00 1.1648
2018_01_05_S11 01/05/2018 10:35:00 0.0298
2018_01_05_S11 01/05/2018 10:40:00 0.1593
2018_01_05_S11 01/05/2018 10:45:00 0.3405
2018_01_05_S11 01/05/2018 10:50:00 0.003
2018_01_05_S11 01/05/2018 10:55:00 0.0
2018_01_05_S11 01/05/2018 11:00:00 0.0043
2018_01_05_S11 01/05/2018 11:05:00 0.0462
2018_01_05_S11 01/05/2018 11:10:00 0.0884
2018_01_05_S11 01/05/2018 11:15:00 0.2516
2018_01_05_S11 01/05/2018 11:20:00 0.17
2018_01_05_S11 01/05/2018 11:25:00 0.0561
2018_01_05_S11 01/05/2018 11:30:00 0.3679
2018_01_05_S11 01/05/2018 11:35:00 0.1109
2018_01_05_S11 01/05/2018 11:40:00 0.2202
2018_01_05_S11 01/05/2018 11:45:00 0.0021
2018_01_05_S11 01/05/2018 11:50:00 0.0
2018_01_05_S11 01/05/2018 11:55:00 0.1994
2018_01_05_S11 01/05/2018 12:00:00 0.0158
2018_01_05_S11 01/05/2018 12:05:00 0.1822
2018_01_05_S11 01/05/2018 12:10:00 0.786
2018_01_05_S11 01/05/2018 12:15:00 0.5196
2018_01_05_S11 01/05/2018 12:20:00 0.23
2018_01_05_S11 01/05/2018 12:25:00 1.305
2018_01_05_S11 01/05/2018 12:30:00 2.7121
2018_01_05_S11 01/05/2018 12:35:00 1.4988
2018_01_05_S11 01/05/2018 12:40:00 1.5169
2018_01_05_S11 01/05/2018 12:45:00 1.2558
2018_01_05_S11 01/05/2018 12:50:00 0.0094
2018_01_05_S11 01/05/2018 12:55:00 0.0981
2018_01_05_S11 01/05/2018 13:00:00 0.1221
2018_01_05_S11 01/05/2018 13:05:00 0.0862
2018_01_05_S11 01/05/2018 13:10:00 0.0
2018_01_05_S11 01/05/2018 13:15:00 0.0
2018_01_05_S11 01/05/2018 13:20:00 0.0
2018_01_05_S11 01/05/2018 13:25:00 0.0603
2018_01_05_S11 01/05/2018 13:30:00 0.0446
2018_01_05_S11 01/05/2018 13:35:00 0.0
2018_01_05_S11 01/05/2018 13:40:00 1.132
2018_01_05_S11 01/05/2018 13:45:00 0.3582
2018_01_05_S11 01/05/2018 13:50:00 0.8275
2018_01_05_S11 01/05/2018 13:55:00 0.057
2018_01_05_S11 01/05/2018 14:00:00 0.0413
2018_01_05_S11 01/05/2018 14:05:00 0.0
2018_01_05_S11 01/05/2018 14:10:00 0.416
2018_01_05_S11 01/05/2018 14:15:00 0.0027
2018_01_05_S11 01/05/2018 14:20:00 0.0
2018_01_05_S11 01/05/2018 14:25:00 0.0
2018_01_05_S11 01/05/2018 14:30:00 0.0
2018_01_05_S11 01/05/2018 14:35:00 0.0195
2018_01_05_S11 01/05/2018 14:40:00 0.0911
2018_01_05_S11 01/05/2018 14:45:00 2.0935
2018_01_05_S11 01/05/2018 14:50:00 2.3236
2018_01_05_S11 01/05/2018 14:55:00 0.1439
2018_01_05_S11 01/05/2018 15:00:00 1.9359
2018_01_05_S11 01/05/2018 15:05:00 0.0
2018_01_05_S11 01/05/2018 15:10:00 0.0744
2018_01_05_S11 01/05/2018 15:15:00 1.1413
2018_01_05_S11 01/05/2018 15:20:00 0.2198
2018_01_05_S11 01/05/2018 15:25:00 0.0
2018_01_05_S11 01/05/2018 15:30:00 0.0085
2018_01_05_S11 01/05/2018 15:35:00 0.2
2018_01_05_S11 01/05/2018 15:40:00 0.013
2018_01_05_S11 01/05/2018 15:45:00 0.0017
2018_01_05_S11 01/05/2018 15:50:00 0.0
2018_01_05_S11 01/05/2018 15:55:00 0.0
2018_01_05_S11 01/05/2018 16:00:00 0.0
2018_01_05_S11 01/05/2018 16:05:00 0.0
2018_01_05_S11 01/05/2018 16:10:00 0.0
2018_01_05_S11 01/05/2018 16:15:00 0.0
2018_01_05_S11 01/05/2018 16:20:00 0.0
2018_01_05_S11 01/05/2018 16:25:00 0.0
2018_01_05_S11 01/05/2018 16:30:00 0.0
2018_01_05_S11 01/05/2018 16:35:00 0.0
2018_01_05_S11 01/05/2018 16:40:00 0.0
2018_01_05_S11 01/05/2018 16:45:00 0.0
2018_01_05_S11 01/05/2018 16:50:00 0.0
2018_01_05_S11 01/05/2018 16:55:00 0.0
2018_01_05_S11 01/05/2018 17:00:00 0.0
2018_01_05_S11 01/05/2018 17:05:00 0.0
2018_01_05_S11 01/05/2018 17:10:00 0.0
2018_01_05_S11 01/05/2018 17:15:00 0.0
2018_01_05_S11 01/05/2018 17:20:00 0.0
2018_01_05_S11 01/05/2018 17:25:00 0.0
2018_01_05_S11 01/05/2018 17:30:00 0.0
2018_01_05_S11 01/05/2018 17:35:00 0.0
2018_01_05_S11 01/05/2018 17:40:00 0.0
2018_01_05_S11 01/05/2018 17:45:00 0.0
2018_01_05_S11 01/05/2018 17:50:00 0.0242
2018_01_05_S11 01/05/2018 17:55:00 0.106
2018_01_05_S11 01/05/2018 18:00:00 0.0072
2018_01_05_S11 01/05/2018 18:05:00 0.0
2018_01_05_S11 01/05/2018 18:10:00 0.0
2018_01_05_S11 01/05/2018 18:15:00 0.0
2018_01_05_S11 01/05/2018 18:20:00 0.0
2018_01_05_S11 01/05/2018 18:25:00 0.0012
2018_01_05_S11 01/05/2018 18:30:00 0.0
2018_01_05_S11 01/05/2018 18:35:00 0.0
2018_01_05_S11 01/05/2018 18:40:00 0.0
2018_01_05_S11 01/05/2018 18:45:00 0.0
2018_01_05_S11 01/05/2018 18:50:00 0.0
2018_01_05_S11 01/05/2018 18:55:00 0.0
2018_01_05_S11 01/05/2018 19:00:00 0.0
2018_01_05_S11 01/05/2018 19:05:00 0.0
2018_01_05_S11 01/05/2018 19:10:00 0.0
2018_01_05_S11 01/05/2018 19:15:00 0.0
2018_01_05_S11 01/05/2018 19:20:00 0.0001
2018_01_05_S11 01/05/2018 19:25:00 0.0419
2018_01_05_S11 01/05/2018 19:30:00 0.0146
2018_01_05_S11 01/05/2018 19:35:00 0.1775
2018_01_05_S11 01/05/2018 19:40:00 0.0488
2018_01_05_S11 01/05/2018 19:45:00 0.0038
2018_01_05_S11 01/05/2018 19:50:00 1.0558
2018_01_05_S11 01/05/2018 19:55:00 0.0359
2018_01_05_S11 01/05/2018 20:00:00 0.0176
2018_01_05_S11 01/05/2018 20:05:00 0.0
2018_01_05_S11 01/05/2018 20:10:00 0.0
2018_01_05_S11 01/05/2018 20:15:00 0.0
2018_01_05_S11 01/05/2018 20:20:00 0.0
2018_01_05_S11 01/05/2018 20:25:00 0.0
2018_01_05_S11 01/05/2018 20:30:00 0.0
2018_01_05_S11 01/05/2018 20:35:00 0.0
2018_01_05_S11 01/05/2018 20:40:00 0.0
2018_01_05_S11 01/05/2018 20:45:00 0.0
2018_01_05_S11 01/05/2018 20:50:00 0.0027
2018_01_05_S11 01/05/2018 20:55:00 0.0484
2018_01_05_S11 01/05/2018 21:00:00 0.0039
2018_01_05_S11 01/05/2018 21:05:00 0.0
2018_01_05_S11 01/05/2018 21:10:00 0.0
2018_01_05_S11 01/05/2018 21:15:00 0.0
2018_01_05_S11 01/05/2018 21:20:00 0.0
2018_01_05_S11 01/05/2018 21:25:00 0.0
2018_01_05_S11 01/05/2018 21:30:00 0.0
2018_01_05_S11 01/05/2018 21:35:00 0.0015
2018_01_05_S11 01/05/2018 21:40:00 0.0032
2018_01_05_S11 01/05/2018 21:45:00 0.0
2018_01_05_S11 01/05/2018 21:50:00 0.0
2018_01_05_S11 01/05/2018 21:55:00 0.0
2018_01_05_S11 01/05/2018 22:00:00 0.0
2018_01_05_S11 01/05/2018 22:05:00 0.004
2018_01_05_S11 01/05/2018 22:10:00 0.0
2018_01_05_S11 01/05/2018 22:15:00 0.0
2018_01_05_S11 01/05/2018 22:20:00 0.0001
2018_01_05_S11 01/05/2018 22:25:00 0.0
2018_01_05_S11 01/05/2018 22:30:00 0.0539
2018_01_05_S11 01/05/2018 22:35:00 0.0009
2018_01_05_S11 01/05/2018 22:40:00 0.0034
2018_01_05_S11 01/05/2018 22:45:00 0.001
2018_01_05_S11 01/05/2018 22:50:00 0.0
2018_01_05_S11 01/05/2018 22:55:00 0.0
2018_01_05_S11 01/05/2018 23:00:00 0.0
2018_01_05_S11 01/05/2018 23:05:00 0.0
2018_01_05_S11 01/05/2018 23:10:00 0.0
2018_01_05_S11 01/05/2018 23:15:00 0.0
2018_01_05_S11 01/05/2018 23:20:00 0.0
2018_01_05_S11 01/05/2018 23:25:00 0.0
2018_01_05_S11 01/05/2018 23:30:00 0.0
2018_01_05_S11 01/05/2018 23:35:00 0.0
2018_01_05_S11 01/05/2018 23:40:00 0.0188
2018_01_05_S11 01/05/2018 23:45:00 0.0112
2018_01_05_S11 01/05/2018 23:50:00 0.0
2018_01_05_S11 01/05/2018 23:55:00 0.0
2018_01_05_S11 01/06/2018 00:00:00 0.0
2018_01_05_S11 01/06/2018 00:05:00 0.0
2018_01_05_S11 01/06/2018 00:10:00 0.0145
2018_01_05_S11 01/06/2018 00:15:00 0.1948
2018_01_05_S11 01/06/2018 00:20:00 0.0105
2018_01_05_S11 01/06/2018 00:25:00 0.0144
2018_01_05_S11 01/06/2018 00:30:00 0.0
2018_01_05_S11 01/06/2018 00:35:00 0.0
2018_01_05_S11 01/06/2018 00:40:00 0.0
2018_01_05_S11 01/06/2018 00:45:00 0.0
2018_01_05_S11 01/06/2018 00:50:00 0.0
2018_01_05_S11 01/06/2018 00:55:00 0.0
2018_01_05_S11 01/06/2018 01:00:00 0.0013
2018_01_05_S11 01/06/2018 01:05:00 0.0
2018_01_05_S11 01/06/2018 01:10:00 0.0313
2018_01_05_S11 01/06/2018 01:15:00 0.0
2018_01_05_S11 01/06/2018 01:20:00 0.0
2018_01_05_S11 01/06/2018 01:25:00 0.0
2018_01_05_S11 01/06/2018 01:30:00 0.0
2018_01_05_S11 01/06/2018 01:35:00 0.0
2018_01_05_S11 01/06/2018 01:40:00 0.0
2018_01_05_S11 01/06/2018 01:45:00 0.0
2018_01_05_S11 01/06/2018 01:50:00 0.0
2018_01_05_S11 01/06/2018 01:55:00 0.0
2018_01_05_S11 01/06/2018 02:00:00 0.0
2018_01_05_S11 01/06/2018 02:05:00 0.0
2018_01_05_S11 01/06/2018 02:10:00 0.0
2018_01_05_S11 01/06/2018 02:15:00 0.0
2018_01_05_S11 01/06/2018 02:20:00 0.0
2018_01_05_S11 01/06/2018 02:25:00 0.0
2018_01_05_S11 01/06/2018 02:30:00 0.0
2018_01_05_S11 01/06/2018 02:35:00 0.0
2018_01_05_S11 01/06/2018 02:40:00 0.0
2018_01_05_S11 01/06/2018 02:45:00 0.0
2018_01_05_S11 01/06/2018 02:50:00 0.0
2018_01_05_S11 01/06/2018 02:55:00 0.0
2018_01_05_S11 01/06/2018 03:00:00 0.0
2018_01_05_S11 01/06/2018 03:05:00 0.0
2018_01_05_S11 01/06/2018 03:10:00 0.0
2018_01_05_S11 01/06/2018 03:15:00 0.0
2018_01_05_S11 01/06/2018 03:20:00 0.0
2018_01_05_S11 01/06/2018 03:25:00 0.0
2018_01_05_S11 01/06/2018 03:30:00 0.0
2018_01_05_S11 01/06/2018 03:35:00 0.0
2018_01_05_S11 01/06/2018 03:40:00 0.1668
2018_01_05_S11 01/06/2018 03:45:00 0.2183
2018_01_05_S11 01/06/2018 03:50:00 0.0
2018_01_05_S11 01/06/2018 03:55:00 0.0
2018_01_05_S11 01/06/2018 04:00:00 0.0
2018_01_05_S11 01/06/2018 04:05:00 0.0
2018_01_05_S11 01/06/2018 04:10:00 0.0
2018_01_05_S11 01/06/2018 04:15:00 0.0
2018_01_05_S11 01/06/2018 04:20:00 0.0343
2018_01_05_S11 01/06/2018 04:25:00 0.0796
2018_01_05_S11 01/06/2018 04:30:00 0.0024
2018_01_05_S11 01/06/2018 04:35:00 0.0
2018_01_05_S11 01/06/2018 04:40:00 0.0
2018_01_05_S11 01/06/2018 04:45:00 0.0
2018_01_05_S11 01/06/2018 04:50:00 0.0304
2018_01_05_S11 01/06/2018 04:55:00 0.0085
2018_01_05_S11 01/06/2018 05:00:00 0.0
2018_01_05_S11 01/06/2018 05:05:00 0.0
2018_01_05_S11 01/06/2018 05:10:00 0.0
2018_01_05_S11 01/06/2018 05:15:00 0.0
2018_01_05_S11 01/06/2018 05:20:00 0.0
2018_01_05_S11 01/06/2018 05:25:00 0.1042
2018_01_05_S11 01/06/2018 05:30:00 0.0038
2018_01_05_S11 01/06/2018 05:35:00 0.0
2018_01_05_S11 01/06/2018 05:40:00 0.0
2018_01_05_S11 01/06/2018 05:45:00 0.0
2018_01_05_S11 01/06/2018 05:50:00 0.0
2018_01_05_S11 01/06/2018 05:55:00 0.0
2018_01_05_S11 01/06/2018 06:00:00 0.0
2018_01_05_S11 01/06/2018 06:05:00 0.0052
2018_01_05_S11 01/06/2018 06:10:00 0.2313
2018_01_05_S11 01/06/2018 06:15:00 0.0274
2018_01_05_S11 01/06/2018 06:20:00 0.0682
2018_01_05_S11 01/06/2018 06:25:00 0.0029
2018_01_05_S11 01/06/2018 06:30:00 0.0
2018_01_05_S11 01/06/2018 06:35:00 0.0
2018_01_05_S11 01/06/2018 06:40:00 0.0047
2018_01_05_S11 01/06/2018 06:45:00 0.003
2018_01_05_S11 01/06/2018 06:50:00 0.0086
2018_01_05_S11 01/06/2018 06:55:00 0.0135
2018_01_05_S11 01/06/2018 07:00:00 0.0203
2018_01_05_S11 01/06/2018 07:05:00 0.0323
2018_01_05_S11 01/06/2018 07:10:00 0.0
2018_01_05_S11 01/06/2018 07:15:00 0.0
2018_01_05_S11 01/06/2018 07:20:00 0.0
2018_01_05_S11 01/06/2018 07:25:00 0.0
2018_01_05_S11 01/06/2018 07:30:00 0.0
2018_01_05_S11 01/06/2018 07:35:00 0.0009
2018_01_05_S11 01/06/2018 07:40:00 0.0
2018_01_05_S11 01/06/2018 07:45:00 0.0
2018_01_05_S11 01/06/2018 07:50:00 0.0009
2018_01_05_S11 01/06/2018 07:55:00 0.0259
2018_01_05_S11 01/06/2018 08:00:00 0.002

2018_01_05_S12 01/04/2018 10:25:00 0.0421
2018_01_05_S12 01/04/2018 10:30:00 0.0
2018_01_05_S12 01/04/2018 10:35:00 0.0092
2018_01_05_S12 01/04/2018 10:40:00 0.0247
2018_01_05_S12 01/04/2018 10:45:00 0.5207
2018_01_05_S12 01/04/2018 10:50:00 0.0
2018_01_05_S12 01/04/2018 10:55:00 0.0
2018_01_05_S12 01/04/2018 11:00:00 0.1042
2018_01_05_S12 01/04/2018 11:05:00 0.0295
2018_01_05_S12 01/04/2018 11:10:00 0.3527
2018_01_05_S12 01/04/2018 11:15:00 0.1307
2018_01_05_S12 01/04/2018 11:20:00 0.1927
2018_01_05_S12 01/04/2018 11:25:00 0.0127
2018_01_05_S12 01/04/2018 11:30:00 0.0
2018_01_05_S12 01/04/2018 11:35:00 0.0
2018_01_05_S12 01/04/2018 11:40:00 0.0
2018_01_05_S12 01/04/2018 11:45:00 0.0
2018_01_05_S12 01/04/2018 11:50:00 0.0
2018_01_05_S12 01/04/2018 11:55:00 0.0
2018_01_05_S12 01/04/2018 12:00:00 0.0
2018_01_05_S12 01/04/2018 12:05:00 0.0
2018_01_05_S12 01/04/2018 12:10:00 0.0
2018_01_05_S12 01/04/2018 12:15:00 0.0
2018_01_05_S12 01/04/2018 12:20:00 0.0
2018_01_05_S12 01/04/2018 12:25:00 0.0345
2018_01_05_S12 01/04/2018 12:30:00 0.0
2018_01_05_S12 01/04/2018 12:35:00 0.0
2018_01_05_S12 01/04/2018 12:40:00 0.0
2018_01_05_S12 01/04/2018 12:45:00 0.0
2018_01_05_S12 01/04/2018 12:50:00 0.0
2018_01_05_S12 01/04/2018 12:55:00 0.0
2018_01_05_S12 01/04/2018 13:00:00 0.0
2018_01_05_S12 01/04/2018 13:05:00 0.0
2018_01_05_S12 01/04/2018 13:10:00 0.0
2018_01_05_S12 01/04/2018 13:15:00 0.0
2018_01_05_S12 01/04/2018 13:20:00 0.0
2018_01_05_S12 01/04/2018 13:25:00 0.0
2018_01_05_S12 01/04/2018 13:30:00 0.0
2018_01_05_S12 01/04/2018 13:35:00 0.0
2018_01_05_S12 01/04/2018 13:40:00 0.0
2018_01_05_S12 01/04/2018 13:45:00 0.0
2018_01_05_S12 01/04/2018 13:50:00 0.0
2018_01_05_S12 01/04/2018 13:55:00 0.0
2018_01_05_S12 01/04/2018 14:00:00 0.0
2018_01_05_S12 01/04/2018 14:05:00 0.0
2018_01_05_S12 01/04/2018 14:10:00 0.0007
2018_01_05_S12 01/04/2018 14:15:00 0.0
2018_01_05_S12 01/04/2018 14:20:00 0.0
2018_01_05_S12 01/04/2018 14:25:00 0.0
2018_01_05_S12 01/04/2018 14:30:00 0.0022
2018_01_05_S12 01/04/2018 14:35:00 0.0539
2018_01_05_S12 01/04/2018 14:40:00 0.0
2018_01_05_S12 01/04/2018 14:45:00 0.0
2018_01_05_S12 01/04/2018 14:50:00 0.0
2018_01_05_S12 01/04/2018 14:55:00 0.0
2018_01_05_S12 01/04/2018 15:00:00 0.0
2018_01_05_S12 01/04/2018 15:05:00 0.0
2018_01_05_S12 01/04/2018 15:10:00 0.0
2018_01_05_S12 01/04/2018 15:15:00 0.0
2018_01_05_S12 01/04/2018 15:20:00 0.0
2018_01_05_S12 01/04/2018 15:25:00 0.0
2018_01_05_S12 01/04/2018 15:30:00 1.5544
2018_01_05_S12 01/04/2018 15:35:00 0.0029
2018_01_05_S12 01/04/2018 15:40:00 0.0
2018_01_05_S12 01/04/2018 15:45:00 0.0
2018_01_05_S12 01/04/2018 15:50:00 0.0
2018_01_05_S12 01/04/2018 15:55:00 0.0141
2018_01_05_S12 01/04/2018 16:00:00 0.0278
2018_01_05_S12 01/04/2018 16:05:00 0.1306
2018_01_05_S12 01/04/2018 16:10:00 0.0316
2018_01_05_S12 01/04/2018 16:15:00 0.1482
2018_01_05_S12 01/04/2018 16:20:00 0.0018
2018_01_05_S12 01/04/2018 16:25:00 0.0
2018_01_05_S12 01/04/2018 16:30:00 0.0
2018_01_05_S12 01/04/2018 16:35:00 0.0
2018_01_05_S12 01/04/2018 16:40:00 0.0
2018_01_05_S12 01/04/2018 16:45:00 0.0
2018_01_05_S12 01/04/2018 16:50:00 0.0
2018_01_05_S12 01/04/2018 16:55:00 0.0
2018_01_05_S12 01/04/2018 17:00:00 0.0
2018_01_05_S12 01/04/2018 17:05:00 0.0021
2018_01_05_S12 01/04/2018 17:10:00 0.0731
2018_01_05_S12 01/04/2018 17:15:00 0.0
2018_01_05_S12 01/04/2018 17:20:00 0.0
2018_01_05_S12 01/04/2018 17:25:00 0.0808
2018_01_05_S12 01/04/2018 17:30:00 0.0743
2018_01_05_S12 01/04/2018 17:35:00 0.1823
2018_01_05_S12 01/04/2018 17:40:00 0.1384
2018_01_05_S12 01/04/2018 17:45:00 0.077
2018_01_05_S12 01/04/2018 17:50:00 0.0566
2018_01_05_S12 01/04/2018 17:55:00 0.111
2018_01_05_S12 01/04/2018 18:00:00 0.0352
2018_01_05_S12 01/04/2018 18:05:00 0.0754
2018_01_05_S12 01/04/2018 18:10:00 0.0132
2018_01_05_S12 01/04/2018 18:15:00 0.0049
2018_01_05_S12 01/04/2018 18:20:00 0.0
2018_01_05_S12 01/04/2018 18:25:00 0.0
2018_01_05_S12 01/04/2018 18:30:00 0.0
2018_01_05_S12 01/04/2018 18:35:00 0.0
2018_01_05_S12 01/04/2018 18:40:00 0.0
2018_01_05_S12 01/04/2018 18:45:00 0.0
2018_01_05_S12 01/04/2018 18:50:00 0.0
2018_01_05_S12 01/04/2018 18:55:00 0.0
2018_01_05_S12 01/04/2018 19:00:00 0.0
2018_01_05_S12 01/04/2018 19:05:00 0.0
2018_01_05_S12 01/04/2018 19:10:00 0.0
2018_01_05_S12 01/04/2018 19:15:00 0.0
2018_01_05_S12 01/04/2018 19:20:00 0.0
2018_01_05_S12 01/04/2018 19:25:00 0.0
2018_01_05_S12 01/04/2018 19:30:00 0.0
2018_01_05_S12 01/04/2018 19:35:00 0.0
2018_01_05_S12 01/04/2018 19:40:00 0.0
2018_01_05_S12 01/04/2018 19:45:00 0.0
2018_01_05_S12 01/04/2018 19:50:00 0.0
2018_01_05_S12 01/04/2018 19:55:00 0.0
2018_01_05_S12 01/04/2018 20:00:00 0.0
2018_01_05_S12 01/04/2018 20:05:00 0.0
2018_01_05_S12 01/04/2018 20:10:00 0.0
2018_01_05_S12 01/04/2018 20:15:00 0.0
2018_01_05_S12 01/04/2018 20:20:00 0.0
2018_01_05_S12 01/04/2018 20:25:00 0.0
2018_01_05_S12 01/04/2018 20:30:00 0.0
2018_01_05_S12 01/04/2018 20:35:00 0.0
2018_01_05_S12 01/04/2018 20:40:00 0.0
2018_01_05_S12 01/04/2018 20:45:00 0.0
2018_01_05_S12 01/04/2018 20:50:00 0.0
2018_01_05_S12 01/04/2018 20:55:00 0.0
2018_01_05_S12 01/04/2018 21:00:00 0.0
2018_01_05_S12 01/04/2018 21:05:00 0.0
2018_01_05_S12 01/04/2018 21:10:00 0.0
2018_01_05_S12 01/04/2018 21:15:00 0.0
2018_01_05_S12 01/04/2018 21:20:00 0.0016
2018_01_05_S12 01/04/2018 21:25:00 0.0048
2018_01_05_S12 01/04/2018 21:30:00 0.0067
2018_01_05_S12 01/04/2018 21:35:00 0.0133
2018_01_05_S12 01/04/2018 21:40:00 0.0544
2018_01_05_S12 01/04/2018 21:45:00 0.0
2018_01_05_S12 01/04/2018 21:50:00 0.0
2018_01_05_S12 01/04/2018 21:55:00 0.0
2018_01_05_S12 01/04/2018 22:00:00 0.0
2018_01_05_S12 01/04/2018 22:05:00 0.0
2018_01_05_S12 01/04/2018 22:10:00 0.0
2018_01_05_S12 01/04/2018 22:15:00 0.0
2018_01_05_S12 01/04/2018 22:20:00 0.0
2018_01_05_S12 01/04/2018 22:25:00 0.0
2018_01_05_S12 01/04/2018 22:30:00 0.0
2018_01_05_S12 01/04/2018 22:35:00 0.0
2018_01_05_S12 01/04/2018 22:40:00 0.0
2018_01_05_S12 01/04/2018 22:45:00 0.0
2018_01_05_S12 01/04/2018 22:50:00 0.0
2018_01_05_S12 01/04/2018 22:55:00 0.0
2018_01_05_S12 01/04/2018 23:00:00 0.0
2018_01_05_S12 01/04/2018 23:05:00 0.0
2018_01_05_S12 01/04/2018 23:10:00 0.0
2018_01_05_S12 01/04/2018 23:15:00 0.0
2018_01_05_S12 01/04/2018 23:20:00 0.0
2018_01_05_S12 01/04/2018 23:25:00 0.0
2018_01_05_S12 01/04/2018 23:30:00 0.0
2018_01_05_S12 01/04/2018 23:35:00 0.0
2018_01_05_S12 01/04/2018 23:40:00 0.0
2018_01_05_S12 01/04/2018 23:45:00 0.0
2018_01_05_S12 01/04/2018 23:50:00 0.0
2018_01_05_S12 01/04/2018 23:55:00 0.0
2018_01_05_S12 01/05/2018 00:00:00 0.0
2018_01_05_S12 01/05/2018 00:05:00 0.0
2018_01_05_S12 01/05/2018 00:10:00 0.0
2018_01_05_S12 01/05/2018 00:15:00 0.0
2018_01_05_S12 01/05/2018 00:20:00 0.0
2018_01_05_S12 01/05/2018 00:25:00 0.0
2018_01_05_S12 01/05/2018 00:30:00 0.0
2018_01_05_S12 01/05/2018 00:35:00 0.0
2018_01_05_S12 01/05/2018 00:40:00 0.0
2018_01_05_S12 01/05/2018 00:45:00 0.0022
2018_01_05_S12 01/05/2018 00:50:00 0.0386
2018_01_05_S12 01/05/2018 00:55:00 0.0338
2018_01_05_S12 01/05/2018 01:00:00 0.0016
2018_01_05_S12 01/05/2018 01:05:00 0.0834
2018_01_05_S12 01/05/2018 01:10:00 0.0203
2018_01_05_S12 01/05/2018 01:15:00 0.0
2018_01_05_S12 01/05/2018 01:20:00 0.0845
2018_01_05_S12 01/05/2018 01:25:00 0.0033
2018_01_05_S12 01/05/2018 01:30:00 0.0129
2018_01_05_S12 01/05/2018 01:35:00 0.0005
2018_01_05_S12 01/05/2018 01:40:00 0.0
2018_01_05_S12 01/05/2018 01:45:00 0.1268
2018_01_05_S12 01/05/2018 01:50:00 0.041
2018_01_05_S12 01/05/2018 01:55:00 0.0324
2018_01_05_S12 01/05/2018 02:00:00 0.016
2018_01_05_S12 01/05/2018 02:05:00 0.0076
2018_01_05_S12 01/05/2018 02:10:00 0.0004
2018_01_05_S12 01/05/2018 02:15:00 0.0529
2018_01_05_S12 01/05/2018 02:20:00 0.0192
2018_01_05_S12 01/05/2018 02:25:00 0.0
2018_01_05_S12 01/05/2018 02:30:00 0.0
2018_01_05_S12 01/05/2018 02:35:00 0.0
2018_01_05_S12 01/05/2018 02:40:00 0.0
2018_01_05_S12 01/05/2018 02:45:00 0.0
2018_01_05_S12 01/05/2018 02:50:00 0.0
2018_01_05_S12 01/05/2018 02:55:00 0.0
2018_01_05_S12 01/05/2018 03:00:00 0.0
2018_01_05_S12 01/05/2018 03:05:00 0.179
2018_01_05_S12 01/05/2018 03:10:00 0.2453
2018_01_05_S12 01/05/2018 03:15:00 0.2112
2018_01_05_S12 01/05/2018 03:20:00 0.4491
2018_01_05_S12 01/05/2018 03:25:00 0.1106
2018_01_05_S12 01/05/2018 03:30:00 0.1573
2018_01_05_S12 01/05/2018 03:35:00 0.076
2018_01_05_S12 01/05/2018 03:40:00 0.0026
2018_01_05_S12 01/05/2018 03:45:00 0.0075
2018_01_05_S12 01/05/2018 03:50:00 0.018
2018_01_05_S12 01/05/2018 03:55:00 0.0205
2018_01_05_S12 01/05/2018 04:00:00 0.0332
2018_01_05_S12 01/05/2018 04:05:00 0.0
2018_01_05_S12 01/05/2018 04:10:00 0.0241
2018_01_05_S12 01/05/2018 04:15:00 0.0186
2018_01_05_S12 01/05/2018 04:20:00 0.0
2018_01_05_S12 01/05/2018 04:25:00 0.1072
2018_01_05_S12 01/05/2018 04:30:00 0.0
2018_01_05_S12 01/05/2018 04:35:00 0.0448
2018_01_05_S12 01/05/2018 04:40:00 0.269
2018_01_05_S12 01/05/2018 04:45:00 0.0679
2018_01_05_S12 01/05/2018 04:50:00 0.0702
2018_01_05_S12 01/05/2018 04:55:00 0.0378
2018_01_05_S12 01/05/2018 05:00:00 0.0401
2018_01_05_S12 01/05/2018 05:05:00 0.0
2018_01_05_S12 01/05/2018 05:10:00 0.0
2018_01_05_S12 01/05/2018 05:15:00 0.0
2018_01_05_S12 01/05/2018 05:20:00 0.0012
2018_01_05_S12 01/05/2018 05:25:00 0.0
2018_01_05_S12 01/05/2018 05:30:00 0.0
2018_01_05_S12 01/05/2018 05:35:00 0.0
2018_01_05_S12 01/05/2018 05:40:00 0.0
2018_01_05_S12 01/05/2018 05:45:00 0.0053
2018_01_05_S12 01/05/2018 05:50:00 0.0
2018_01_05_S12 01/05/2018 05:55:00 0.0357
2018_01_05_S12 01/05/2018 06:00:00 0.1837
2018_01_05_S12 01/05/2018 06:05:00 0.0644
2018_01_05_S12 01/05/2018 06:10:00 0.0336
2018_01_05_S12 01/05/2018 06:15:00 0.0297
2018_01_05_S12 01/05/2018 06:20:00 1.2071
2018_01_05_S12 01/05/2018 06:25:00 4.1116
2018_01_05_S12 01/05/2018 06:30:00 2.1795
2018_01_05_S12 01/05/2018 06:35:00 2.4269
2018_01_05_S12 01/05/2018 06:40:00 0.8673
2018_01_05_S12 01/05/2018 06:45:00 1.3336
2018_01_05_S12 01/05/2018 06:50:00 0.9311
2018_01_05_S12 01/05/2018 06:55:00 0.5214
2018_01_05_S12 01/05/2018 07:00:00 0.6652
2018_01_05_S12 01/05/2018 07:05:00 0.2946
2018_01_05_S12 01/05/2018 07:10:00 0.0206
2018_01_05_S12 01/05/2018 07:15:00 0.0016
2018_01_05_S12 01/05/2018 07:20:00 0.0
2018_01_05_S12 01/05/2018 07:25:00 0.0
2018_01_05_S12 01/05/2018 07:30:00 0.0
2018_01_05_S12 01/05/2018 07:35:00 0.0
2018_01_05_S12 01/05/2018 07:40:00 0.0
2018_01_05_S12 01/05/2018 07:45:00 0.0
2018_01_05_S12 01/05/2018 07:50:00 0.0
2018_01_05_S12 01/05/2018 07:55:00 0.0
2018_01_05_S12 01/05/2018 08:00:00 0.0
2018_01_05_S12 01/05/2018 08:05:00 0.0
2018_01_05_S12 01/05/2018 08:10:00 0.0
2018_01_05_S12 01/05/2018 08:15:00 0.0
2018_01_05_S12 01/05/2018 08:20:00 0.0
2018_01_05_S12 01/05/2018 08:25:00 0.0
2018_01_05_S12 01/05/2018 08:30:00 0.0009
2018_01_05_S12 01/05/2018 08:35:00 0.0317
2018_01_05_S12 01/05/2018 08:40:00 0.2658
2018_01_05_S12 01/05/2018 08:45:00 0.2506
2018_01_05_S12 01/05/2018 08:50:00 0.44
2018_01_05_S12 01/05/2018 08:55:00 1.0189
2018_01_05_S12 01/05/2018 09:00:00 0.378
2018_01_05_S12 01/05/2018 09:05:00 1.8083
2018_01_05_S12 01/05/2018 09:10:00 0.4227
2018_01_05_S12 01/05/2018 09:15:00 0.2208
2018_01_05_S12 01/05/2018 09:20:00 0.0
2018_01_05_S12 01/05/2018 09:25:00 0.0
2018_01_05_S12 01/05/2018 09:30:00 0.0828
2018_01_05_S12 01/05/2018 09:35:00 1.6831
2018_01_05_S12 01/05/2018 09:40:00 0.6815
2018_01_05_S12 01/05/2018 09:45:00 0.3883
2018_01_05_S12 01/05/2018 09:50:00 3.1345
2018_01_05_S12 01/05/2018 09:55:00 0.0289
2018_01_05_S12 01/05/2018 10:00:00 0.0147
2018_01_05_S12 01/05/2018 10:05:00 0.2139
2018_01_05_S12 01/05/2018 10:10:00 0.0016
2018_01_05_S12 01/05/2018 10:15:00 0.1389
2018_01_05_S12 01/05/2018 10:20:00 0.0
2018_01_05_S12 01/05/2018 10:25:00 0.0495
2018_01_05_S12 01/05/2018 10:30:00 0.5385
2018_01_05_S12 01/05/2018 10:35:00 0.0422
2018_01_05_S12 01/05/2018 10:40:00 0.0983
2018_01_05_S12 01/05/2018 10:45:00 0.1865
2018_01_05_S12 01/05/2018 10:50:00 0.0023
2018_01_05_S12 01/05/2018 10:55:00 0.0
2018_01_05_S12 01/05/2018 11:00:00 0.0
2018_01_05_S12 01/05/2018 11:05:00 0.0354
2018_01_05_S12 01/05/2018 11:10:00 0.0825
2018_01_05_S12 01/05/2018 11:15:00 0.2827
2018_01_05_S12 01/05/2018 11:20:00 0.2095
2018_01_05_S12 01/05/2018 11:25:00 0.0902
2018_01_05_S12 01/05/2018 11:30:00 0.4467
2018_01_05_S12 01/05/2018 11:35:00 0.0673
2018_01_05_S12 01/05/2018 11:40:00 0.3903
2018_01_05_S12 01/05/2018 11:45:00 0.0249
2018_01_05_S12 01/05/2018 11:50:00 0.0
2018_01_05_S12 01/05/2018 11:55:00 0.1707
2018_01_05_S12 01/05/2018 12:00:00 0.0173
2018_01_05_S12 01/05/2018 12:05:00 0.1657
2018_01_05_S12 01/05/2018 12:10:00 0.4361
2018_01_05_S12 01/05/2018 12:15:00 0.5142
2018_01_05_S12 01/05/2018 12:20:00 0.2205
2018_01_05_S12 01/05/2018 12:25:00 1.1728
2018_01_05_S12 01/05/2018 12:30:00 2.2851
2018_01_05_S12 01/05/2018 12:35:00 2.2848
2018_01_05_S12 01/05/2018 12:40:00 2.9257
2018_01_05_S12 01/05/2018 12:45:00 1.0046
2018_01_05_S12 01/05/2018 12:50:00 0.0206
2018_01_05_S12 01/05/2018 12:55:00 0.0749
2018_01_05_S12 01/05/2018 13:00:00 0.3316
2018_01_05_S12 01/05/2018 13:05:00 0.0091
2018_01_05_S12 01/05/2018 13:10:00 0.0
2018_01_05_S12 01/05/2018 13:15:00 0.0
2018_01_05_S12 01/05/2018 13:20:00 0.0
2018_01_05_S12 01/05/2018 13:25:00 0.0611
2018_01_05_S12 01/05/2018 13:30:00 0.0214
2018_01_05_S12 01/05/2018 13:35:00 0.0
2018_01_05_S12 01/05/2018 13:40:00 0.4678
2018_01_05_S12 01/05/2018 13:45:00 0.095
2018_01_05_S12 01/05/2018 13:50:00 0.6326
2018_01_05_S12 01/05/2018 13:55:00 0.0484
2018_01_05_S12 01/05/2018 14:00:00 0.0165
2018_01_05_S12 01/05/2018 14:05:00 0.0021
2018_01_05_S12 01/05/2018 14:10:00 0.0933
2018_01_05_S12 01/05/2018 14:15:00 0.0
2018_01_05_S12 01/05/2018 14:20:00 0.0
2018_01_05_S12 01/05/2018 14:25:00 0.0
2018_01_05_S12 01/05/2018 14:30:00 0.0
2018_01_05_S12 01/05/2018 14:35:00 0.0146
2018_01_05_S12 01/05/2018 14:40:00 0.105
2018_01_05_S12 01/05/2018 14:45:00 1.4034
2018_01_05_S12 01/05/2018 14:50:00 5.5424
2018_01_05_S12 01/05/2018 14:55:00 0.5279
2018_01_05_S12 01/05/2018 15:00:00 2.2049
2018_01_05_S12 01/05/2018 15:05:00 0.0
2018_01_05_S12 01/05/2018 15:10:00 0.0445
2018_01_05_S12 01/05/2018 15:15:00 0.2435
2018_01_05_S12 01/05/2018 15:20:00 0.4266
2018_01_05_S12 01/05/2018 15:25:00 0.0
2018_01_05_S12 01/05/2018 15:30:00 0.0171
2018_01_05_S12 01/05/2018 15:35:00 0.2194
2018_01_05_S12 01/05/2018 15:40:00 0.0
2018_01_05_S12 01/05/2018 15:45:00 0.005
2018_01_05_S12 01/05/2018 15:50:00 0.0
2018_01_05_S12 01/05/2018 15:55:00 0.0
2018_01_05_S12 01/05/2018 16:00:00 0.0
2018_01_05_S12 01/05/2018 16:05:00 0.0
2018_01_05_S12 01/05/2018 16:10:00 0.0
2018_01_05_S12 01/05/2018 16:15:00 0.0
2018_01_05_S12 01/05/2018 16:20:00 0.0
2018_01_05_S12 01/05/2018 16:25:00 0.0
2018_01_05_S12 01/05/2018 16:30:00 0.0
2018_01_05_S12 01/05/2018 16:35:00 0.0
2018_01_05_S12 01/05/2018 16:40:00 0.0
2018_01_05_S12 01/05/2018 16:45:00 0.0
2018_01_05_S12 01/05/2018 16:50:00 0.0
2018_01_05_S12 01/05/2018 16:55:00 0.0
2018_01_05_S12 01/05/2018 17:00:00 0.0
2018_01_05_S12 01/05/2018 17:05:00 0.0
2018_01_05_S12 01/05/2018 17:10:00 0.0
2018_01_05_S12 01/05/2018 17:15:00 0.0
2018_01_05_S12 01/05/2018 17:20:00 0.0
2018_01_05_S12 01/05/2018 17:25:00 0.0
2018_01_05_S12 01/05/2018 17:30:00 0.0
2018_01_05_S12 01/05/2018 17:35:00 0.0
2018_01_05_S12 01/05/2018 17:40:00 0.0
2018_01_05_S12 01/05/2018 17:45:00 0.0
2018_01_05_S12 01/05/2018 17:50:00 0.0228
2018_01_05_S12 01/05/2018 17:55:00 0.1029
2018_01_05_S12 01/05/2018 18:00:00 0.0311
2018_01_05_S12 01/05/2018 18:05:00 0.0
2018_01_05_S12 01/05/2018 18:10:00 0.0
2018_01_05_S12 01/05/2018 18:15:00 0.0
2018_01_05_S12 01/05/2018 18:20:00 0.0
2018_01_05_S12 01/05/2018 18:25:00 0.0027
2018_01_05_S12 01/05/2018 18:30:00 0.0
2018_01_05_S12 01/05/2018 18:35:00 0.0
2018_01_05_S12 01/05/2018 18:40:00 0.0
2018_01_05_S12 01/05/2018 18:45:00 0.0
2018_01_05_S12 01/05/2018 18:50:00 0.0
2018_01_05_S12 01/05/2018 18:55:00 0.0
2018_01_05_S12 01/05/2018 19:00:00 0.0
2018_01_05_S12 01/05/2018 19:05:00 0.0
2018_01_05_S12 01/05/2018 19:10:00 0.0
2018_01_05_S12 01/05/2018 19:15:00 0.0
2018_01_05_S12 01/05/2018 19:20:00 0.0
2018_01_05_S12 01/05/2018 19:25:00 0.0824
2018_01_05_S12 01/05/2018 19:30:00 0.0485
2018_01_05_S12 01/05/2018 19:35:00 0.3874
2018_01_05_S12 01/05/2018 19:40:00 0.0733
2018_01_05_S12 01/05/2018 19:45:00 0.0061
2018_01_05_S12 01/05/2018 19:50:00 2.0999
2018_01_05_S12 01/05/2018 19:55:00 0.1011
2018_01_05_S12 01/05/2018 20:00:00 0.0366
2018_01_05_S12 01/05/2018 20:05:00 0.0
2018_01_05_S12 01/05/2018 20:10:00 0.0
2018_01_05_S12 01/05/2018 20:15:00 0.0
2018_01_05_S12 01/05/2018 20:20:00 0.0
2018_01_05_S12 01/05/2018 20:25:00 0.0
2018_01_05_S12 01/05/2018 20:30:00 0.0
2018_01_05_S12 01/05/2018 20:35:00 0.0134
2018_01_05_S12 01/05/2018 20:40:00 0.0
2018_01_05_S12 01/05/2018 20:45:00 0.0
2018_01_05_S12 01/05/2018 20:50:00 0.0006
2018_01_05_S12 01/05/2018 20:55:00 0.0629
2018_01_05_S12 01/05/2018 21:00:00 0.0004
2018_01_05_S12 01/05/2018 21:05:00 0.0
2018_01_05_S12 01/05/2018 21:10:00 0.0
2018_01_05_S12 01/05/2018 21:15:00 0.0
2018_01_05_S12 01/05/2018 21:20:00 0.0
2018_01_05_S12 01/05/2018 21:25:00 0.0
2018_01_05_S12 01/05/2018 21:30:00 0.0
2018_01_05_S12 01/05/2018 21:35:00 0.0053
2018_01_05_S12 01/05/2018 21:40:00 0.0
2018_01_05_S12 01/05/2018 21:45:00 0.0
2018_01_05_S12 01/05/2018 21:50:00 0.0
2018_01_05_S12 01/05/2018 21:55:00 0.0
2018_01_05_S12 01/05/2018 22:00:00 0.0
2018_01_05_S12 01/05/2018 22:05:00 0.0004
2018_01_05_S12 01/05/2018 22:10:00 0.0
2018_01_05_S12 01/05/2018 22:15:00 0.0
2018_01_05_S12 01/05/2018 22:20:00 0.0
2018_01_05_S12 01/05/2018 22:25:00 0.0
2018_01_05_S12 01/05/2018 22:30:00 0.0595
2018_01_05_S12 01/05/2018 22:35:00 0.0
2018_01_05_S12 01/05/2018 22:40:00 0.0
2018_01_05_S12 01/05/2018 22:45:00 0.0018
2018_01_05_S12 01/05/2018 22:50:00 0.0
2018_01_05_S12 01/05/2018 22:55:00 0.0
2018_01_05_S12 01/05/2018 23:00:00 0.0
2018_01_05_S12 01/05/2018 23:05:00 0.0
2018_01_05_S12 01/05/2018 23:10:00 0.0
2018_01_05_S12 01/05/2018 23:15:00 0.0
2018_01_05_S12 01/05/2018 23:20:00 0.0
2018_01_05_S12 01/05/2018 23:25:00 0.0
2018_01_05_S12 01/05/2018 23:30:00 0.0
2018_01_05_S12 01/05/2018 23:35:00 0.0
2018_01_05_S12 01/05/2018 23:40:00 0.0068
2018_01_05_S12 01/05/2018 23:45:00 0.0134
2018_01_05_S12 01/05/2018 23:50:00 0.0
2018_01_05_S12 01/05/2018 23:55:00 0.0
2018_01_05_S12 01/06/2018 00:00:00 0.0
2018_01_05_S12 01/06/2018 00:05:00 0.0
2018_01_05_S12 01/06/2018 00:10:00 0.0037
2018_01_05_S12 01/06/2018 00:15:00 0.1299
2018_01_05_S12 01/06/2018 00:20:00 0.0515
2018_01_05_S12 01/06/2018 00:25:00 0.0187
2018_01_05_S12 01/06/2018 00:30:00 0.0
2018_01_05_S12 01/06/2018 00:35:00 0.0
2018_01_05_S12 01/06/2018 00:40:00 0.0
2018_01_05_S12 01/06/2018 00:45:00 0.0
2018_01_05_S12 01/06/2018 00:50:00 0.0
2018_01_05_S12 01/06/2018 00:55:00 0.0
2018_01_05_S12 01/06/2018 01:00:00 0.0037
2018_01_05_S12 01/06/2018 01:05:00 0.0
2018_01_05_S12 01/06/2018 01:10:00 0.0203
2018_01_05_S12 01/06/2018 01:15:00 0.0
2018_01_05_S12 01/06/2018 01:20:00 0.0
2018_01_05_S12 01/06/2018 01:25:00 0.0
2018_01_05_S12 01/06/2018 01:30:00 0.0
2018_01_05_S12 01/06/2018 01:35:00 0.0
2018_01_05_S12 01/06/2018 01:40:00 0.0
2018_01_05_S12 01/06/2018 01:45:00 0.0
2018_01_05_S12 01/06/2018 01:50:00 0.0
2018_01_05_S12 01/06/2018 01:55:00 0.0
2018_01_05_S12 01/06/2018 02:00:00 0.0
2018_01_05_S12 01/06/2018 02:05:00 0.0
2018_01_05_S12 01/06/2018 02:10:00 0.0
2018_01_05_S12 01/06/2018 02:15:00 0.0
2018_01_05_S12 01/06/2018 02:20:00 0.0
2018_01_05_S12 01/06/2018 02:25:00 0.0
2018_01_05_S12 01/06/2018 02:30:00 0.0
2018_01_05_S12 01/06/2018 02:35:00 0.0
2018_01_05_S12 01/06/2018 02:40:00 0.0
2018_01_05_S12 01/06/2018 02:45:00 0.0
2018_01_05_S12 01/06/2018 02:50:00 0.0
2018_01_05_S12 01/06/2018 02:55:00 0.0
2018_01_05_S12 01/06/2018 03:00:00 0.0
2018_01_05_S12 01/06/2018 03:05:00 0.0
2018_01_05_S12 01/06/2018 03:10:00 0.0
2018_01_05_S12 01/06/2018 03:15:00 0.0106
2018_01_05_S12 01/06/2018 03:20:00 0.0
2018_01_05_S12 01/06/2018 03:25:00 0.0
2018_01_05_S12 01/06/2018 03:30:00 0.0
2018_01_05_S12 01/06/2018 03:35:00 0.0
2018_01_05_S12 01/06/2018 03:40:00 0.1937
2018_01_05_S12 01/06/2018 03:45:00 0.0832
2018_01_05_S12 01/06/2018 03:50:00 0.0
2018_01_05_S12 01/06/2018 03:55:00 0.0
2018_01_05_S12 01/06/2018 04:00:00 0.0
2018_01_05_S12 01/06/2018 04:05:00 0.0
2018_01_05_S12 01/06/2018 04:10:00 0.0
2018_01_05_S12 01/06/2018 04:15:00 0.0
2018_01_05_S12 01/06/2018 04:20:00 0.0047
2018_01_05_S12 01/06/2018 04:25:00 0.1302
2018_01_05_S12 01/06/2018 04:30:00 0.0042
2018_01_05_S12 01/06/2018 04:35:00 0.0
2018_01_05_S12 01/06/2018 04:40:00 0.0
2018_01_05_S12 01/06/2018 04:45:00 0.0
2018_01_05_S12 01/06/2018 04:50:00 0.0486
2018_01_05_S12 01/06/2018 04:55:00 0.0466
2018_01_05_S12 01/06/2018 05:00:00 0.0
2018_01_05_S12 01/06/2018 05:05:00 0.0
2018_01_05_S12 01/06/2018 05:10:00 0.0
2018_01_05_S12 01/06/2018 05:15:00 0.0
2018_01_05_S12 01/06/2018 05:20:00 0.0
2018_01_05_S12 01/06/2018 05:25:00 0.0385
2018_01_05_S12 01/06/2018 05:30:00 0.0058
2018_01_05_S12 01/06/2018 05:35:00 0.0
2018_01_05_S12 01/06/2018 05:40:00 0.0
2018_01_05_S12 01/06/2018 05:45:00 0.0
2018_01_05_S12 01/06/2018 05:50:00 0.0
2018_01_05_S12 01/06/2018 05:55:00 0.0
2018_01_05_S12 01/06/2018 06:00:00 0.0
2018_01_05_S12 01/06/2018 06:05:00 0.0005
2018_01_05_S12 01/06/2018 06:10:00 0.5176
2018_01_05_S12 01/06/2018 06:15:00 0.0105
2018_01_05_S12 01/06/2018 06:20:00 0.0522
2018_01_05_S12 01/06/2018 06:25:00 0.0219
2018_01_05_S12 01/06/2018 06:30:00 0.0
2018_01_05_S12 01/06/2018 06:35:00 0.0
2018_01_05_S12 01/06/2018 06:40:00 0.0042
2018_01_05_S12 01/06/2018 06:45:00 0.0004
2018_01_05_S12 01/06/2018 06:50:00 0.0014
2018_01_05_S12 01/06/2018 06:55:00 0.0119
2018_01_05_S12 01/06/2018 07:00:00 0.0098
2018_01_05_S12 01/06/2018 07:05:00 0.0437
2018_01_05_S12 01/06/2018 07:10:00 0.0045
2018_01_05_S12 01/06/2018 07:15:00 0.0
2018_01_05_S12 01/06/2018 07:20:00 0.0
2018_01_05_S12 01/06/2018 07:25:00 0.0
2018_01_05_S12 01/06/2018 07:30:00 0.0
2018_01_05_S12 01/06/2018 07:35:00 0.0
2018_01_05_S12 01/06/2018 07:40:00 0.0
2018_01_05_S12 01/06/2018 07:45:00 0.0
2018_01_05_S12 01/06/2018 07:50:00 0.0052
2018_01_05_S12 01/06/2018 07:55:00 0.0084
2018_01_05_S12 01/06/2018 08:00:00 0.005

2018_01_05_S13 01/04/2018 10:25:00 0.1006
2018_01_05_S13 01/04/2018 10:30:00 0.0299
2018_01_05_S13 01/04/2018 10:35:00 0.0097
2018_01_05_S13 01/04/2018 10:40:00 0.008
2018_01_05_S13 01/04/2018 10:45:00 0.2327
2018_01_05_S13 01/04/2018 10:50:00 0.0
2018_01_05_S13 01/04/2018 10:55:00 0.0
2018_01_05_S13 01/04/2018 11:00:00 0.0078
2018_01_05_S13 01/04/2018 11:05:00 0.8001
2018_01_05_S13 01/04/2018 11:10:00 0.0586
2018_01_05_S13 01/04/2018 11:15:00 1.3052
2018_01_05_S13 01/04/2018 11:20:00 0.1175
2018_01_05_S13 01/04/2018 11:25:00 0.1542
2018_01_05_S13 01/04/2018 11:30:00 0.0
2018_01_05_S13 01/04/2018 11:35:00 0.0
2018_01_05_S13 01/04/2018 11:40:00 0.0
2018_01_05_S13 01/04/2018 11:45:00 0.0
2018_01_05_S13 01/04/2018 11:50:00 0.0
2018_01_05_S13 01/04/2018 11:55:00 0.0
2018_01_05_S13 01/04/2018 12:00:00 0.0
2018_01_05_S13 01/04/2018 12:05:00 0.0
2018_01_05_S13 01/04/2018 12:10:00 0.0
2018_01_05_S13 01/04/2018 12:15:00 0.0
2018_01_05_S13 01/04/2018 12:20:00 0.0
2018_01_05_S13 01/04/2018 12:25:00 0.0034
2018_01_05_S13 01/04/2018 12:30:00 0.0
2018_01_05_S13 01/04/2018 12:35:00 0.0
2018_01_05_S13 01/04/2018 12:40:00 0.0
2018_01_05_S13 01/04/2018 12:45:00 0.0
2018_01_05_S13 01/04/2018 12:50:00 0.0
2018_01_05_S13 01/04/2018 12:55:00 0.0
2018_01_05_S13 01/04/2018 13:00:00 0.0
2018_01_05_S13 01/04/2018 13:05:00 0.0
2018_01_05_S13 01/04/2018 13:10:00 0.0
2018_01_05_S13 01/04/2018 13:15:00 0.0
2018_01_05_S13 01/04/2018 13:20:00 0.0
2018_01_05_S13 01/04/2018 13:25:00 0.0
2018_01_05_S13 01/04/2018 13:30:00 0.0
2018_01_05_S13 01/04/2018 13:35:00 0.0
2018_01_05_S13 01/04/2018 13:40:00 0.0
2018_01_05_S13 01/04/2018 13:45:00 0.0
2018_01_05_S13 01/04/2018 13:50:00 0.0
2018_01_05_S13 01/04/2018 13:55:00 0.0
2018_01_05_S13 01/04/2018 14:00:00 0.0
2018_01_05_S13 01/04/2018 14:05:00 0.0
2018_01_05_S13 01/04/2018 14:10:00 0.0
2018_01_05_S13 01/04/2018 14:15:00 0.0
2018_01_05_S13 01/04/2018 14:20:00 0.0
2018_01_05_S13 01/04/2018 14:25:00 0.0
2018_01_05_S13 01/04/2018 14:30:00 0.0
2018_01_05_S13 01/04/2018 14:35:00 0.367
2018_01_05_S13 01/04/2018 14:40:00 0.0023
2018_01_05_S13 01/04/2018 14:45:00 0.0
2018_01_05_S13 01/04/2018 14:50:00 0.0
2018_01_05_S13 01/04/2018 14:55:00 0.0
2018_01_05_S13 01/04/2018 15:00:00 0.0
2018_01_05_S13 01/04/2018 15:05:00 0.0
2018_01_05_S13 01/04/2018 15:10:00 0.0
2018_01_05_S13 01/04/2018 15:15:00 0.0
2018_01_05_S13 01/04/2018 15:20:00 0.0
2018_01_05_S13 01/04/2018 15:25:00 0.0006
2018_01_05_S13 01/04/2018 15:30:00 0.3279
2018_01_05_S13 01/04/2018 15:35:00 0.0896
2018_01_05_S13 01/04/2018 15:40:00 0.0
2018_01_05_S13 01/04/2018 15:45:00 0.0
2018_01_05_S13 01/04/2018 15:50:00 0.0
2018_01_05_S13 01/04/2018 15:55:00 0.0103
2018_01_05_S13 01/04/2018 16:00:00 0.0246
2018_01_05_S13 01/04/2018 16:05:00 0.1525
2018_01_05_S13 01/04/2018 16:10:00 0.0099
2018_01_05_S13 01/04/2018 16:15:00 0.153
2018_01_05_S13 01/04/2018 16:20:00 0.0269
2018_01_05_S13 01/04/2018 16:25:00 0.0
2018_01_05_S13 01/04/2018 16:30:00 0.0
2018_01_05_S13 01/04/2018 16:35:00 0.0
2018_01_05_S13 01/04/2018 16:40:00 0.0
2018_01_05_S13 01/04/2018 16:45:00 0.0
2018_01_05_S13 01/04/2018 16:50:00 0.0
2018_01_05_S13 01/04/2018 16:55:00 0.0
2018_01_05_S13 01/04/2018 17:00:00 0.0
2018_01_05_S13 01/04/2018 17:05:00 0.0
2018_01_05_S13 01/04/2018 17:10:00 0.2084
2018_01_05_S13 01/04/2018 17:15:00 0.0
2018_01_05_S13 01/04/2018 17:20:00 0.0
2018_01_05_S13 01/04/2018 17:25:00 0.0172
2018_01_05_S13 01/04/2018 17:30:00 0.125
2018_01_05_S13 01/04/2018 17:35:00 0.3105
2018_01_05_S13 01/04/2018 17:40:00 0.1076
2018_01_05_S13 01/04/2018 17:45:00 0.1002
2018_01_05_S13 01/04/2018 17:50:00 0.1427
2018_01_05_S13 01/04/2018 17:55:00 0.1266
2018_01_05_S13 01/04/2018 18:00:00 0.1352
2018_01_05_S13 01/04/2018 18:05:00 0.1351
2018_01_05_S13 01/04/2018 18:10:00 0.0227
2018_01_05_S13 01/04/2018 18:15:00 0.023
2018_01_05_S13 01/04/2018 18:20:00 0.0
2018_01_05_S13 01/04/2018 18:25:00 0.0
2018_01_05_S13 01/04/2018 18:30:00 0.0
2018_01_05_S13 01/04/2018 18:35:00 0.0
2018_01_05_S13 01/04/2018 18:40:00 0.0
2018_01_05_S13 01/04/2018 18:45:00 0.0
2018_01_05_S13 01/04/2018 18:50:00 0.0
2018_01_05_S13 01/04/2018 18:55:00 0.0
2018_01_05_S13 01/04/2018 19:00:00 0.0
2018_01_05_S13 01/04/2018 19:05:00 0.0
2018_01_05_S13 01/04/2018 19:10:00 0.0
2018_01_05_S13 01/04/2018 19:15:00 0.0
2018_01_05_S13 01/04/2018 19:20:00 0.0
2018_01_05_S13 01/04/2018 19:25:00 0.0
2018_01_05_S13 01/04/2018 19:30:00 0.0
2018_01_05_S13 01/04/2018 19:35:00 0.0
2018_01_05_S13 01/04/2018 19:40:00 0.0
2018_01_05_S13 01/04/2018 19:45:00 0.0
2018_01_05_S13 01/04/2018 19:50:00 0.0
2018_01_05_S13 01/04/2018 19:55:00 0.0
2018_01_05_S13 01/04/2018 20:00:00 0.0
2018_01_05_S13 01/04/2018 20:05:00 0.0
2018_01_05_S13 01/04/2018 20:10:00 0.0
2018_01_05_S13 01/04/2018 20:15:00 0.0
2018_01_05_S13 01/04/2018 20:20:00 0.0
2018_01_05_S13 01/04/2018 20:25:00 0.0021
2018_01_05_S13 01/04/2018 20:30:00 0.0058
2018_01_05_S13 01/04/2018 20:35:00 0.0
2018_01_05_S13 01/04/2018 20:40:00 0.0
2018_01_05_S13 01/04/2018 20:45:00 0.0
2018_01_05_S13 01/04/2018 20:50:00 0.0
2018_01_05_S13 01/04/2018 20:55:00 0.0
2018_01_05_S13 01/04/2018 21:00:00 0.0
2018_01_05_S13 01/04/2018 21:05:00 0.0
2018_01_05_S13 01/04/2018 21:10:00 0.0
2018_01_05_S13 01/04/2018 21:15:00 0.0
2018_01_05_S13 01/04/2018 21:20:00 0.0
2018_01_05_S13 01/04/2018 21:25:00 0.0059
2018_01_05_S13 01/04/2018 21:30:00 0.0709
2018_01_05_S13 01/04/2018 21:35:00 0.0566
2018_01_05_S13 01/04/2018 21:40:00 0.0593
2018_01_05_S13 01/04/2018 21:45:00 0.0001
2018_01_05_S13 01/04/2018 21:50:00 0.0
2018_01_05_S13 01/04/2018 21:55:00 0.0
2018_01_05_S13 01/04/2018 22:00:00 0.0
2018_01_05_S13 01/04/2018 22:05:00 0.0
2018_01_05_S13 01/04/2018 22:10:00 0.0
2018_01_05_S13 01/04/2018 22:15:00 0.0
2018_01_05_S13 01/04/2018 22:20:00 0.0
2018_01_05_S13 01/04/2018 22:25:00 0.0
2018_01_05_S13 01/04/2018 22:30:00 0.0
2018_01_05_S13 01/04/2018 22:35:00 0.0
2018_01_05_S13 01/04/2018 22:40:00 0.0
2018_01_05_S13 01/04/2018 22:45:00 0.0
2018_01_05_S13 01/04/2018 22:50:00 0.0
2018_01_05_S13 01/04/2018 22:55:00 0.0
2018_01_05_S13 01/04/2018 23:00:00 0.0
2018_01_05_S13 01/04/2018 23:05:00 0.0
2018_01_05_S13 01/04/2018 23:10:00 0.0
2018_01_05_S13 01/04/2018 23:15:00 0.0
2018_01_05_S13 01/04/2018 23:20:00 0.0
2018_01_05_S13 01/04/2018 23:25:00 0.0
2018_01_05_S13 01/04/2018 23:30:00 0.0
2018_01_05_S13 01/04/2018 23:35:00 0.0
2018_01_05_S13 01/04/2018 23:40:00 0.0
2018_01_05_S13 01/04/2018 23:45:00 0.0
2018_01_05_S13 01/04/2018 23:50:00 0.0
2018_01_05_S13 01/04/2018 23:55:00 0.0
2018_01_05_S13 01/05/2018 00:00:00 0.0
2018_01_05_S13 01/05/2018 00:05:00 0.0
2018_01_05_S13 01/05/2018 00:10:00 0.0
2018_01_05_S13 01/05/2018 00:15:00 0.0
2018_01_05_S13 01/05/2018 00:20:00 0.0
2018_01_05_S13 01/05/2018 00:25:00 0.0
2018_01_05_S13 01/05/2018 00:30:00 0.0
2018_01_05_S13 01/05/2018 00:35:00 0.0
2018_01_05_S13 01/05/2018 00:40:00 0.0
2018_01_05_S13 01/05/2018 00:45:00 0.0004
2018_01_05_S13 01/05/2018 00:50:00 0.0565
2018_01_05_S13 01/05/2018 00:55:00 0.013
2018_01_05_S13 01/05/2018 01:00:00 0.0038
2018_01_05_S13 01/05/2018 01:05:00 0.1357
2018_01_05_S13 01/05/2018 01:10:00 0.0545
2018_01_05_S13 01/05/2018 01:15:00 0.0039
2018_01_05_S13 01/05/2018 01:20:00 0.0446
2018_01_05_S13 01/05/2018 01:25:00 0.0094
2018_01_05_S13 01/05/2018 01:30:00 0.0231
2018_01_05_S13 01/05/2018 01:35:00 0.0165
2018_01_05_S13 01/05/2018 01:40:00 0.0016
2018_01_05_S13 01/05/2018 01:45:00 0.0833
2018_01_05_S13 01/05/2018 01:50:00 0.0335
2018_01_05_S13 01/05/2018 01:55:00 0.0212
2018_01_05_S13 01/05/2018 02:00:00 0.0147
2018_01_05_S13 01/05/2018 02:05:00 0.0099
2018_01_05_S13 01/05/2018 02:10:00 0.003
2018_01_05_S13 01/05/2018 02:15:00 0.1259
2018_01_05_S13 01/05/2018 02:20:00 0.0101
2018_01_05_S13 01/05/2018 02:25:00 0.0
2018_01_05_S13 01/05/2018 02:30:00 0.0
2018_01_05_S13 01/05/2018 02:35:00 0.0
2018_01_05_S13 01/05/2018 02:40:00 0.0
2018_01_05_S13 01/05/2018 02:45:00 0.0
2018_01_05_S13 01/05/2018 02:50:00 0.0
2018_01_05_S13 01/05/2018 02:55:00 0.0
2018_01_05_S13 01/05/2018 03:00:00 0.0
2018_01_05_S13 01/05/2018 03:05:00 0.159
2018_01_05_S13 01/05/2018 03:10:00 0.2499
2018_01_05_S13 01/05/2018 03:15:00 0.2392
2018_01_05_S13 01/05/2018 03:20:00 0.5544
2018_01_05_S13 01/05/2018 03:25:00 0.1992
2018_01_05_S13 01/05/2018 03:30:00 0.2258
2018_01_05_S13 01/05/2018 03:35:00 0.0918
2018_01_05_S13 01/05/2018 03:40:00 0.0007
2018_01_05_S13 01/05/2018 03:45:00 0.0098
2018_01_05_S13 01/05/2018 03:50:00 0.034
2018_01_05_S13 01/05/2018 03:55:00 0.0177
2018_01_05_S13 01/05/2018 04:00:00 0.0512
2018_01_05_S13 01/05/2018 04:05:00 0.0
2018_01_05_S13 01/05/2018 04:10:00 0.0104
2018_01_05_S13 01/05/2018 04:15:00 0.0212
2018_01_05_S13 01/05/2018 04:20:00 0.0033
2018_01_05_S13 01/05/2018 04:25:00 0.1725
2018_01_05_S13 01/05/2018 04:30:00 0.0012
2018_01_05_S13 01/05/2018 04:35:00 0.0502
2018_01_05_S13 01/05/2018 04:40:00 0.1574
2018_01_05_S13 01/05/2018 04:45:00 0.0744
2018_01_05_S13 01/05/2018 04:50:00 0.0669
2018_01_05_S13 01/05/2018 04:55:00 0.0119
2018_01_05_S13 01/05/2018 05:00:00 0.046
2018_01_05_S13 01/05/2018 05:05:00 0.0024
2018_01_05_S13 01/05/2018 05:10:00 0.0
2018_01_05_S13 01/05/2018 05:15:00 0.0
2018_01_05_S13 01/05/2018 05:20:00 0.0085
2018_01_05_S13 01/05/2018 05:25:00 0.0
2018_01_05_S13 01/05/2018 05:30:00 0.0051
2018_01_05_S13 01/05/2018 05:35:00 0.0
2018_01_05_S13 01/05/2018 05:40:00 0.0
2018_01_05_S13 01/05/2018 05:45:00 0.0039
2018_01_05_S13 01/05/2018 05:50:00 0.0
2018_01_05_S13 01/05/2018 05:55:00 0.0343
2018_01_05_S13 01/05/2018 06:00:00 0.2571
2018_01_05_S13 01/05/2018 06:05:00 0.1687
2018_01_05_S13 01/05/2018 06:10:00 0.0229
2018_01_05_S13 01/05/2018 06:15:00 0.0216
2018_01_05_S13 01/05/2018 06:20:00 0.8891
2018_01_05_S13 01/05/2018 06:25:00 4.1467
2018_01_05_S13 01/05/2018 06:30:00 1.7063
2018_01_05_S13 01/05/2018 06:35:00 2.5806
2018_01_05_S13 01/05/2018 06:40:00 0.4458
2018_01_05_S13 01/05/2018 06:45:00 1.1735
2018_01_05_S13 01/05/2018 06:50:00 1.1172
2018_01_05_S13 01/05/2018 06:55:00 0.5264
2018_01_05_S13 01/05/2018 07:00:00 0.3169
2018_01_05_S13 01/05/2018 07:05:00 0.1145
2018_01_05_S13 01/05/2018 07:10:00 0.0791
2018_01_05_S13 01/05/2018 07:15:00 0.0002
2018_01_05_S13 01/05/2018 07:20:00 0.0
2018_01_05_S13 01/05/2018 07:25:00 0.0
2018_01_05_S13 01/05/2018 07:30:00 0.0
2018_01_05_S13 01/05/2018 07:35:00 0.0
2018_01_05_S13 01/05/2018 07:40:00 0.0
2018_01_05_S13 01/05/2018 07:45:00 0.0
2018_01_05_S13 01/05/2018 07:50:00 0.0
2018_01_05_S13 01/05/2018 07:55:00 0.0
2018_01_05_S13 01/05/2018 08:00:00 0.0
2018_01_05_S13 01/05/2018 08:05:00 0.0
2018_01_05_S13 01/05/2018 08:10:00 0.0
2018_01_05_S13 01/05/2018 08:15:00 0.0
2018_01_05_S13 01/05/2018 08:20:00 0.0
2018_01_05_S13 01/05/2018 08:25:00 0.0014
2018_01_05_S13 01/05/2018 08:30:00 0.0079
2018_01_05_S13 01/05/2018 08:35:00 0.3184
2018_01_05_S13 01/05/2018 08:40:00 0.5507
2018_01_05_S13 01/05/2018 08:45:00 0.4679
2018_01_05_S13 01/05/2018 08:50:00 0.3622
2018_01_05_S13 01/05/2018 08:55:00 1.1267
2018_01_05_S13 01/05/2018 09:00:00 0.3404
2018_01_05_S13 01/05/2018 09:05:00 1.2565
2018_01_05_S13 01/05/2018 09:10:00 0.4336
2018_01_05_S13 01/05/2018 09:15:00 0.182
2018_01_05_S13 01/05/2018 09:20:00 0.0062
2018_01_05_S13 01/05/2018 09:25:00 0.0003
2018_01_05_S13 01/05/2018 09:30:00 0.0346
2018_01_05_S13 01/05/2018 09:35:00 0.4621
2018_01_05_S13 01/05/2018 09:40:00 0.7766
2018_01_05_S13 01/05/2018 09:45:00 1.6947
2018_01_05_S13 01/05/2018 09:50:00 2.9961
2018_01_05_S13 01/05/2018 09:55:00 0.4135
2018_01_05_S13 01/05/2018 10:00:00 0.0489
2018_01_05_S13 01/05/2018 10:05:00 0.1086
2018_01_05_S13 01/05/2018 10:10:00 0.0002
2018_01_05_S13 01/05/2018 10:15:00 0.0378
2018_01_05_S13 01/05/2018 10:20:00 0.0
2018_01_05_S13 01/05/2018 10:25:00 0.0801
2018_01_05_S13 01/05/2018 10:30:00 2.1972
2018_01_05_S13 01/05/2018 10:35:00 0.0167
2018_01_05_S13 01/05/2018 10:40:00 0.1463
2018_01_05_S13 01/05/2018 10:45:00 0.5803
2018_01_05_S13 01/05/2018 10:50:00 0.008
2018_01_05_S13 01/05/2018 10:55:00 0.0
2018_01_05_S13 01/05/2018 11:00:00 0.0026
2018_01_05_S13 01/05/2018 11:05:00 0.0474
2018_01_05_S13 01/05/2018 11:10:00 0.0781
2018_01_05_S13 01/05/2018 11:15:00 0.2004
2018_01_05_S13 01/05/2018 11:20:00 0.1485
2018_01_05_S13 01/05/2018 11:25:00 0.0901
2018_01_05_S13 01/05/2018 11:30:00 0.2214
2018_01_05_S13 01/05/2018 11:35:00 0.1933
2018_01_05_S13 01/05/2018 11:40:00 0.216
2018_01_05_S13 01/05/2018 11:45:00 0.0007
2018_01_05_S13 01/05/2018 11:50:00 0.0
2018_01_05_S13 01/05/2018 11:55:00 0.0864
2018_01_05_S13 01/05/2018 12:00:00 0.0115
2018_01_05_S13 01/05/2018 12:05:00 0.1559
2018_01_05_S13 01/05/2018 12:10:00 0.5451
2018_01_05_S13 01/05/2018 12:15:00 0.6897
2018_01_05_S13 01/05/2018 12:20:00 0.2436
2018_01_05_S13 01/05/2018 12:25:00 0.9338
2018_01_05_S13 01/05/2018 12:30:00 2.3514
2018_01_05_S13 01/05/2018 12:35:00 1.0016
2018_01_05_S13 01/05/2018 12:40:00 2.2737
2018_01_05_S13 01/05/2018 12:45:00 1.8731
2018_01_05_S13 01/05/2018 12:50:00 0.0236
2018_01_05_S13 01/05/2018 12:55:00 0.2035
2018_01_05_S13 01/05/2018 13:00:00 0.1048
2018_01_05_S13 01/05/2018 13:05:00 0.1688
2018_01_05_S13 01/05/2018 13:10:00 0.0
2018_01_05_S13 01/05/2018 13:15:00 0.0
2018_01_05_S13 01/05/2018 13:20:00 0.0003
2018_01_05_S13 01/05/2018 13:25:00 0.0315
2018_01_05_S13 01/05/2018 13:30:00 0.0257
2018_01_05_S13 01/05/2018 13:35:00 0.0001
2018_01_05_S13 01/05/2018 13:40:00 0.5587
2018_01_05_S13 01/05/2018 13:45:00 0.452
2018_01_05_S13 01/05/2018 13:50:00 0.6092
2018_01_05_S13 01/05/2018 13:55:00 0.058
2018_01_05_S13 01/05/2018 14:00:00 0.076
2018_01_05_S13 01/05/2018 14:05:00 0.0101
2018_01_05_S13 01/05/2018 14:10:00 0.263
2018_01_05_S13 01/05/2018 14:15:00 0.0162
2018_01_05_S13 01/05/2018 14:20:00 0.0
2018_01_05_S13 01/05/2018 14:25:00 0.0
2018_01_05_S13 01/05/2018 14:30:00 0.0
2018_01_05_S13 01/05/2018 14:35:00 0.0111
2018_01_05_S13 01/05/2018 14:40:00 0.0511
2018_01_05_S13 01/05/2018 14:45:00 2.1372
2018_01_05_S13 01/05/2018 14:50:00 1.6084
2018_01_05_S13 01/05/2018 14:55:00 0.0315
2018_01_05_S13 01/05/2018 15:00:00 1.8102
2018_01_05_S13 01/05/2018 15:05:00 0.0
2018_01_05_S13 01/05/2018 15:10:00 0.0534
2018_01_05_S13 01/05/2018 15:15:00 0.8301
2018_01_05_S13 01/05/2018 15:20:00 0.3272
2018_01_05_S13 01/05/2018 15:25:00 0.0
2018_01_05_S13 01/05/2018 15:30:00 0.0023
2018_01_05_S13 01/05/2018 15:35:00 0.0705
2018_01_05_S13 01/05/2018 15:40:00 0.0205
2018_01_05_S13 01/05/2018 15:45:00 0.0018
2018_01_05_S13 01/05/2018 15:50:00 0.0
2018_01_05_S13 01/05/2018 15:55:00 0.0
2018_01_05_S13 01/05/2018 16:00:00 0.0
2018_01_05_S13 01/05/2018 16:05:00 0.0
2018_01_05_S13 01/05/2018 16:10:00 0.0
2018_01_05_S13 01/05/2018 16:15:00 0.0
2018_01_05_S13 01/05/2018 16:20:00 0.0
2018_01_05_S13 01/05/2018 16:25:00 0.0
2018_01_05_S13 01/05/2018 16:30:00 0.0
2018_01_05_S13 01/05/2018 16:35:00 0.0
2018_01_05_S13 01/05/2018 16:40:00 0.0
2018_01_05_S13 01/05/2018 16:45:00 0.0
2018_01_05_S13 01/05/2018 16:50:00 0.0
2018_01_05_S13 01/05/2018 16:55:00 0.0
2018_01_05_S13 01/05/2018 17:00:00 0.0
2018_01_05_S13 01/05/2018 17:05:00 0.0
2018_01_05_S13 01/05/2018 17:10:00 0.0
2018_01_05_S13 01/05/2018 17:15:00 0.0
2018_01_05_S13 01/05/2018 17:20:00 0.0
2018_01_05_S13 01/05/2018 17:25:00 0.0
2018_01_05_S13 01/05/2018 17:30:00 0.0
2018_01_05_S13 01/05/2018 17:35:00 0.0
2018_01_05_S13 01/05/2018 17:40:00 0.0
2018_01_05_S13 01/05/2018 17:45:00 0.0
2018_01_05_S13 01/05/2018 17:50:00 0.0067
2018_01_05_S13 01/05/2018 17:55:00 0.1143
2018_01_05_S13 01/05/2018 18:00:00 0.0198
2018_01_05_S13 01/05/2018 18:05:00 0.0
2018_01_05_S13 01/05/2018 18:10:00 0.0
2018_01_05_S13 01/05/2018 18:15:00 0.0
2018_01_05_S13 01/05/2018 18:20:00 0.0031
2018_01_05_S13 01/05/2018 18:25:00 0.0227
2018_01_05_S13 01/05/2018 18:30:00 0.0
2018_01_05_S13 01/05/2018 18:35:00 0.0
2018_01_05_S13 01/05/2018 18:40:00 0.0
2018_01_05_S13 01/05/2018 18:45:00 0.0
2018_01_05_S13 01/05/2018 18:50:00 0.0
2018_01_05_S13 01/05/2018 18:55:00 0.0
2018_01_05_S13 01/05/2018 19:00:00 0.0
2018_01_05_S13 01/05/2018 19:05:00 0.0
2018_01_05_S13 01/05/2018 19:10:00 0.0
2018_01_05_S13 01/05/2018 19:15:00 0.0
2018_01_05_S13 01/05/2018 19:20:00 0.0
2018_01_05_S13 01/05/2018 19:25:00 0.0201
2018_01_05_S13 01/05/2018 19:30:00 0.0258
2018_01_05_S13 01/05/2018 19:35:00 0.0849
2018_01_05_S13 01/05/2018 19:40:00 0.0454
2018_01_05_S13 01/05/2018 19:45:00 0.0202
2018_01_05_S13 01/05/2018 19:50:00 0.667
2018_01_05_S13 01/05/2018 19:55:00 0.052
2018_01_05_S13 01/05/2018 20:00:00 0.0286
2018_01_05_S13 01/05/2018 20:05:00 0.001
2018_01_05_S13 01/05/2018 20:10:00 0.0
2018_01_05_S13 01/05/2018 20:15:00 0.0
2018_01_05_S13 01/05/2018 20:20:00 0.0
2018_01_05_S13 01/05/2018 20:25:00 0.0
2018_01_05_S13 01/05/2018 20:30:00 0.0
2018_01_05_S13 01/05/2018 20:35:00 0.0006
2018_01_05_S13 01/05/2018 20:40:00 0.0
2018_01_05_S13 01/05/2018 20:45:00 0.0
2018_01_05_S13 01/05/2018 20:50:00 0.0
2018_01_05_S13 01/05/2018 20:55:00 0.4305
2018_01_05_S13 01/05/2018 21:00:00 0.0085
2018_01_05_S13 01/05/2018 21:05:00 0.0
2018_01_05_S13 01/05/2018 21:10:00 0.0
2018_01_05_S13 01/05/2018 21:15:00 0.0
2018_01_05_S13 01/05/2018 21:20:00 0.0
2018_01_05_S13 01/05/2018 21:25:00 0.0
2018_01_05_S13 01/05/2018 21:30:00 0.0
2018_01_05_S13 01/05/2018 21:35:00 0.0007
2018_01_05_S13 01/05/2018 21:40:00 0.0356
2018_01_05_S13 01/05/2018 21:45:00 0.0
2018_01_05_S13 01/05/2018 21:50:00 0.0006
2018_01_05_S13 01/05/2018 21:55:00 0.0
2018_01_05_S13 01/05/2018 22:00:00 0.0
2018_01_05_S13 01/05/2018 22:05:00 0.005
2018_01_05_S13 01/05/2018 22:10:00 0.0
2018_01_05_S13 01/05/2018 22:15:00 0.0
2018_01_05_S13 01/05/2018 22:20:00 0.0
2018_01_05_S13 01/05/2018 22:25:00 0.0012
2018_01_05_S13 01/05/2018 22:30:00 0.0319
2018_01_05_S13 01/05/2018 22:35:00 0.0003
2018_01_05_S13 01/05/2018 22:40:00 0.0108
2018_01_05_S13 01/05/2018 22:45:00 0.0009
2018_01_05_S13 01/05/2018 22:50:00 0.0
2018_01_05_S13 01/05/2018 22:55:00 0.0
2018_01_05_S13 01/05/2018 23:00:00 0.0
2018_01_05_S13 01/05/2018 23:05:00 0.0
2018_01_05_S13 01/05/2018 23:10:00 0.0
2018_01_05_S13 01/05/2018 23:15:00 0.0
2018_01_05_S13 01/05/2018 23:20:00 0.0
2018_01_05_S13 01/05/2018 23:25:00 0.0
2018_01_05_S13 01/05/2018 23:30:00 0.0
2018_01_05_S13 01/05/2018 23:35:00 0.0
2018_01_05_S13 01/05/2018 23:40:00 0.0012
2018_01_05_S13 01/05/2018 23:45:00 0.0204
2018_01_05_S13 01/05/2018 23:50:00 0.0055
2018_01_05_S13 01/05/2018 23:55:00 0.0
2018_01_05_S13 01/06/2018 00:00:00 0.0023
2018_01_05_S13 01/06/2018 00:05:00 0.0
2018_01_05_S13 01/06/2018 00:10:00 0.0158
2018_01_05_S13 01/06/2018 00:15:00 0.2546
2018_01_05_S13 01/06/2018 00:20:00 0.0146
2018_01_05_S13 01/06/2018 00:25:00 0.005
2018_01_05_S13 01/06/2018 00:30:00 0.0
2018_01_05_S13 01/06/2018 00:35:00 0.0
2018_01_05_S13 01/06/2018 00:40:00 0.0
2018_01_05_S13 01/06/2018 00:45:00 0.0
2018_01_05_S13 01/06/2018 00:50:00 0.0
2018_01_05_S13 01/06/2018 00:55:00 0.0
2018_01_05_S13 01/06/2018 01:00:00 0.0246
2018_01_05_S13 01/06/2018 01:05:00 0.0
2018_01_05_S13 01/06/2018 01:10:00 0.022
2018_01_05_S13 01/06/2018 01:15:00 0.0004
2018_01_05_S13 01/06/2018 01:20:00 0.0
2018_01_05_S13 01/06/2018 01:25:00 0.0
2018_01_05_S13 01/06/2018 01:30:00 0.0
2018_01_05_S13 01/06/2018 01:35:00 0.0
2018_01_05_S13 01/06/2018 01:40:00 0.0
2018_01_05_S13 01/06/2018 01:45:00 0.0
2018_01_05_S13 01/06/2018 01:50:00 0.0
2018_01_05_S13 01/06/2018 01:55:00 0.0
2018_01_05_S13 01/06/2018 02:00:00 0.0
2018_01_05_S13 01/06/2018 02:05:00 0.0
2018_01_05_S13 01/06/2018 02:10:00 0.0
2018_01_05_S13 01/06/2018 02:15:00 0.0
2018_01_05_S13 01/06/2018 02:20:00 0.0
2018_01_05_S13 01/06/2018 02:25:00 0.0
2018_01_05_S13 01/06/2018 02:30:00 0.0
2018_01_05_S13 01/06/2018 02:35:00 0.0
2018_01_05_S13 01/06/2018 02:40:00 0.0
2018_01_05_S13 01/06/2018 02:45:00 0.0
2018_01_05_S13 01/06/2018 02:50:00 0.0
2018_01_05_S13 01/06/2018 02:55:00 0.0
2018_01_05_S13 01/06/2018 03:00:00 0.0
2018_01_05_S13 01/06/2018 03:05:00 0.0
2018_01_05_S13 01/06/2018 03:10:00 0.0
2018_01_05_S13 01/06/2018 03:15:00 0.0001
2018_01_05_S13 01/06/2018 03:20:00 0.0
2018_01_05_S13 01/06/2018 03:25:00 0.0
2018_01_05_S13 01/06/2018 03:30:00 0.0
2018_01_05_S13 01/06/2018 03:35:00 0.0
2018_01_05_S13 01/06/2018 03:40:00 0.0737
2018_01_05_S13 01/06/2018 03:45:00 0.7419
2018_01_05_S13 01/06/2018 03:50:00 0.0
2018_01_05_S13 01/06/2018 03:55:00 0.0
2018_01_05_S13 01/06/2018 04:00:00 0.0
2018_01_05_S13 01/06/2018 04:05:00 0.0
2018_01_05_S13 01/06/2018 04:10:00 0.0
2018_01_05_S13 01/06/2018 04:15:00 0.0
2018_01_05_S13 01/06/2018 04:20:00 0.0163
2018_01_05_S13 01/06/2018 04:25:00 0.0802
2018_01_05_S13 01/06/2018 04:30:00 0.0043
2018_01_05_S13 01/06/2018 04:35:00 0.0
2018_01_05_S13 01/06/2018 04:40:00 0.0
2018_01_05_S13 01/06/2018 04:45:00 0.0
2018_01_05_S13 01/06/2018 04:50:00 0.0035
2018_01_05_S13 01/06/2018 04:55:00 0.01
2018_01_05_S13 01/06/2018 05:00:00 0.0
2018_01_05_S13 01/06/2018 05:05:00 0.0
2018_01_05_S13 01/06/2018 05:10:00 0.0
2018_01_05_S13 01/06/2018 05:15:00 0.0
2018_01_05_S13 01/06/2018 05:20:00 0.0
2018_01_05_S13 01/06/2018 05:25:00 0.0314
2018_01_05_S13 01/06/2018 05:30:00 0.0007
2018_01_05_S13 01/06/2018 05:35:00 0.0588
2018_01_05_S13 01/06/2018 05:40:00 0.0124
2018_01_05_S13 01/06/2018 05:45:00 0.0007
2018_01_05_S13 01/06/2018 05:50:00 0.0
2018_01_05_S13 01/06/2018 05:55:00 0.0
2018_01_05_S13 01/06/2018 06:00:00 0.0
2018_01_05_S13 01/06/2018 06:05:00 0.0027
2018_01_05_S13 01/06/2018 06:10:00 0.1947
2018_01_05_S13 01/06/2018 06:15:00 0.037
2018_01_05_S13 01/06/2018 06:20:00 0.0601
2018_01_05_S13 01/06/2018 06:25:00 0.0104
2018_01_05_S13 01/06/2018 06:30:00 0.0001
2018_01_05_S13 01/06/2018 06:35:00 0.0
2018_01_05_S13 01/06/2018 06:40:00 0.0048
2018_01_05_S13 01/06/2018 06:45:00 0.0049
2018_01_05_S13 01/06/2018 06:50:00 0.0094
2018_01_05_S13 01/06/2018 06:55:00 0.0128
2018_01_05_S13 01/06/2018 07:00:00 0.0205
2018_01_05_S13 01/06/2018 07:05:00 0.0328
2018_01_05_S13 01/06/2018 07:10:00 0.0018
2018_01_05_S13 01/06/2018 07:15:00 0.0
2018_01_05_S13 01/06/2018 07:20:00 0.0
2018_01_05_S13 01/06/2018 07:25:00 0.0
2018_01_05_S13 01/06/2018 07:30:00 0.0
2018_01_05_S13 01/06/2018 07:35:00 0.0014
2018_01_05_S13 01/06/2018 07:40:00 0.0
2018_01_05_S13 01/06/2018 07:45:00 0.0001
2018_01_05_S13 01/06/2018 07:50:00 0.0023
2018_01_05_S13 01/06/2018 07:55:00 0.0272
2018_01_05_S13 01/06/2018 08:00:00 0.0032

2018_01_05_S14 01/04/2018 10:25:00 0.1705
2018_01_05_S14 01/04/2018 10:30:00 0.1084
2018_01_05_S14 01/04/2018 10:35:00 0.0036
2018_01_05_S14 01/04/2018 10:40:00 0.0
2018_01_05_S14 01/04/2018 10:45:00 0.0037
2018_01_05_S14 01/04/2018 10:50:00 0.0001
2018_01_05_S14 01/04/2018 10:55:00 0.0
2018_01_05_S14 01/04/2018 11:00:00 0.0
2018_01_05_S14 01/04/2018 11:05:00 2.439
2018_01_05_S14 01/04/2018 11:10:00 0.0119
2018_01_05_S14 01/04/2018 11:15:00 3.0017
2018_01_05_S14 01/04/2018 11:20:00 0.0754
2018_01_05_S14 01/04/2018 11:25:00 0.1783
2018_01_05_S14 01/04/2018 11:30:00 0.0
2018_01_05_S14 01/04/2018 11:35:00 0.0
2018_01_05_S14 01/04/2018 11:40:00 0.0
2018_01_05_S14 01/04/2018 11:45:00 0.0
2018_01_05_S14 01/04/2018 11:50:00 0.0
2018_01_05_S14 01/04/2018 11:55:00 0.0
2018_01_05_S14 01/04/2018 12:00:00 0.0
2018_01_05_S14 01/04/2018 12:05:00 0.0
2018_01_05_S14 01/04/2018 12:10:00 0.0
2018_01_05_S14 01/04/2018 12:15:00 0.0
2018_01_05_S14 01/04/2018 12:20:00 0.0
2018_01_05_S14 01/04/2018 12:25:00 0.0
2018_01_05_S14 01/04/2018 12:30:00 0.002
2018_01_05_S14 01/04/2018 12:35:00 0.0
2018_01_05_S14 01/04/2018 12:40:00 0.0
2018_01_05_S14 01/04/2018 12:45:00 0.0
2018_01_05_S14 01/04/2018 12:50:00 0.0
2018_01_05_S14 01/04/2018 12:55:00 0.0
2018_01_05_S14 01/04/2018 13:00:00 0.0
2018_01_05_S14 01/04/2018 13:05:00 0.0
2018_01_05_S14 01/04/2018 13:10:00 0.0
2018_01_05_S14 01/04/2018 13:15:00 0.0
2018_01_05_S14 01/04/2018 13:20:00 0.0
2018_01_05_S14 01/04/2018 13:25:00 0.0
2018_01_05_S14 01/04/2018 13:30:00 0.0
2018_01_05_S14 01/04/2018 13:35:00 0.0
2018_01_05_S14 01/04/2018 13:40:00 0.0
2018_01_05_S14 01/04/2018 13:45:00 0.0
2018_01_05_S14 01/04/2018 13:50:00 0.0
2018_01_05_S14 01/04/2018 13:55:00 0.0
2018_01_05_S14 01/04/2018 14:00:00 0.0
2018_01_05_S14 01/04/2018 14:05:00 0.0
2018_01_05_S14 01/04/2018 14:10:00 0.0
2018_01_05_S14 01/04/2018 14:15:00 0.0
2018_01_05_S14 01/04/2018 14:20:00 0.0
2018_01_05_S14 01/04/2018 14:25:00 0.001
2018_01_05_S14 01/04/2018 14:30:00 0.0
2018_01_05_S14 01/04/2018 14:35:00 0.0375
2018_01_05_S14 01/04/2018 14:40:00 0.0012
2018_01_05_S14 01/04/2018 14:45:00 0.0
2018_01_05_S14 01/04/2018 14:50:00 0.0
2018_01_05_S14 01/04/2018 14:55:00 0.0
2018_01_05_S14 01/04/2018 15:00:00 0.0
2018_01_05_S14 01/04/2018 15:05:00 0.0
2018_01_05_S14 01/04/2018 15:10:00 0.0
2018_01_05_S14 01/04/2018 15:15:00 0.0
2018_01_05_S14 01/04/2018 15:20:00 0.0
2018_01_05_S14 01/04/2018 15:25:00 0.0
2018_01_05_S14 01/04/2018 15:30:00 0.0112
2018_01_05_S14 01/04/2018 15:35:00 0.0797
2018_01_05_S14 01/04/2018 15:40:00 0.0
2018_01_05_S14 01/04/2018 15:45:00 0.0
2018_01_05_S14 01/04/2018 15:50:00 0.0
2018_01_05_S14 01/04/2018 15:55:00 0.024
2018_01_05_S14 01/04/2018 16:00:00 0.0436
2018_01_05_S14 01/04/2018 16:05:00 0.0308
2018_01_05_S14 01/04/2018 16:10:00 0.0
2018_01_05_S14 01/04/2018 16:15:00 0.0498
2018_01_05_S14 01/04/2018 16:20:00 0.0539
2018_01_05_S14 01/04/2018 16:25:00 0.0
2018_01_05_S14 01/04/2018 16:30:00 0.0
2018_01_05_S14 01/04/2018 16:35:00 0.0
2018_01_05_S14 01/04/2018 16:40:00 0.0
2018_01_05_S14 01/04/2018 16:45:00 0.0
2018_01_05_S14 01/04/2018 16:50:00 0.0
2018_01_05_S14 01/04/2018 16:55:00 0.0
2018_01_05_S14 01/04/2018 17:00:00 0.0003
2018_01_05_S14 01/04/2018 17:05:00 0.0
2018_01_05_S14 01/04/2018 17:10:00 0.11
2018_01_05_S14 01/04/2018 17:15:00 0.0
2018_01_05_S14 01/04/2018 17:20:00 0.0
2018_01_05_S14 01/04/2018 17:25:00 0.0
2018_01_05_S14 01/04/2018 17:30:00 0.1423
2018_01_05_S14 01/04/2018 17:35:00 0.2974
2018_01_05_S14 01/04/2018 17:40:00 0.3518
2018_01_05_S14 01/04/2018 17:45:00 0.1447
2018_01_05_S14 01/04/2018 17:50:00 0.1286
2018_01_05_S14 01/04/2018 17:55:00 0.149
2018_01_05_S14 01/04/2018 18:00:00 0.1953
2018_01_05_S14 01/04/2018 18:05:00 0.181
2018_01_05_S14 01/04/2018 18:10:00 0.0398
2018_01_05_S14 01/04/2018 18:15:00 0.0426
2018_01_05_S14 01/04/2018 18:20:00 0.0004
2018_01_05_S14 01/04/2018 18:25:00 0.0
2018_01_05_S14 01/04/2018 18:30:00 0.0
2018_01_05_S14 01/04/2018 18:35:00 0.0
2018_01_05_S14 01/04/2018 18:40:00 0.0
2018_01_05_S14 01/04/2018 18:45:00 0.0
2018_01_05_S14 01/04/2018 18:50:00 0.0
2018_01_05_S14 01/04/2018 18:55:00 0.0
2018_01_05_S14 01/04/2018 19:00:00 0.0
2018_01_05_S14 01/04/2018 19:05:00 0.0
2018_01_05_S14 01/04/2018 19:10:00 0.0
2018_01_05_S14 01/04/2018 19:15:00 0.0
2018_01_05_S14 01/04/2018 19:20:00 0.0
2018_01_05_S14 01/04/2018 19:25:00 0.0
2018_01_05_S14 01/04/2018 19:30:00 0.0
2018_01_05_S14 01/04/2018 19:35:00 0.0
2018_01_05_S14 01/04/2018 19:40:00 0.0
2018_01_05_S14 01/04/2018 19:45:00 0.0
2018_01_05_S14 01/04/2018 19:50:00 0.0
2018_01_05_S14 01/04/2018 19:55:00 0.0
2018_01_05_S14 01/04/2018 20:00:00 0.0
2018_01_05_S14 01/04/2018 20:05:00 0.0
2018_01_05_S14 01/04/2018 20:10:00 0.0
2018_01_05_S14 01/04/2018 20:15:00 0.0
2018_01_05_S14 01/04/2018 20:20:00 0.0
2018_01_05_S14 01/04/2018 20:25:00 0.0024
2018_01_05_S14 01/04/2018 20:30:00 0.0
2018_01_05_S14 01/04/2018 20:35:00 0.0
2018_01_05_S14 01/04/2018 20:40:00 0.0
2018_01_05_S14 01/04/2018 20:45:00 0.0
2018_01_05_S14 01/04/2018 20:50:00 0.0
2018_01_05_S14 01/04/2018 20:55:00 0.0
2018_01_05_S14 01/04/2018 21:00:00 0.0
2018_01_05_S14 01/04/2018 21:05:00 0.0
2018_01_05_S14 01/04/2018 21:10:00 0.0
2018_01_05_S14 01/04/2018 21:15:00 0.0
2018_01_05_S14 01/04/2018 21:20:00 0.0
2018_01_05_S14 01/04/2018 21:25:00 0.0091
2018_01_05_S14 01/04/2018 21:30:00 0.1008
2018_01_05_S14 01/04/2018 21:35:00 0.1481
2018_01_05_S14 01/04/2018 21:40:00 0.1662
2018_01_05_S14 01/04/2018 21:45:00 0.0025
2018_01_05_S14 01/04/2018 21:50:00 0.0
2018_01_05_S14 01/04/2018 21:55:00 0.0
2018_01_05_S14 01/04/2018 22:00:00 0.0
2018_01_05_S14 01/04/2018 22:05:00 0.0
2018_01_05_S14 01/04/2018 22:10:00 0.0
2018_01_05_S14 01/04/2018 22:15:00 0.0
2018_01_05_S14 01/04/2018 22:20:00 0.0
2018_01_05_S14 01/04/2018 22:25:00 0.0
2018_01_05_S14 01/04/2018 22:30:00 0.0
2018_01_05_S14 01/04/2018 22:35:00 0.0
2018_01_05_S14 01/04/2018 22:40:00 0.0
2018_01_05_S14 01/04/2018 22:45:00 0.0
2018_01_05_S14 01/04/2018 22:50:00 0.0
2018_01_05_S14 01/04/2018 22:55:00 0.0
2018_01_05_S14 01/04/2018 23:00:00 0.0
2018_01_05_S14 01/04/2018 23:05:00 0.0
2018_01_05_S14 01/04/2018 23:10:00 0.0
2018_01_05_S14 01/04/2018 23:15:00 0.0
2018_01_05_S14 01/04/2018 23:20:00 0.0
2018_01_05_S14 01/04/2018 23:25:00 0.0
2018_01_05_S14 01/04/2018 23:30:00 0.0
2018_01_05_S14 01/04/2018 23:35:00 0.0
2018_01_05_S14 01/04/2018 23:40:00 0.0
2018_01_05_S14 01/04/2018 23:45:00 0.0
2018_01_05_S14 01/04/2018 23:50:00 0.0
2018_01_05_S14 01/04/2018 23:55:00 0.0
2018_01_05_S14 01/05/2018 00:00:00 0.0
2018_01_05_S14 01/05/2018 00:05:00 0.0
2018_01_05_S14 01/05/2018 00:10:00 0.0
2018_01_05_S14 01/05/2018 00:15:00 0.0
2018_01_05_S14 01/05/2018 00:20:00 0.0
2018_01_05_S14 01/05/2018 00:25:00 0.0
2018_01_05_S14 01/05/2018 00:30:00 0.0
2018_01_05_S14 01/05/2018 00:35:00 0.0
2018_01_05_S14 01/05/2018 00:40:00 0.0
2018_01_05_S14 01/05/2018 00:45:00 0.0
2018_01_05_S14 01/05/2018 00:50:00 0.0469
2018_01_05_S14 01/05/2018 00:55:00 0.0369
2018_01_05_S14 01/05/2018 01:00:00 0.0015
2018_01_05_S14 01/05/2018 01:05:00 0.1758
2018_01_05_S14 01/05/2018 01:10:00 0.0802
2018_01_05_S14 01/05/2018 01:15:00 0.0052
2018_01_05_S14 01/05/2018 01:20:00 0.0203
2018_01_05_S14 01/05/2018 01:25:00 0.0218
2018_01_05_S14 01/05/2018 01:30:00 0.0085
2018_01_05_S14 01/05/2018 01:35:00 0.0122
2018_01_05_S14 01/05/2018 01:40:00 0.0
2018_01_05_S14 01/05/2018 01:45:00 0.033
2018_01_05_S14 01/05/2018 01:50:00 0.0262
2018_01_05_S14 01/05/2018 01:55:00 0.0108
2018_01_05_S14 01/05/2018 02:00:00 0.0143
2018_01_05_S14 01/05/2018 02:05:00 0.0159
2018_01_05_S14 01/05/2018 02:10:00 0.0044
2018_01_05_S14 01/05/2018 02:15:00 0.0355
2018_01_05_S14 01/05/2018 02:20:00 0.0056
2018_01_05_S14 01/05/2018 02:25:00 0.0
2018_01_05_S14 01/05/2018 02:30:00 0.0
2018_01_05_S14 01/05/2018 02:35:00 0.0
2018_01_05_S14 01/05/2018 02:40:00 0.0
2018_01_05_S14 01/05/2018 02:45:00 0.0
2018_01_05_S14 01/05/2018 02:50:00 0.0
2018_01_05_S14 01/05/2018 02:55:00 0.0
2018_01_05_S14 01/05/2018 03:00:00 0.0
2018_01_05_S14 01/05/2018 03:05:00 0.186
2018_01_05_S14 01/05/2018 03:10:00 0.3274
2018_01_05_S14 01/05/2018 03:15:00 0.2758
2018_01_05_S14 01/05/2018 03:20:00 0.7447
2018_01_05_S14 01/05/2018 03:25:00 0.2936
2018_01_05_S14 01/05/2018 03:30:00 0.3338
2018_01_05_S14 01/05/2018 03:35:00 0.117
2018_01_05_S14 01/05/2018 03:40:00 0.0
2018_01_05_S14 01/05/2018 03:45:00 0.0131
2018_01_05_S14 01/05/2018 03:50:00 0.0477
2018_01_05_S14 01/05/2018 03:55:00 0.0151
2018_01_05_S14 01/05/2018 04:00:00 0.0608
2018_01_05_S14 01/05/2018 04:05:00 0.0
2018_01_05_S14 01/05/2018 04:10:00 0.0
2018_01_05_S14 01/05/2018 04:15:00 0.0069
2018_01_05_S14 01/05/2018 04:20:00 0.0097
2018_01_05_S14 01/05/2018 04:25:00 0.156
2018_01_05_S14 01/05/2018 04:30:00 0.0181
2018_01_05_S14 01/05/2018 04:35:00 0.0278
2018_01_05_S14 01/05/2018 04:40:00 0.0479
2018_01_05_S14 01/05/2018 04:45:00 0.0926
2018_01_05_S14 01/05/2018 04:50:00 0.0411
2018_01_05_S14 01/05/2018 04:55:00 0.0048
2018_01_05_S14 01/05/2018 05:00:00 0.0723
2018_01_05_S14 01/05/2018 05:05:00 0.0003
2018_01_05_S14 01/05/2018 05:10:00 0.0
2018_01_05_S14 01/05/2018 05:15:00 0.0
2018_01_05_S14 01/05/2018 05:20:00 0.0121
2018_01_05_S14 01/05/2018 05:25:00 0.0
2018_01_05_S14 01/05/2018 05:30:00 0.0051
2018_01_05_S14 01/05/2018 05:35:00 0.0
2018_01_05_S14 01/05/2018 05:40:00 0.0
2018_01_05_S14 01/05/2018 05:45:00 0.0012
2018_01_05_S14 01/05/2018 05:50:00 0.0
2018_01_05_S14 01/05/2018 05:55:00 0.0208
2018_01_05_S14 01/05/2018 06:00:00 0.2561
2018_01_05_S14 01/05/2018 06:05:00 0.1885
2018_01_05_S14 01/05/2018 06:10:00 0.0124
2018_01_05_S14 01/05/2018 06:15:00 0.0154
2018_01_05_S14 01/05/2018 06:20:00 1.4399
2018_01_05_S14 01/05/2018 06:25:00 4.327
2018_01_05_S14 01/05/2018 06:30:00 1.3488
2018_01_05_S14 01/05/2018 06:35:00 2.5202
2018_01_05_S14 01/05/2018 06:40:00 0.4323
2018_01_05_S14 01/05/2018 06:45:00 0.929
2018_01_05_S14 01/05/2018 06:50:00 1.1997
2018_01_05_S14 01/05/2018 06:55:00 0.339
2018_01_05_S14 01/05/2018 07:00:00 0.2569
2018_01_05_S14 01/05/2018 07:05:00 0.1387
2018_01_05_S14 01/05/2018 07:10:00 0.185
2018_01_05_S14 01/05/2018 07:15:00 0.0
2018_01_05_S14 01/05/2018 07:20:00 0.0
2018_01_05_S14 01/05/2018 07:25:00 0.0
2018_01_05_S14 01/05/2018 07:30:00 0.0
2018_01_05_S14 01/05/2018 07:35:00 0.0
2018_01_05_S14 01/05/2018 07:40:00 0.0
2018_01_05_S14 01/05/2018 07:45:00 0.0
2018_01_05_S14 01/05/2018 07:50:00 0.0
2018_01_05_S14 01/05/2018 07:55:00 0.0
2018_01_05_S14 01/05/2018 08:00:00 0.0
2018_01_05_S14 01/05/2018 08:05:00 0.0
2018_01_05_S14 01/05/2018 08:10:00 0.0
2018_01_05_S14 01/05/2018 08:15:00 0.0
2018_01_05_S14 01/05/2018 08:20:00 0.0
2018_01_05_S14 01/05/2018 08:25:00 0.0101
2018_01_05_S14 01/05/2018 08:30:00 0.0455
2018_01_05_S14 01/05/2018 08:35:00 0.2248
2018_01_05_S14 01/05/2018 08:40:00 0.5072
2018_01_05_S14 01/05/2018 08:45:00 0.8333
2018_01_05_S14 01/05/2018 08:50:00 0.38
2018_01_05_S14 01/05/2018 08:55:00 1.4508
2018_01_05_S14 01/05/2018 09:00:00 0.3598
2018_01_05_S14 01/05/2018 09:05:00 0.9176
2018_01_05_S14 01/05/2018 09:10:00 0.5984
2018_01_05_S14 01/05/2018 09:15:00 0.1648
2018_01_05_S14 01/05/2018 09:20:00 0.0116
2018_01_05_S14 01/05/2018 09:25:00 0.0
2018_01_05_S14 01/05/2018 09:30:00 0.009
2018_01_05_S14 01/05/2018 09:35:00 0.0974
2018_01_05_S14 01/05/2018 09:40:00 1.4187
2018_01_05_S14 01/05/2018 09:45:00 1.2045
2018_01_05_S14 01/05/2018 09:50:00 1.5374
2018_01_05_S14 01/05/2018 09:55:00 1.8322
2018_01_05_S14 01/05/2018 10:00:00 0.1089
2018_01_05_S14 01/05/2018 10:05:00 0.0613
2018_01_05_S14 01/05/2018 10:10:00 0.0
2018_01_05_S14 01/05/2018 10:15:00 0.0
2018_01_05_S14 01/05/2018 10:20:00 0.0
2018_01_05_S14 01/05/2018 10:25:00 0.0802
2018_01_05_S14 01/05/2018 10:30:00 3.4986
2018_01_05_S14 01/05/2018 10:35:00 0.0141
2018_01_05_S14 01/05/2018 10:40:00 0.1548
2018_01_05_S14 01/05/2018 10:45:00 0.8612
2018_01_05_S14 01/05/2018 10:50:00 0.0367
2018_01_05_S14 01/05/2018 10:55:00 0.0
2018_01_05_S14 01/05/2018 11:00:00 0.0152
2018_01_05_S14 01/05/2018 11:05:00 0.0458
2018_01_05_S14 01/05/2018 11:10:00 0.1337
2018_01_05_S14 01/05/2018 11:15:00 0.1758
2018_01_05_S14 01/05/2018 11:20:00 0.1791
2018_01_05_S14 01/05/2018 11:25:00 0.1124
2018_01_05_S14 01/05/2018 11:30:00 0.2073
2018_01_05_S14 01/05/2018 11:35:00 0.252
2018_01_05_S14 01/05/2018 11:40:00 0.1298
2018_01_05_S14 01/05/2018 11:45:00 0.0065
2018_01_05_S14 01/05/2018 11:50:00 0.0
2018_01_05_S14 01/05/2018 11:55:00 0.0003
2018_01_05_S14 01/05/2018 12:00:00 0.0149
2018_01_05_S14 01/05/2018 12:05:00 0.1649
2018_01_05_S14 01/05/2018 12:10:00 0.6668
2018_01_05_S14 01/05/2018 12:15:00 0.9068
2018_01_05_S14 01/05/2018 12:20:00 0.2572
2018_01_05_S14 01/05/2018 12:25:00 0.6139
2018_01_05_S14 01/05/2018 12:30:00 0.578
2018_01_05_S14 01/05/2018 12:35:00 0.4516
2018_01_05_S14 01/05/2018 12:40:00 2.0552
2018_01_05_S14 01/05/2018 12:45:00 2.5542
2018_01_05_S14 01/05/2018 12:50:00 0.1205
2018_01_05_S14 01/05/2018 12:55:00 0.2263
2018_01_05_S14 01/05/2018 13:00:00 0.0828
2018_01_05_S14 01/05/2018 13:05:00 0.4223
2018_01_05_S14 01/05/2018 13:10:00 0.0
2018_01_05_S14 01/05/2018 13:15:00 0.0
2018_01_05_S14 01/05/2018 13:20:00 0.0
2018_01_05_S14 01/05/2018 13:25:00 0.0138
2018_01_05_S14 01/05/2018 13:30:00 0.0257
2018_01_05_S14 01/05/2018 13:35:00 0.0046
2018_01_05_S14 01/05/2018 13:40:00 0.104
2018_01_05_S14 01/05/2018 13:45:00 0.6208
2018_01_05_S14 01/05/2018 13:50:00 0.263
2018_01_05_S14 01/05/2018 13:55:00 0.0798
2018_01_05_S14 01/05/2018 14:00:00 0.2452
2018_01_05_S14 01/05/2018 14:05:00 0.1591
2018_01_05_S14 01/05/2018 14:10:00 0.3978
2018_01_05_S14 01/05/2018 14:15:00 0.0422
2018_01_05_S14 01/05/2018 14:20:00 0.0
2018_01_05_S14 01/05/2018 14:25:00 0.0
2018_01_05_S14 01/05/2018 14:30:00 0.0
2018_01_05_S14 01/05/2018 14:35:00 0.0155
2018_01_05_S14 01/05/2018 14:40:00 0.041
2018_01_05_S14 01/05/2018 14:45:00 1.6522
2018_01_05_S14 01/05/2018 14:50:00 0.08
2018_01_05_S14 01/05/2018 14:55:00 0.0143
2018_01_05_S14 01/05/2018 15:00:00 0.0
2018_01_05_S14 01/05/2018 15:05:00 0.0
2018_01_05_S14 01/05/2018 15:10:00 0.0848
2018_01_05_S14 01/05/2018 15:15:00 0.3992
2018_01_05_S14 01/05/2018 15:20:00 0.2913
2018_01_05_S14 01/05/2018 15:25:00 0.0
2018_01_05_S14 01/05/2018 15:30:00 0.0
2018_01_05_S14 01/05/2018 15:35:00 0.0196
2018_01_05_S14 01/05/2018 15:40:00 0.0516
2018_01_05_S14 01/05/2018 15:45:00 0.0028
2018_01_05_S14 01/05/2018 15:50:00 0.0
2018_01_05_S14 01/05/2018 15:55:00 0.0
2018_01_05_S14 01/05/2018 16:00:00 0.0
2018_01_05_S14 01/05/2018 16:05:00 0.0
2018_01_05_S14 01/05/2018 16:10:00 0.0
2018_01_05_S14 01/05/2018 16:15:00 0.0
2018_01_05_S14 01/05/2018 16:20:00 0.0
2018_01_05_S14 01/05/2018 16:25:00 0.0
2018_01_05_S14 01/05/2018 16:30:00 0.0
2018_01_05_S14 01/05/2018 16:35:00 0.0
2018_01_05_S14 01/05/2018 16:40:00 0.0
2018_01_05_S14 01/05/2018 16:45:00 0.0
2018_01_05_S14 01/05/2018 16:50:00 0.0
2018_01_05_S14 01/05/2018 16:55:00 0.0
2018_01_05_S14 01/05/2018 17:00:00 0.0
2018_01_05_S14 01/05/2018 17:05:00 0.0
2018_01_05_S14 01/05/2018 17:10:00 0.0
2018_01_05_S14 01/05/2018 17:15:00 0.0
2018_01_05_S14 01/05/2018 17:20:00 0.0
2018_01_05_S14 01/05/2018 17:25:00 0.0
2018_01_05_S14 01/05/2018 17:30:00 0.0
2018_01_05_S14 01/05/2018 17:35:00 0.0
2018_01_05_S14 01/05/2018 17:40:00 0.0
2018_01_05_S14 01/05/2018 17:45:00 0.0
2018_01_05_S14 01/05/2018 17:50:00 0.003
2018_01_05_S14 01/05/2018 17:55:00 0.0301
2018_01_05_S14 01/05/2018 18:00:00 0.0352
2018_01_05_S14 01/05/2018 18:05:00 0.0
2018_01_05_S14 01/05/2018 18:10:00 0.0
2018_01_05_S14 01/05/2018 18:15:00 0.0
2018_01_05_S14 01/05/2018 18:20:00 0.0177
2018_01_05_S14 01/05/2018 18:25:00 0.0156
2018_01_05_S14 01/05/2018 18:30:00 0.0
2018_01_05_S14 01/05/2018 18:35:00 0.0
2018_01_05_S14 01/05/2018 18:40:00 0.0
2018_01_05_S14 01/05/2018 18:45:00 0.0
2018_01_05_S14 01/05/2018 18:50:00 0.0
2018_01_05_S14 01/05/2018 18:55:00 0.0
2018_01_05_S14 01/05/2018 19:00:00 0.0
2018_01_05_S14 01/05/2018 19:05:00 0.0
2018_01_05_S14 01/05/2018 19:10:00 0.0
2018_01_05_S14 01/05/2018 19:15:00 0.0
2018_01_05_S14 01/05/2018 19:20:00 0.0
2018_01_05_S14 01/05/2018 19:25:00 0.0043
2018_01_05_S14 01/05/2018 19:30:00 0.0013
2018_01_05_S14 01/05/2018 19:35:00 0.0062
2018_01_05_S14 01/05/2018 19:40:00 0.0
2018_01_05_S14 01/05/2018 19:45:00 0.0055
2018_01_05_S14 01/05/2018 19:50:00 0.526
2018_01_05_S14 01/05/2018 19:55:00 0.0266
2018_01_05_S14 01/05/2018 20:00:00 0.0195
2018_01_05_S14 01/05/2018 20:05:00 0.0029
2018_01_05_S14 01/05/2018 20:10:00 0.0
2018_01_05_S14 01/05/2018 20:15:00 0.0
2018_01_05_S14 01/05/2018 20:20:00 0.0
2018_01_05_S14 01/05/2018 20:25:00 0.0
2018_01_05_S14 01/05/2018 20:30:00 0.0
2018_01_05_S14 01/05/2018 20:35:00 0.0
2018_01_05_S14 01/05/2018 20:40:00 0.0
2018_01_05_S14 01/05/2018 20:45:00 0.0
2018_01_05_S14 01/05/2018 20:50:00 0.0
2018_01_05_S14 01/05/2018 20:55:00 0.0105
2018_01_05_S14 01/05/2018 21:00:00 0.0
2018_01_05_S14 01/05/2018 21:05:00 0.0
2018_01_05_S14 01/05/2018 21:10:00 0.0
2018_01_05_S14 01/05/2018 21:15:00 0.0
2018_01_05_S14 01/05/2018 21:20:00 0.0
2018_01_05_S14 01/05/2018 21:25:00 0.0
2018_01_05_S14 01/05/2018 21:30:00 0.0
2018_01_05_S14 01/05/2018 21:35:00 0.0
2018_01_05_S14 01/05/2018 21:40:00 0.0069
2018_01_05_S14 01/05/2018 21:45:00 0.0
2018_01_05_S14 01/05/2018 21:50:00 0.0
2018_01_05_S14 01/05/2018 21:55:00 0.0
2018_01_05_S14 01/05/2018 22:00:00 0.0
2018_01_05_S14 01/05/2018 22:05:00 0.0044
2018_01_05_S14 01/05/2018 22:10:00 0.0
2018_01_05_S14 01/05/2018 22:15:00 0.0
2018_01_05_S14 01/05/2018 22:20:00 0.0
2018_01_05_S14 01/05/2018 22:25:00 0.0103
2018_01_05_S14 01/05/2018 22:30:00 0.0248
2018_01_05_S14 01/05/2018 22:35:00 0.0
2018_01_05_S14 01/05/2018 22:40:00 0.0149
2018_01_05_S14 01/05/2018 22:45:00 0.0
2018_01_05_S14 01/05/2018 22:50:00 0.0
2018_01_05_S14 01/05/2018 22:55:00 0.0
2018_01_05_S14 01/05/2018 23:00:00 0.0
2018_01_05_S14 01/05/2018 23:05:00 0.0
2018_01_05_S14 01/05/2018 23:10:00 0.0
2018_01_05_S14 01/05/2018 23:15:00 0.0
2018_01_05_S14 01/05/2018 23:20:00 0.0
2018_01_05_S14 01/05/2018 23:25:00 0.0
2018_01_05_S14 01/05/2018 23:30:00 0.0
2018_01_05_S14 01/05/2018 23:35:00 0.0
2018_01_05_S14 01/05/2018 23:40:00 0.0
2018_01_05_S14 01/05/2018 23:45:00 0.013
2018_01_05_S14 01/05/2018 23:50:00 0.0468
2018_01_05_S14 01/05/2018 23:55:00 0.0
2018_01_05_S14 01/06/2018 00:00:00 0.0066
2018_01_05_S14 01/06/2018 00:05:00 0.0008
2018_01_05_S14 01/06/2018 00:10:00 0.029
2018_01_05_S14 01/06/2018 00:15:00 0.4726
2018_01_05_S14 01/06/2018 00:20:00 0.0
2018_01_05_S14 01/06/2018 00:25:00 0.0
2018_01_05_S14 01/06/2018 00:30:00 0.0
2018_01_05_S14 01/06/2018 00:35:00 0.0
2018_01_05_S14 01/06/2018 00:40:00 0.0
2018_01_05_S14 01/06/2018 00:45:00 0.0
2018_01_05_S14 01/06/2018 00:50:00 0.0
2018_01_05_S14 01/06/2018 00:55:00 0.0
2018_01_05_S14 01/06/2018 01:00:00 0.0
2018_01_05_S14 01/06/2018 01:05:00 0.0
2018_01_05_S14 01/06/2018 01:10:00 0.0185
2018_01_05_S14 01/06/2018 01:15:00 0.0
2018_01_05_S14 01/06/2018 01:20:00 0.0
2018_01_05_S14 01/06/2018 01:25:00 0.0
2018_01_05_S14 01/06/2018 01:30:00 0.0
2018_01_05_S14 01/06/2018 01:35:00 0.0
2018_01_05_S14 01/06/2018 01:40:00 0.0
2018_01_05_S14 01/06/2018 01:45:00 0.0
2018_01_05_S14 01/06/2018 01:50:00 0.0
2018_01_05_S14 01/06/2018 01:55:00 0.0
2018_01_05_S14 01/06/2018 02:00:00 0.0
2018_01_05_S14 01/06/2018 02:05:00 0.0
2018_01_05_S14 01/06/2018 02:10:00 0.0
2018_01_05_S14 01/06/2018 02:15:00 0.0
2018_01_05_S14 01/06/2018 02:20:00 0.0
2018_01_05_S14 01/06/2018 02:25:00 0.0
2018_01_05_S14 01/06/2018 02:30:00 0.0
2018_01_05_S14 01/06/2018 02:35:00 0.0
2018_01_05_S14 01/06/2018 02:40:00 0.0
2018_01_05_S14 01/06/2018 02:45:00 0.0
2018_01_05_S14 01/06/2018 02:50:00 0.0
2018_01_05_S14 01/06/2018 02:55:00 0.0
2018_01_05_S14 01/06/2018 03:00:00 0.0
2018_01_05_S14 01/06/2018 03:05:00 0.0
2018_01_05_S14 01/06/2018 03:10:00 0.0
2018_01_05_S14 01/06/2018 03:15:00 0.0
2018_01_05_S14 01/06/2018 03:20:00 0.0
2018_01_05_S14 01/06/2018 03:25:00 0.0
2018_01_05_S14 01/06/2018 03:30:00 0.0
2018_01_05_S14 01/06/2018 03:35:00 0.0
2018_01_05_S14 01/06/2018 03:40:00 0.1
2018_01_05_S14 01/06/2018 03:45:00 1.4855
2018_01_05_S14 01/06/2018 03:50:00 0.0
2018_01_05_S14 01/06/2018 03:55:00 0.0
2018_01_05_S14 01/06/2018 04:00:00 0.0
2018_01_05_S14 01/06/2018 04:05:00 0.0
2018_01_05_S14 01/06/2018 04:10:00 0.0
2018_01_05_S14 01/06/2018 04:15:00 0.0
2018_01_05_S14 01/06/2018 04:20:00 0.0222
2018_01_05_S14 01/06/2018 04:25:00 0.0308
2018_01_05_S14 01/06/2018 04:30:00 0.0
2018_01_05_S14 01/06/2018 04:35:00 0.0
2018_01_05_S14 01/06/2018 04:40:00 0.0
2018_01_05_S14 01/06/2018 04:45:00 0.0
2018_01_05_S14 01/06/2018 04:50:00 0.0
2018_01_05_S14 01/06/2018 04:55:00 0.0
2018_01_05_S14 01/06/2018 05:00:00 0.0
2018_01_05_S14 01/06/2018 05:05:00 0.0
2018_01_05_S14 01/06/2018 05:10:00 0.0
2018_01_05_S14 01/06/2018 05:15:00 0.0
2018_01_05_S14 01/06/2018 05:20:00 0.0
2018_01_05_S14 01/06/2018 05:25:00 0.0
2018_01_05_S14 01/06/2018 05:30:00 0.0
2018_01_05_S14 01/06/2018 05:35:00 0.6773
2018_01_05_S14 01/06/2018 05:40:00 0.2914
2018_01_05_S14 01/06/2018 05:45:00 0.0
2018_01_05_S14 01/06/2018 05:50:00 0.0
2018_01_05_S14 01/06/2018 05:55:00 0.0
2018_01_05_S14 01/06/2018 06:00:00 0.0
2018_01_05_S14 01/06/2018 06:05:00 0.0017
2018_01_05_S14 01/06/2018 06:10:00 0.0738
2018_01_05_S14 01/06/2018 06:15:00 0.0199
2018_01_05_S14 01/06/2018 06:20:00 0.0294
2018_01_05_S14 01/06/2018 06:25:00 0.0111
2018_01_05_S14 01/06/2018 06:30:00 0.0044
2018_01_05_S14 01/06/2018 06:35:00 0.0
2018_01_05_S14 01/06/2018 06:40:00 0.0
2018_01_05_S14 01/06/2018 06:45:00 0.0033
2018_01_05_S14 01/06/2018 06:50:00 0.0142
2018_01_05_S14 01/06/2018 06:55:00 0.0069
2018_01_05_S14 01/06/2018 07:00:00 0.0691
2018_01_05_S14 01/06/2018 07:05:00 0.0255
2018_01_05_S14 01/06/2018 07:10:00 0.0054
2018_01_05_S14 01/06/2018 07:15:00 0.0
2018_01_05_S14 01/06/2018 07:20:00 0.0
2018_01_05_S14 01/06/2018 07:25:00 0.0
2018_01_05_S14 01/06/2018 07:30:00 0.0
2018_01_05_S14 01/06/2018 07:35:00 0.0012
2018_01_05_S14 01/06/2018 07:40:00 0.0004
2018_01_05_S14 01/06/2018 07:45:00 0.0043
2018_01_05_S14 01/06/2018 07:50:00 0.0129
2018_01_05_S14 01/06/2018 07:55:00 0.03
2018_01_05_S14 01/06/2018 08:00:00 0.0

2018_01_05_S15 01/04/2018 10:25:00 0.1401
2018_01_05_S15 01/04/2018 10:30:00 0.0117
2018_01_05_S15 01/04/2018 10:35:00 0.0
2018_01_05_S15 01/04/2018 10:40:00 0.0
2018_01_05_S15 01/04/2018 10:45:00 0.0346
2018_01_05_S15 01/04/2018 10:50:00 0.0272
2018_01_05_S15 01/04/2018 10:55:00 0.0
2018_01_05_S15 01/04/2018 11:00:00 0.0
2018_01_05_S15 01/04/2018 11:05:00 0.6508
2018_01_05_S15 01/04/2018 11:10:00 0.0024
2018_01_05_S15 01/04/2018 11:15:00 1.6463
2018_01_05_S15 01/04/2018 11:20:00 0.0156
2018_01_05_S15 01/04/2018 11:25:00 0.1274
2018_01_05_S15 01/04/2018 11:30:00 0.0
2018_01_05_S15 01/04/2018 11:35:00 0.0
2018_01_05_S15 01/04/2018 11:40:00 0.0
2018_01_05_S15 01/04/2018 11:45:00 0.0
2018_01_05_S15 01/04/2018 11:50:00 0.0
2018_01_05_S15 01/04/2018 11:55:00 0.0
2018_01_05_S15 01/04/2018 12:00:00 0.0
2018_01_05_S15 01/04/2018 12:05:00 0.0
2018_01_05_S15 01/04/2018 12:10:00 0.0
2018_01_05_S15 01/04/2018 12:15:00 0.0
2018_01_05_S15 01/04/2018 12:20:00 0.0
2018_01_05_S15 01/04/2018 12:25:00 0.0
2018_01_05_S15 01/04/2018 12:30:00 0.0075
2018_01_05_S15 01/04/2018 12:35:00 0.0
2018_01_05_S15 01/04/2018 12:40:00 0.0
2018_01_05_S15 01/04/2018 12:45:00 0.0051
2018_01_05_S15 01/04/2018 12:50:00 0.0
2018_01_05_S15 01/04/2018 12:55:00 0.0
2018_01_05_S15 01/04/2018 13:00:00 0.0
2018_01_05_S15 01/04/2018 13:05:00 0.0
2018_01_05_S15 01/04/2018 13:10:00 0.0
2018_01_05_S15 01/04/2018 13:15:00 0.0
2018_01_05_S15 01/04/2018 13:20:00 0.0
2018_01_05_S15 01/04/2018 13:25:00 0.0
2018_01_05_S15 01/04/2018 13:30:00 0.0
2018_01_05_S15 01/04/2018 13:35:00 0.0
2018_01_05_S15 01/04/2018 13:40:00 0.0
2018_01_05_S15 01/04/2018 13:45:00 0.0
2018_01_05_S15 01/04/2018 13:50:00 0.0
2018_01_05_S15 01/04/2018 13:55:00 0.0
2018_01_05_S15 01/04/2018 14:00:00 0.0
2018_01_05_S15 01/04/2018 14:05:00 0.0
2018_01_05_S15 01/04/2018 14:10:00 0.0
2018_01_05_S15 01/04/2018 14:15:00 0.0037
2018_01_05_S15 01/04/2018 14:20:00 0.0
2018_01_05_S15 01/04/2018 14:25:00 0.0011
2018_01_05_S15 01/04/2018 14:30:00 0.0
2018_01_05_S15 01/04/2018 14:35:00 0.0391
2018_01_05_S15 01/04/2018 14:40:00 0.0076
2018_01_05_S15 01/04/2018 14:45:00 0.0
2018_01_05_S15 01/04/2018 14:50:00 0.0
2018_01_05_S15 01/04/2018 14:55:00 0.0
2018_01_05_S15 01/04/2018 15:00:00 0.0
2018_01_05_S15 01/04/2018 15:05:00 0.0
2018_01_05_S15 01/04/2018 15:10:00 0.0
2018_01_05_S15 01/04/2018 15:15:00 0.0
2018_01_05_S15 01/04/2018 15:20:00 0.0
2018_01_05_S15 01/04/2018 15:25:00 0.0
2018_01_05_S15 01/04/2018 15:30:00 0.0025
2018_01_05_S15 01/04/2018 15:35:00 0.4118
2018_01_05_S15 01/04/2018 15:40:00 0.0
2018_01_05_S15 01/04/2018 15:45:00 0.0
2018_01_05_S15 01/04/2018 15:50:00 0.0
2018_01_05_S15 01/04/2018 15:55:00 0.0113
2018_01_05_S15 01/04/2018 16:00:00 0.036
2018_01_05_S15 01/04/2018 16:05:00 0.0467
2018_01_05_S15 01/04/2018 16:10:00 0.002
2018_01_05_S15 01/04/2018 16:15:00 0.0755
2018_01_05_S15 01/04/2018 16:20:00 0.0728
2018_01_05_S15 01/04/2018 16:25:00 0.0045
2018_01_05_S15 01/04/2018 16:30:00 0.0
2018_01_05_S15 01/04/2018 16:35:00 0.0
2018_01_05_S15 01/04/2018 16:40:00 0.0
2018_01_05_S15 01/04/2018 16:45:00 0.0
2018_01_05_S15 01/04/2018 16:50:00 0.0
2018_01_05_S15 01/04/2018 16:55:00 0.0
2018_01_05_S15 01/04/2018 17:00:00 0.0
2018_01_05_S15 01/04/2018 17:05:00 0.0
2018_01_05_S15 01/04/2018 17:10:00 0.1141
2018_01_05_S15 01/04/2018 17:15:00 0.003
2018_01_05_S15 01/04/2018 17:20:00 0.0
2018_01_05_S15 01/04/2018 17:25:00 0.0
2018_01_05_S15 01/04/2018 17:30:00 0.0278
2018_01_05_S15 01/04/2018 17:35:00 0.1925
2018_01_05_S15 01/04/2018 17:40:00 0.2006
2018_01_05_S15 01/04/2018 17:45:00 0.194
2018_01_05_S15 01/04/2018 17:50:00 0.1239
2018_01_05_S15 01/04/2018 17:55:00 0.1298
2018_01_05_S15 01/04/2018 18:00:00 0.1702
2018_01_05_S15 01/04/2018 18:05:00 0.1693
2018_01_05_S15 01/04/2018 18:10:00 0.0328
2018_01_05_S15 01/04/2018 18:15:00 0.0318
2018_01_05_S15 01/04/2018 18:20:00 0.0005
2018_01_05_S15 01/04/2018 18:25:00 0.0
2018_01_05_S15 01/04/2018 18:30:00 0.0
2018_01_05_S15 01/04/2018 18:35:00 0.0
2018_01_05_S15 01/04/2018 18:40:00 0.0
2018_01_05_S15 01/04/2018 18:45:00 0.0
2018_01_05_S15 01/04/2018 18:50:00 0.0
2018_01_05_S15 01/04/2018 18:55:00 0.0
2018_01_05_S15 01/04/2018 19:00:00 0.0
2018_01_05_S15 01/04/2018 19:05:00 0.0
2018_01_05_S15 01/04/2018 19:10:00 0.0
2018_01_05_S15 01/04/2018 19:15:00 0.0
2018_01_05_S15 01/04/2018 19:20:00 0.0
2018_01_05_S15 01/04/2018 19:25:00 0.0
2018_01_05_S15 01/04/2018 19:30:00 0.0
2018_01_05_S15 01/04/2018 19:35:00 0.0
2018_01_05_S15 01/04/2018 19:40:00 0.0
2018_01_05_S15 01/04/2018 19:45:00 0.0
2018_01_05_S15 01/04/2018 19:50:00 0.0
2018_01_05_S15 01/04/2018 19:55:00 0.0
2018_01_05_S15 01/04/2018 20:00:00 0.0
2018_01_05_S15 01/04/2018 20:05:00 0.0
2018_01_05_S15 01/04/2018 20:10:00 0.0
2018_01_05_S15 01/04/2018 20:15:00 0.0
2018_01_05_S15 01/04/2018 20:20:00 0.0
2018_01_05_S15 01/04/2018 20:25:00 0.0026
2018_01_05_S15 01/04/2018 20:30:00 0.0014
2018_01_05_S15 01/04/2018 20:35:00 0.0
2018_01_05_S15 01/04/2018 20:40:00 0.0
2018_01_05_S15 01/04/2018 20:45:00 0.0
2018_01_05_S15 01/04/2018 20:50:00 0.0
2018_01_05_S15 01/04/2018 20:55:00 0.0
2018_01_05_S15 01/04/2018 21:00:00 0.0
2018_01_05_S15 01/04/2018 21:05:00 0.0
2018_01_05_S15 01/04/2018 21:10:00 0.0
2018_01_05_S15 01/04/2018 21:15:00 0.0
2018_01_05_S15 01/04/2018 21:20:00 0.0
2018_01_05_S15 01/04/2018 21:25:00 0.0087
2018_01_05_S15 01/04/2018 21:30:00 0.0254
2018_01_05_S15 01/04/2018 21:35:00 0.2641
2018_01_05_S15 01/04/2018 21:40:00 0.1056
2018_01_05_S15 01/04/2018 21:45:00 0.0004
2018_01_05_S15 01/04/2018 21:50:00 0.0
2018_01_05_S15 01/04/2018 21:55:00 0.0
2018_01_05_S15 01/04/2018 22:00:00 0.0
2018_01_05_S15 01/04/2018 22:05:00 0.0
2018_01_05_S15 01/04/2018 22:10:00 0.0
2018_01_05_S15 01/04/2018 22:15:00 0.0
2018_01_05_S15 01/04/2018 22:20:00 0.0
2018_01_05_S15 01/04/2018 22:25:00 0.0
2018_01_05_S15 01/04/2018 22:30:00 0.0
2018_01_05_S15 01/04/2018 22:35:00 0.0
2018_01_05_S15 01/04/2018 22:40:00 0.0
2018_01_05_S15 01/04/2018 22:45:00 0.0
2018_01_05_S15 01/04/2018 22:50:00 0.0
2018_01_05_S15 01/04/2018 22:55:00 0.0
2018_01_05_S15 01/04/2018 23:00:00 0.0
2018_01_05_S15 01/04/2018 23:05:00 0.0
2018_01_05_S15 01/04/2018 23:10:00 0.0
2018_01_05_S15 01/04/2018 23:15:00 0.0
2018_01_05_S15 01/04/2018 23:20:00 0.0
2018_01_05_S15 01/04/2018 23:25:00 0.0
2018_01_05_S15 01/04/2018 23:30:00 0.0
2018_01_05_S15 01/04/2018 23:35:00 0.0
2018_01_05_S15 01/04/2018 23:40:00 0.0
2018_01_05_S15 01/04/2018 23:45:00 0.0
2018_01_05_S15 01/04/2018 23:50:00 0.0
2018_01_05_S15 01/04/2018 23:55:00 0.0
2018_01_05_S15 01/05/2018 00:00:00 0.0
2018_01_05_S15 01/05/2018 00:05:00 0.0
2018_01_05_S15 01/05/2018 00:10:00 0.0
2018_01_05_S15 01/05/2018 00:15:00 0.0
2018_01_05_S15 01/05/2018 00:20:00 0.0
2018_01_05_S15 01/05/2018 00:25:00 0.0
2018_01_05_S15 01/05/2018 00:30:00 0.0
2018_01_05_S15 01/05/2018 00:35:00 0.0
2018_01_05_S15 01/05/2018 00:40:00 0.0
2018_01_05_S15 01/05/2018 00:45:00 0.0
2018_01_05_S15 01/05/2018 00:50:00 0.06
2018_01_05_S15 01/05/2018 00:55:00 0.0095
2018_01_05_S15 01/05/2018 01:00:00 0.0066
2018_01_05_S15 01/05/2018 01:05:00 0.1584
2018_01_05_S15 01/05/2018 01:10:00 0.0715
2018_01_05_S15 01/05/2018 01:15:00 0.0039
2018_01_05_S15 01/05/2018 01:20:00 0.0207
2018_01_05_S15 01/05/2018 01:25:00 0.0211
2018_01_05_S15 01/05/2018 01:30:00 0.0179
2018_01_05_S15 01/05/2018 01:35:00 0.0972
2018_01_05_S15 01/05/2018 01:40:00 0.0
2018_01_05_S15 01/05/2018 01:45:00 0.0248
2018_01_05_S15 01/05/2018 01:50:00 0.0252
2018_01_05_S15 01/05/2018 01:55:00 0.0149
2018_01_05_S15 01/05/2018 02:00:00 0.0079
2018_01_05_S15 01/05/2018 02:05:00 0.0109
2018_01_05_S15 01/05/2018 02:10:00 0.0152
2018_01_05_S15 01/05/2018 02:15:00 0.0896
2018_01_05_S15 01/05/2018 02:20:00 0.0117
2018_01_05_S15 01/05/2018 02:25:00 0.0
2018_01_05_S15 01/05/2018 02:30:00 0.0
2018_01_05_S15 01/05/2018 02:35:00 0.0
2018_01_05_S15 01/05/2018 02:40:00 0.0
2018_01_05_S15 01/05/2018 02:45:00 0.0
2018_01_05_S15 01/05/2018 02:50:00 0.0
2018_01_05_S15 01/05/2018 02:55:00 0.0
2018_01_05_S15 01/05/2018 03:00:00 0.0
2018_01_05_S15 01/05/2018 03:05:00 0.1634
2018_01_05_S15 01/05/2018 03:10:00 0.2043
2018_01_05_S15 01/05/2018 03:15:00 0.2436
2018_01_05_S15 01/05/2018 03:20:00 0.4708
2018_01_05_S15 01/05/2018 03:25:00 0.2799
2018_01_05_S15 01/05/2018 03:30:00 0.2609
2018_01_05_S15 01/05/2018 03:35:00 0.1181
2018_01_05_S15 01/05/2018 03:40:00 0.0
2018_01_05_S15 01/05/2018 03:45:00 0.0056
2018_01_05_S15 01/05/2018 03:50:00 0.0385
2018_01_05_S15 01/05/2018 03:55:00 0.0198
2018_01_05_S15 01/05/2018 04:00:00 0.0669
2018_01_05_S15 01/05/2018 04:05:00 0.0
2018_01_05_S15 01/05/2018 04:10:00 0.0109
2018_01_05_S15 01/05/2018 04:15:00 0.0114
2018_01_05_S15 01/05/2018 04:20:00 0.0067
2018_01_05_S15 01/05/2018 04:25:00 0.1596
2018_01_05_S15 01/05/2018 04:30:00 0.0024
2018_01_05_S15 01/05/2018 04:35:00 0.0755
2018_01_05_S15 01/05/2018 04:40:00 0.0742
2018_01_05_S15 01/05/2018 04:45:00 0.0886
2018_01_05_S15 01/05/2018 04:50:00 0.0576
2018_01_05_S15 01/05/2018 04:55:00 0.009
2018_01_05_S15 01/05/2018 05:00:00 0.067
2018_01_05_S15 01/05/2018 05:05:00 0.0002
2018_01_05_S15 01/05/2018 05:10:00 0.009
2018_01_05_S15 01/05/2018 05:15:00 0.0
2018_01_05_S15 01/05/2018 05:20:00 0.0174
2018_01_05_S15 01/05/2018 05:25:00 0.0
2018_01_05_S15 01/05/2018 05:30:00 0.0058
2018_01_05_S15 01/05/2018 05:35:00 0.0
2018_01_05_S15 01/05/2018 05:40:00 0.0
2018_01_05_S15 01/05/2018 05:45:00 0.0
2018_01_05_S15 01/05/2018 05:50:00 0.0
2018_01_05_S15 01/05/2018 05:55:00 0.0414
2018_01_05_S15 01/05/2018 06:00:00 0.3201
2018_01_05_S15 01/05/2018 06:05:00 0.1909
2018_01_05_S15 01/05/2018 06:10:00 0.0209
2018_01_05_S15 01/05/2018 06:15:00 0.0167
2018_01_05_S15 01/05/2018 06:20:00 0.1095
2018_01_05_S15 01/05/2018 06:25:00 4.9957
2018_01_05_S15 01/05/2018 06:30:00 1.121
2018_01_05_S15 01/05/2018 06:35:00 2.9503
2018_01_05_S15 01/05/2018 06:40:00 0.4264
2018_01_05_S15 01/05/2018 06:45:00 1.8119
2018_01_05_S15 01/05/2018 06:50:00 1.3771
2018_01_05_S15 01/05/2018 06:55:00 0.4862
2018_01_05_S15 01/05/2018 07:00:00 0.1837
2018_01_05_S15 01/05/2018 07:05:00 0.2204
2018_01_05_S15 01/05/2018 07:10:00 0.3025
2018_01_05_S15 01/05/2018 07:15:00 0.0
2018_01_05_S15 01/05/2018 07:20:00 0.0
2018_01_05_S15 01/05/2018 07:25:00 0.0
2018_01_05_S15 01/05/2018 07:30:00 0.0
2018_01_05_S15 01/05/2018 07:35:00 0.0
2018_01_05_S15 01/05/2018 07:40:00 0.0
2018_01_05_S15 01/05/2018 07:45:00 0.0
2018_01_05_S15 01/05/2018 07:50:00 0.0
2018_01_05_S15 01/05/2018 07:55:00 0.0
2018_01_05_S15 01/05/2018 08:00:00 0.0
2018_01_05_S15 01/05/2018 08:05:00 0.0
2018_01_05_S15 01/05/2018 08:10:00 0.0
2018_01_05_S15 01/05/2018 08:15:00 0.0
2018_01_05_S15 01/05/2018 08:20:00 0.0
2018_01_05_S15 01/05/2018 08:25:00 0.0039
2018_01_05_S15 01/05/2018 08:30:00 0.005
2018_01_05_S15 01/05/2018 08:35:00 0.2178
2018_01_05_S15 01/05/2018 08:40:00 0.5393
2018_01_05_S15 01/05/2018 08:45:00 0.5389
2018_01_05_S15 01/05/2018 08:50:00 0.3473
2018_01_05_S15 01/05/2018 08:55:00 1.3973
2018_01_05_S15 01/05/2018 09:00:00 0.3543
2018_01_05_S15 01/05/2018 09:05:00 1.3625
2018_01_05_S15 01/05/2018 09:10:00 0.5143
2018_01_05_S15 01/05/2018 09:15:00 0.1668
2018_01_05_S15 01/05/2018 09:20:00 0.0337
2018_01_05_S15 01/05/2018 09:25:00 0.0
2018_01_05_S15 01/05/2018 09:30:00 0.0065
2018_01_05_S15 01/05/2018 09:35:00 0.11
2018_01_05_S15 01/05/2018 09:40:00 1.4595
2018_01_05_S15 01/05/2018 09:45:00 2.9776
2018_01_05_S15 01/05/2018 09:50:00 2.9053
2018_01_05_S15 01/05/2018 09:55:00 1.7589
2018_01_05_S15 01/05/2018 10:00:00 0.0038
2018_01_05_S15 01/05/2018 10:05:00 0.0502
2018_01_05_S15 01/05/2018 10:10:00 0.0
2018_01_05_S15 01/05/2018 10:15:00 0.0042
2018_01_05_S15 01/05/2018 10:20:00 0.0
2018_01_05_S15 01/05/2018 10:25:00 0.0456
2018_01_05_S15 01/05/2018 10:30:00 4.0979
2018_01_05_S15 01/05/2018 10:35:00 0.0114
2018_01_05_S15 01/05/2018 10:40:00 0.1242
2018_01_05_S15 01/05/2018 10:45:00 0.9368
2018_01_05_S15 01/05/2018 10:50:00 0.0294
2018_01_05_S15 01/05/2018 10:55:00 0.0
2018_01_05_S15 01/05/2018 11:00:00 0.0029
2018_01_05_S15 01/05/2018 11:05:00 0.0481
2018_01_05_S15 01/05/2018 11:10:00 0.1525
2018_01_05_S15 01/05/2018 11:15:00 0.1814
2018_01_05_S15 01/05/2018 11:20:00 0.1303
2018_01_05_S15 01/05/2018 11:25:00 0.1049
2018_01_05_S15 01/05/2018 11:30:00 0.1181
2018_01_05_S15 01/05/2018 11:35:00 0.4481
2018_01_05_S15 01/05/2018 11:40:00 0.3816
2018_01_05_S15 01/05/2018 11:45:00 0.0468
2018_01_05_S15 01/05/2018 11:50:00 0.0
2018_01_05_S15 01/05/2018 11:55:00 0.0001
2018_01_05_S15 01/05/2018 12:00:00 0.0142
2018_01_05_S15 01/05/2018 12:05:00 0.1112
2018_01_05_S15 01/05/2018 12:10:00 0.3424
2018_01_05_S15 01/05/2018 12:15:00 1.0098
2018_01_05_S15 01/05/2018 12:20:00 0.2289
2018_01_05_S15 01/05/2018 12:25:00 0.6443
2018_01_05_S15 01/05/2018 12:30:00 1.4066
2018_01_05_S15 01/05/2018 12:35:00 0.3494
2018_01_05_S15 01/05/2018 12:40:00 2.862
2018_01_05_S15 01/05/2018 12:45:00 3.3172
2018_01_05_S15 01/05/2018 12:50:00 0.0578
2018_01_05_S15 01/05/2018 12:55:00 0.3777
2018_01_05_S15 01/05/2018 13:00:00 0.0588
2018_01_05_S15 01/05/2018 13:05:00 0.1979
2018_01_05_S15 01/05/2018 13:10:00 0.0
2018_01_05_S15 01/05/2018 13:15:00 0.0
2018_01_05_S15 01/05/2018 13:20:00 0.0
2018_01_05_S15 01/05/2018 13:25:00 0.0076
2018_01_05_S15 01/05/2018 13:30:00 0.0602
2018_01_05_S15 01/05/2018 13:35:00 0.008
2018_01_05_S15 01/05/2018 13:40:00 0.0288
2018_01_05_S15 01/05/2018 13:45:00 0.3856
2018_01_05_S15 01/05/2018 13:50:00 0.3173
2018_01_05_S15 01/05/2018 13:55:00 0.0784
2018_01_05_S15 01/05/2018 14:00:00 0.0466
2018_01_05_S15 01/05/2018 14:05:00 0.094
2018_01_05_S15 01/05/2018 14:10:00 0.126
2018_01_05_S15 01/05/2018 14:15:00 0.0345
2018_01_05_S15 01/05/2018 14:20:00 0.0
2018_01_05_S15 01/05/2018 14:25:00 0.0
2018_01_05_S15 01/05/2018 14:30:00 0.0
2018_01_05_S15 01/05/2018 14:35:00 0.0072
2018_01_05_S15 01/05/2018 14:40:00 0.04
2018_01_05_S15 01/05/2018 14:45:00 1.4961
2018_01_05_S15 01/05/2018 14:50:00 1.0327
2018_01_05_S15 01/05/2018 14:55:00 0.0514
2018_01_05_S15 01/05/2018 15:00:00 0.179
2018_01_05_S15 01/05/2018 15:05:00 0.0017
2018_01_05_S15 01/05/2018 15:10:00 0.0292
2018_01_05_S15 01/05/2018 15:15:00 0.0721
2018_01_05_S15 01/05/2018 15:20:00 1.7169
2018_01_05_S15 01/05/2018 15:25:00 0.0
2018_01_05_S15 01/05/2018 15:30:00 0.0
2018_01_05_S15 01/05/2018 15:35:00 0.0233
2018_01_05_S15 01/05/2018 15:40:00 0.0282
2018_01_05_S15 01/05/2018 15:45:00 0.0047
2018_01_05_S15 01/05/2018 15:50:00 0.0
2018_01_05_S15 01/05/2018 15:55:00 0.0
2018_01_05_S15 01/05/2018 16:00:00 0.0
2018_01_05_S15 01/05/2018 16:05:00 0.0
2018_01_05_S15 01/05/2018 16:10:00 0.0
2018_01_05_S15 01/05/2018 16:15:00 0.0
2018_01_05_S15 01/05/2018 16:20:00 0.0
2018_01_05_S15 01/05/2018 16:25:00 0.0
2018_01_05_S15 01/05/2018 16:30:00 0.0
2018_01_05_S15 01/05/2018 16:35:00 0.0
2018_01_05_S15 01/05/2018 16:40:00 0.0
2018_01_05_S15 01/05/2018 16:45:00 0.0
2018_01_05_S15 01/05/2018 16:50:00 0.0
2018_01_05_S15 01/05/2018 16:55:00 0.0
2018_01_05_S15 01/05/2018 17:00:00 0.0
2018_01_05_S15 01/05/2018 17:05:00 0.0
2018_01_05_S15 01/05/2018 17:10:00 0.0
2018_01_05_S15 01/05/2018 17:15:00 0.0
2018_01_05_S15 01/05/2018 17:20:00 0.0
2018_01_05_S15 01/05/2018 17:25:00 0.0
2018_01_05_S15 01/05/2018 17:30:00 0.0
2018_01_05_S15 01/05/2018 17:35:00 0.0
2018_01_05_S15 01/05/2018 17:40:00 0.0
2018_01_05_S15 01/05/2018 17:45:00 0.0
2018_01_05_S15 01/05/2018 17:50:00 0.0
2018_01_05_S15 01/05/2018 17:55:00 0.0634
2018_01_05_S15 01/05/2018 18:00:00 0.0346
2018_01_05_S15 01/05/2018 18:05:00 0.0
2018_01_05_S15 01/05/2018 18:10:00 0.0
2018_01_05_S15 01/05/2018 18:15:00 0.0
2018_01_05_S15 01/05/2018 18:20:00 0.0166
2018_01_05_S15 01/05/2018 18:25:00 0.0248
2018_01_05_S15 01/05/2018 18:30:00 0.0
2018_01_05_S15 01/05/2018 18:35:00 0.0
2018_01_05_S15 01/05/2018 18:40:00 0.0
2018_01_05_S15 01/05/2018 18:45:00 0.0
2018_01_05_S15 01/05/2018 18:50:00 0.0
2018_01_05_S15 01/05/2018 18:55:00 0.0
2018_01_05_S15 01/05/2018 19:00:00 0.0
2018_01_05_S15 01/05/2018 19:05:00 0.0
2018_01_05_S15 01/05/2018 19:10:00 0.0
2018_01_05_S15 01/05/2018 19:15:00 0.0
2018_01_05_S15 01/05/2018 19:20:00 0.0
2018_01_05_S15 01/05/2018 19:25:00 0.0064
2018_01_05_S15 01/05/2018 19:30:00 0.0163
2018_01_05_S15 01/05/2018 19:35:00 0.0154
2018_01_05_S15 01/05/2018 19:40:00 0.0073
2018_01_05_S15 01/05/2018 19:45:00 0.0288
2018_01_05_S15 01/05/2018 19:50:00 0.2362
2018_01_05_S15 01/05/2018 19:55:00 0.0804
2018_01_05_S15 01/05/2018 20:00:00 0.0223
2018_01_05_S15 01/05/2018 20:05:00 0.0063
2018_01_05_S15 01/05/2018 20:10:00 0.0
2018_01_05_S15 01/05/2018 20:15:00 0.0
2018_01_05_S15 01/05/2018 20:20:00 0.0
2018_01_05_S15 01/05/2018 20:25:00 0.0
2018_01_05_S15 01/05/2018 20:30:00 0.0
2018_01_05_S15 01/05/2018 20:35:00 0.0
2018_01_05_S15 01/05/2018 20:40:00 0.0
2018_01_05_S15 01/05/2018 20:45:00 0.0
2018_01_05_S15 01/05/2018 20:50:00 0.0
2018_01_05_S15 01/05/2018 20:55:00 0.5171
2018_01_05_S15 01/05/2018 21:00:00 0.0044
2018_01_05_S15 01/05/2018 21:05:00 0.0
2018_01_05_S15 01/05/2018 21:10:00 0.0
2018_01_05_S15 01/05/2018 21:15:00 0.0
2018_01_05_S15 01/05/2018 21:20:00 0.0
2018_01_05_S15 01/05/2018 21:25:00 0.0
2018_01_05_S15 01/05/2018 21:30:00 0.0
2018_01_05_S15 01/05/2018 21:35:00 0.0
2018_01_05_S15 01/05/2018 21:40:00 0.1467
2018_01_05_S15 01/05/2018 21:45:00 0.0
2018_01_05_S15 01/05/2018 21:50:00 0.0
2018_01_05_S15 01/05/2018 21:55:00 0.0
2018_01_05_S15 01/05/2018 22:00:00 0.0
2018_01_05_S15 01/05/2018 22:05:00 0.004
2018_01_05_S15 01/05/2018 22:10:00 0.0
2018_01_05_S15 01/05/2018 22:15:00 0.0
2018_01_05_S15 01/05/2018 22:20:00 0.0
2018_01_05_S15 01/05/2018 22:25:00 0.0165
2018_01_05_S15 01/05/2018 22:30:00 0.0162
2018_01_05_S15 01/05/2018 22:35:00 0.0122
2018_01_05_S15 01/05/2018 22:40:00 0.0124
2018_01_05_S15 01/05/2018 22:45:00 0.0
2018_01_05_S15 01/05/2018 22:50:00 0.0
2018_01_05_S15 01/05/2018 22:55:00 0.0
2018_01_05_S15 01/05/2018 23:00:00 0.0
2018_01_05_S15 01/05/2018 23:05:00 0.0
2018_01_05_S15 01/05/2018 23:10:00 0.0
2018_01_05_S15 01/05/2018 23:15:00 0.0
2018_01_05_S15 01/05/2018 23:20:00 0.0
2018_01_05_S15 01/05/2018 23:25:00 0.0
2018_01_05_S15 01/05/2018 23:30:00 0.0
2018_01_05_S15 01/05/2018 23:35:00 0.0
2018_01_05_S15 01/05/2018 23:40:00 0.0
2018_01_05_S15 01/05/2018 23:45:00 0.037
2018_01_05_S15 01/05/2018 23:50:00 0.0695
2018_01_05_S15 01/05/2018 23:55:00 0.0
2018_01_05_S15 01/06/2018 00:00:00 0.0059
2018_01_05_S15 01/06/2018 00:05:00 0.0011
2018_01_05_S15 01/06/2018 00:10:00 0.0009
2018_01_05_S15 01/06/2018 00:15:00 0.2829
2018_01_05_S15 01/06/2018 00:20:00 0.0159
2018_01_05_S15 01/06/2018 00:25:00 0.0
2018_01_05_S15 01/06/2018 00:30:00 0.0
2018_01_05_S15 01/06/2018 00:35:00 0.0
2018_01_05_S15 01/06/2018 00:40:00 0.0
2018_01_05_S15 01/06/2018 00:45:00 0.0
2018_01_05_S15 01/06/2018 00:50:00 0.0
2018_01_05_S15 01/06/2018 00:55:00 0.0
2018_01_05_S15 01/06/2018 01:00:00 0.0088
2018_01_05_S15 01/06/2018 01:05:00 0.0
2018_01_05_S15 01/06/2018 01:10:00 0.0087
2018_01_05_S15 01/06/2018 01:15:00 0.001
2018_01_05_S15 01/06/2018 01:20:00 0.0
2018_01_05_S15 01/06/2018 01:25:00 0.0
2018_01_05_S15 01/06/2018 01:30:00 0.0
2018_01_05_S15 01/06/2018 01:35:00 0.0
2018_01_05_S15 01/06/2018 01:40:00 0.0
2018_01_05_S15 01/06/2018 01:45:00 0.0
2018_01_05_S15 01/06/2018 01:50:00 0.0
2018_01_05_S15 01/06/2018 01:55:00 0.0
2018_01_05_S15 01/06/2018 02:00:00 0.0
2018_01_05_S15 01/06/2018 02:05:00 0.0
2018_01_05_S15 01/06/2018 02:10:00 0.0
2018_01_05_S15 01/06/2018 02:15:00 0.0
2018_01_05_S15 01/06/2018 02:20:00 0.0
2018_01_05_S15 01/06/2018 02:25:00 0.0
2018_01_05_S15 01/06/2018 02:30:00 0.0
2018_01_05_S15 01/06/2018 02:35:00 0.0
2018_01_05_S15 01/06/2018 02:40:00 0.0
2018_01_05_S15 01/06/2018 02:45:00 0.0
2018_01_05_S15 01/06/2018 02:50:00 0.0
2018_01_05_S15 01/06/2018 02:55:00 0.0
2018_01_05_S15 01/06/2018 03:00:00 0.0
2018_01_05_S15 01/06/2018 03:05:00 0.0
2018_01_05_S15 01/06/2018 03:10:00 0.0
2018_01_05_S15 01/06/2018 03:15:00 0.0
2018_01_05_S15 01/06/2018 03:20:00 0.0
2018_01_05_S15 01/06/2018 03:25:00 0.0
2018_01_05_S15 01/06/2018 03:30:00 0.0
2018_01_05_S15 01/06/2018 03:35:00 0.0
2018_01_05_S15 01/06/2018 03:40:00 0.0446
2018_01_05_S15 01/06/2018 03:45:00 0.8463
2018_01_05_S15 01/06/2018 03:50:00 0.0024
2018_01_05_S15 01/06/2018 03:55:00 0.0
2018_01_05_S15 01/06/2018 04:00:00 0.0
2018_01_05_S15 01/06/2018 04:05:00 0.0
2018_01_05_S15 01/06/2018 04:10:00 0.0
2018_01_05_S15 01/06/2018 04:15:00 0.0
2018_01_05_S15 01/06/2018 04:20:00 0.0054
2018_01_05_S15 01/06/2018 04:25:00 0.0488
2018_01_05_S15 01/06/2018 04:30:00 0.0
2018_01_05_S15 01/06/2018 04:35:00 0.0
2018_01_05_S15 01/06/2018 04:40:00 0.0
2018_01_05_S15 01/06/2018 04:45:00 0.0
2018_01_05_S15 01/06/2018 04:50:00 0.0
2018_01_05_S15 01/06/2018 04:55:00 0.0
2018_01_05_S15 01/06/2018 05:00:00 0.0
2018_01_05_S15 01/06/2018 05:05:00 0.0
2018_01_05_S15 01/06/2018 05:10:00 0.0
2018_01_05_S15 01/06/2018 05:15:00 0.0
2018_01_05_S15 01/06/2018 05:20:00 0.0
2018_01_05_S15 01/06/2018 05:25:00 0.0003
2018_01_05_S15 01/06/2018 05:30:00 0.0
2018_01_05_S15 01/06/2018 05:35:00 0.0869
2018_01_05_S15 01/06/2018 05:40:00 0.2079
2018_01_05_S15 01/06/2018 05:45:00 0.0058
2018_01_05_S15 01/06/2018 05:50:00 0.0
2018_01_05_S15 01/06/2018 05:55:00 0.0
2018_01_05_S15 01/06/2018 06:00:00 0.0
2018_01_05_S15 01/06/2018 06:05:00 0.0
2018_01_05_S15 01/06/2018 06:10:00 0.0233
2018_01_05_S15 01/06/2018 06:15:00 0.0463
2018_01_05_S15 01/06/2018 06:20:00 0.0312
2018_01_05_S15 01/06/2018 06:25:00 0.0093
2018_01_05_S15 01/06/2018 06:30:00 0.0016
2018_01_05_S15 01/06/2018 06:35:00 0.0
2018_01_05_S15 01/06/2018 06:40:00 0.0002
2018_01_05_S15 01/06/2018 06:45:00 0.0074
2018_01_05_S15 01/06/2018 06:50:00 0.0093
2018_01_05_S15 01/06/2018 06:55:00 0.0013
2018_01_05_S15 01/06/2018 07:00:00 0.014
2018_01_05_S15 01/06/2018 07:05:00 0.022
2018_01_05_S15 01/06/2018 07:10:00 0.0058
2018_01_05_S15 01/06/2018 07:15:00 0.0
2018_01_05_S15 01/06/2018 07:20:00 0.0
2018_01_05_S15 01/06/2018 07:25:00 0.0
2018_01_05_S15 01/06/2018 07:30:00 0.0
2018_01_05_S15 01/06/2018 07:35:00 0.0
2018_01_05_S15 01/06/2018 07:40:00 0.0
2018_01_05_S15 01/06/2018 07:45:00 0.001
2018_01_05_S15 01/06/2018 07:50:00 0.007
2018_01_05_S15 01/06/2018 07:55:00 0.0292
2018_01_05_S15 01/06/2018 08:00:00 0.0001

2018_01_05_S16 01/04/2018 10:25:00 0.181
2018_01_05_S16 01/04/2018 10:30:00 0.0045
2018_01_05_S16 01/04/2018 10:35:00 0.0
2018_01_05_S16 01/04/2018 10:40:00 0.0023
2018_01_05_S16 01/04/2018 10:45:00 0.0135
2018_01_05_S16 01/04/2018 10:50:00 0.1724
2018_01_05_S16 01/04/2018 10:55:00 0.0
2018_01_05_S16 01/04/2018 11:00:00 0.0
2018_01_05_S16 01/04/2018 11:05:00 0.3219
2018_01_05_S16 01/04/2018 11:10:00 0.0074
2018_01_05_S16 01/04/2018 11:15:00 0.8449
2018_01_05_S16 01/04/2018 11:20:00 0.0765
2018_01_05_S16 01/04/2018 11:25:00 0.0888
2018_01_05_S16 01/04/2018 11:30:00 0.0012
2018_01_05_S16 01/04/2018 11:35:00 0.0
2018_01_05_S16 01/04/2018 11:40:00 0.0
2018_01_05_S16 01/04/2018 11:45:00 0.0
2018_01_05_S16 01/04/2018 11:50:00 0.0
2018_01_05_S16 01/04/2018 11:55:00 0.0
2018_01_05_S16 01/04/2018 12:00:00 0.0
2018_01_05_S16 01/04/2018 12:05:00 0.0
2018_01_05_S16 01/04/2018 12:10:00 0.0
2018_01_05_S16 01/04/2018 12:15:00 0.0
2018_01_05_S16 01/04/2018 12:20:00 0.0
2018_01_05_S16 01/04/2018 12:25:00 0.0
2018_01_05_S16 01/04/2018 12:30:00 0.0526
2018_01_05_S16 01/04/2018 12:35:00 0.0
2018_01_05_S16 01/04/2018 12:40:00 0.0
2018_01_05_S16 01/04/2018 12:45:00 0.0171
2018_01_05_S16 01/04/2018 12:50:00 0.0
2018_01_05_S16 01/04/2018 12:55:00 0.0
2018_01_05_S16 01/04/2018 13:00:00 0.0
2018_01_05_S16 01/04/2018 13:05:00 0.0
2018_01_05_S16 01/04/2018 13:10:00 0.0
2018_01_05_S16 01/04/2018 13:15:00 0.0
2018_01_05_S16 01/04/2018 13:20:00 0.0
2018_01_05_S16 01/04/2018 13:25:00 0.0
2018_01_05_S16 01/04/2018 13:30:00 0.0
2018_01_05_S16 01/04/2018 13:35:00 0.0
2018_01_05_S16 01/04/2018 13:40:00 0.0
2018_01_05_S16 01/04/2018 13:45:00 0.0
2018_01_05_S16 01/04/2018 13:50:00 0.0
2018_01_05_S16 01/04/2018 13:55:00 0.0
2018_01_05_S16 01/04/2018 14:00:00 0.0
2018_01_05_S16 01/04/2018 14:05:00 0.0
2018_01_05_S16 01/04/2018 14:10:00 0.0
2018_01_05_S16 01/04/2018 14:15:00 0.0034
2018_01_05_S16 01/04/2018 14:20:00 0.0
2018_01_05_S16 01/04/2018 14:25:00 0.0031
2018_01_05_S16 01/04/2018 14:30:00 0.0
2018_01_05_S16 01/04/2018 14:35:00 0.0107
2018_01_05_S16 01/04/2018 14:40:00 0.0106
2018_01_05_S16 01/04/2018 14:45:00 0.0
2018_01_05_S16 01/04/2018 14:50:00 0.0
2018_01_05_S16 01/04/2018 14:55:00 0.0
2018_01_05_S16 01/04/2018 15:00:00 0.0
2018_01_05_S16 01/04/2018 15:05:00 0.0
2018_01_05_S16 01/04/2018 15:10:00 0.0
2018_01_05_S16 01/04/2018 15:15:00 0.0
2018_01_05_S16 01/04/2018 15:20:00 0.0
2018_01_05_S16 01/04/2018 15:25:00 0.0
2018_01_05_S16 01/04/2018 15:30:00 0.0
2018_01_05_S16 01/04/2018 15:35:00 0.943
2018_01_05_S16 01/04/2018 15:40:00 0.0012
2018_01_05_S16 01/04/2018 15:45:00 0.0
2018_01_05_S16 01/04/2018 15:50:00 0.0
2018_01_05_S16 01/04/2018 15:55:00 0.0189
2018_01_05_S16 01/04/2018 16:00:00 0.0327
2018_01_05_S16 01/04/2018 16:05:00 0.0265
2018_01_05_S16 01/04/2018 16:10:00 0.0081
2018_01_05_S16 01/04/2018 16:15:00 0.0333
2018_01_05_S16 01/04/2018 16:20:00 0.1059
2018_01_05_S16 01/04/2018 16:25:00 0.0124
2018_01_05_S16 01/04/2018 16:30:00 0.0
2018_01_05_S16 01/04/2018 16:35:00 0.0
2018_01_05_S16 01/04/2018 16:40:00 0.0
2018_01_05_S16 01/04/2018 16:45:00 0.0
2018_01_05_S16 01/04/2018 16:50:00 0.0
2018_01_05_S16 01/04/2018 16:55:00 0.0
2018_01_05_S16 01/04/2018 17:00:00 0.0
2018_01_05_S16 01/04/2018 17:05:00 0.0
2018_01_05_S16 01/04/2018 17:10:00 0.0637
2018_01_05_S16 01/04/2018 17:15:00 0.0264
2018_01_05_S16 01/04/2018 17:20:00 0.0
2018_01_05_S16 01/04/2018 17:25:00 0.0
2018_01_05_S16 01/04/2018 17:30:00 0.0505
2018_01_05_S16 01/04/2018 17:35:00 0.1784
2018_01_05_S16 01/04/2018 17:40:00 0.162
2018_01_05_S16 01/04/2018 17:45:00 0.1404
2018_01_05_S16 01/04/2018 17:50:00 0.1245
2018_01_05_S16 01/04/2018 17:55:00 0.1278
2018_01_05_S16 01/04/2018 18:00:00 0.2223
2018_01_05_S16 01/04/2018 18:05:00 0.2008
2018_01_05_S16 01/04/2018 18:10:00 0.0611
2018_01_05_S16 01/04/2018 18:15:00 0.0497
2018_01_05_S16 01/04/2018 18:20:00 0.0153
2018_01_05_S16 01/04/2018 18:25:00 0.0
2018_01_05_S16 01/04/2018 18:30:00 0.0
2018_01_05_S16 01/04/2018 18:35:00 0.0
2018_01_05_S16 01/04/2018 18:40:00 0.0
2018_01_05_S16 01/04/2018 18:45:00 0.0
2018_01_05_S16 01/04/2018 18:50:00 0.0
2018_01_05_S16 01/04/2018 18:55:00 0.0
2018_01_05_S16 01/04/2018 19:00:00 0.0
2018_01_05_S16 01/04/2018 19:05:00 0.0
2018_01_05_S16 01/04/2018 19:10:00 0.0
2018_01_05_S16 01/04/2018 19:15:00 0.0
2018_01_05_S16 01/04/2018 19:20:00 0.0
2018_01_05_S16 01/04/2018 19:25:00 0.0
2018_01_05_S16 01/04/2018 19:30:00 0.0
2018_01_05_S16 01/04/2018 19:35:00 0.0
2018_01_05_S16 01/04/2018 19:40:00 0.0
2018_01_05_S16 01/04/2018 19:45:00 0.0
2018_01_05_S16 01/04/2018 19:50:00 0.0
2018_01_05_S16 01/04/2018 19:55:00 0.0
2018_01_05_S16 01/04/2018 20:00:00 0.0
2018_01_05_S16 01/04/2018 20:05:00 0.0
2018_01_05_S16 01/04/2018 20:10:00 0.0
2018_01_05_S16 01/04/2018 20:15:00 0.0
2018_01_05_S16 01/04/2018 20:20:00 0.0
2018_01_05_S16 01/04/2018 20:25:00 0.0
2018_01_05_S16 01/04/2018 20:30:00 0.0
2018_01_05_S16 01/04/2018 20:35:00 0.0037
2018_01_05_S16 01/04/2018 20:40:00 0.0
2018_01_05_S16 01/04/2018 20:45:00 0.0
2018_01_05_S16 01/04/2018 20:50:00 0.0
2018_01_05_S16 01/04/2018 20:55:00 0.0
2018_01_05_S16 01/04/2018 21:00:00 0.0
2018_01_05_S16 01/04/2018 21:05:00 0.0
2018_01_05_S16 01/04/2018 21:10:00 0.0
2018_01_05_S16 01/04/2018 21:15:00 0.0
2018_01_05_S16 01/04/2018 21:20:00 0.0
2018_01_05_S16 01/04/2018 21:25:00 0.003
2018_01_05_S16 01/04/2018 21:30:00 0.0041
2018_01_05_S16 01/04/2018 21:35:00 0.1427
2018_01_05_S16 01/04/2018 21:40:00 0.0628
2018_01_05_S16 01/04/2018 21:45:00 0.0034
2018_01_05_S16 01/04/2018 21:50:00 0.0
2018_01_05_S16 01/04/2018 21:55:00 0.0
2018_01_05_S16 01/04/2018 22:00:00 0.0
2018_01_05_S16 01/04/2018 22:05:00 0.0
2018_01_05_S16 01/04/2018 22:10:00 0.0
2018_01_05_S16 01/04/2018 22:15:00 0.0
2018_01_05_S16 01/04/2018 22:20:00 0.0
2018_01_05_S16 01/04/2018 22:25:00 0.0
2018_01_05_S16 01/04/2018 22:30:00 0.0
2018_01_05_S16 01/04/2018 22:35:00 0.0
2018_01_05_S16 01/04/2018 22:40:00 0.0
2018_01_05_S16 01/04/2018 22:45:00 0.0
2018_01_05_S16 01/04/2018 22:50:00 0.0
2018_01_05_S16 01/04/2018 22:55:00 0.0
2018_01_05_S16 01/04/2018 23:00:00 0.0
2018_01_05_S16 01/04/2018 23:05:00 0.0
2018_01_05_S16 01/04/2018 23:10:00 0.0
2018_01_05_S16 01/04/2018 23:15:00 0.0
2018_01_05_S16 01/04/2018 23:20:00 0.0
2018_01_05_S16 01/04/2018 23:25:00 0.0
2018_01_05_S16 01/04/2018 23:30:00 0.0
2018_01_05_S16 01/04/2018 23:35:00 0.0
2018_01_05_S16 01/04/2018 23:40:00 0.0
2018_01_05_S16 01/04/2018 23:45:00 0.0
2018_01_05_S16 01/04/2018 23:50:00 0.0
2018_01_05_S16 01/04/2018 23:55:00 0.0
2018_01_05_S16 01/05/2018 00:00:00 0.0
2018_01_05_S16 01/05/2018 00:05:00 0.0
2018_01_05_S16 01/05/2018 00:10:00 0.0
2018_01_05_S16 01/05/2018 00:15:00 0.0
2018_01_05_S16 01/05/2018 00:20:00 0.0
2018_01_05_S16 01/05/2018 00:25:00 0.0
2018_01_05_S16 01/05/2018 00:30:00 0.0
2018_01_05_S16 01/05/2018 00:35:00 0.0
2018_01_05_S16 01/05/2018 00:40:00 0.0
2018_01_05_S16 01/05/2018 00:45:00 0.0
2018_01_05_S16 01/05/2018 00:50:00 0.04
2018_01_05_S16 01/05/2018 00:55:00 0.0213
2018_01_05_S16 01/05/2018 01:00:00 0.0193
2018_01_05_S16 01/05/2018 01:05:00 0.1325
2018_01_05_S16 01/05/2018 01:10:00 0.0454
2018_01_05_S16 01/05/2018 01:15:00 0.0095
2018_01_05_S16 01/05/2018 01:20:00 0.0131
2018_01_05_S16 01/05/2018 01:25:00 0.026
2018_01_05_S16 01/05/2018 01:30:00 0.0116
2018_01_05_S16 01/05/2018 01:35:00 0.0762
2018_01_05_S16 01/05/2018 01:40:00 0.0
2018_01_05_S16 01/05/2018 01:45:00 0.0087
2018_01_05_S16 01/05/2018 01:50:00 0.0278
2018_01_05_S16 01/05/2018 01:55:00 0.0152
2018_01_05_S16 01/05/2018 02:00:00 0.0054
2018_01_05_S16 01/05/2018 02:05:00 0.0208
2018_01_05_S16 01/05/2018 02:10:00 0.0272
2018_01_05_S16 01/05/2018 02:15:00 0.0337
2018_01_05_S16 01/05/2018 02:20:00 0.0109
2018_01_05_S16 01/05/2018 02:25:00 0.0
2018_01_05_S16 01/05/2018 02:30:00 0.0
2018_01_05_S16 01/05/2018 02:35:00 0.0
2018_01_05_S16 01/05/2018 02:40:00 0.0
2018_01_05_S16 01/05/2018 02:45:00 0.0
2018_01_05_S16 01/05/2018 02:50:00 0.0
2018_01_05_S16 01/05/2018 02:55:00 0.0
2018_01_05_S16 01/05/2018 03:00:00 0.0
2018_01_05_S16 01/05/2018 03:05:00 0.2043
2018_01_05_S16 01/05/2018 03:10:00 0.2058
2018_01_05_S16 01/05/2018 03:15:00 0.2474
2018_01_05_S16 01/05/2018 03:20:00 0.3429
2018_01_05_S16 01/05/2018 03:25:00 0.3845
2018_01_05_S16 01/05/2018 03:30:00 0.192
2018_01_05_S16 01/05/2018 03:35:00 0.1336
2018_01_05_S16 01/05/2018 03:40:00 0.0
2018_01_05_S16 01/05/2018 03:45:00 0.0043
2018_01_05_S16 01/05/2018 03:50:00 0.0453
2018_01_05_S16 01/05/2018 03:55:00 0.0222
2018_01_05_S16 01/05/2018 04:00:00 0.0767
2018_01_05_S16 01/05/2018 04:05:00 0.0
2018_01_05_S16 01/05/2018 04:10:00 0.0032
2018_01_05_S16 01/05/2018 04:15:00 0.0093
2018_01_05_S16 01/05/2018 04:20:00 0.0059
2018_01_05_S16 01/05/2018 04:25:00 0.0718
2018_01_05_S16 01/05/2018 04:30:00 0.0057
2018_01_05_S16 01/05/2018 04:35:00 0.0576
2018_01_05_S16 01/05/2018 04:40:00 0.0645
2018_01_05_S16 01/05/2018 04:45:00 0.0927
2018_01_05_S16 01/05/2018 04:50:00 0.0501
2018_01_05_S16 01/05/2018 04:55:00 0.0091
2018_01_05_S16 01/05/2018 05:00:00 0.0647
2018_01_05_S16 01/05/2018 05:05:00 0.0
2018_01_05_S16 01/05/2018 05:10:00 0.0155
2018_01_05_S16 01/05/2018 05:15:00 0.0
2018_01_05_S16 01/05/2018 05:20:00 0.0107
2018_01_05_S16 01/05/2018 05:25:00 0.0
2018_01_05_S16 01/05/2018 05:30:00 0.0051
2018_01_05_S16 01/05/2018 05:35:00 0.0
2018_01_05_S16 01/05/2018 05:40:00 0.0
2018_01_05_S16 01/05/2018 05:45:00 0.0
2018_01_05_S16 01/05/2018 05:50:00 0.0
2018_01_05_S16 01/05/2018 05:55:00 0.0275
2018_01_05_S16 01/05/2018 06:00:00 0.2584
2018_01_05_S16 01/05/2018 06:05:00 0.155
2018_01_05_S16 01/05/2018 06:10:00 0.0223
2018_01_05_S16 01/05/2018 06:15:00 0.0122
2018_01_05_S16 01/05/2018 06:20:00 0.0449
2018_01_05_S16 01/05/2018 06:25:00 3.7899
2018_01_05_S16 01/05/2018 06:30:00 2.2545
2018_01_05_S16 01/05/2018 06:35:00 2.8883
2018_01_05_S16 01/05/2018 06:40:00 0.7012
2018_01_05_S16 01/05/2018 06:45:00 2.2131
2018_01_05_S16 01/05/2018 06:50:00 1.1437
2018_01_05_S16 01/05/2018 06:55:00 0.5348
2018_01_05_S16 01/05/2018 07:00:00 0.2251
2018_01_05_S16 01/05/2018 07:05:00 0.2793
2018_01_05_S16 01/05/2018 07:10:00 0.446
2018_01_05_S16 01/05/2018 07:15:00 0.0
2018_01_05_S16 01/05/2018 07:20:00 0.0
2018_01_05_S16 01/05/2018 07:25:00 0.0
2018_01_05_S16 01/05/2018 07:30:00 0.0
2018_01_05_S16 01/05/2018 07:35:00 0.0
2018_01_05_S16 01/05/2018 07:40:00 0.0
2018_01_05_S16 01/05/2018 07:45:00 0.0
2018_01_05_S16 01/05/2018 07:50:00 0.0
2018_01_05_S16 01/05/2018 07:55:00 0.0
2018_01_05_S16 01/05/2018 08:00:00 0.0
2018_01_05_S16 01/05/2018 08:05:00 0.0
2018_01_05_S16 01/05/2018 08:10:00 0.0
2018_01_05_S16 01/05/2018 08:15:00 0.0
2018_01_05_S16 01/05/2018 08:20:00 0.0
2018_01_05_S16 01/05/2018 08:25:00 0.0018
2018_01_05_S16 01/05/2018 08:30:00 0.0118
2018_01_05_S16 01/05/2018 08:35:00 0.0371
2018_01_05_S16 01/05/2018 08:40:00 0.3449
2018_01_05_S16 01/05/2018 08:45:00 0.5559
2018_01_05_S16 01/05/2018 08:50:00 0.4231
2018_01_05_S16 01/05/2018 08:55:00 1.5667
2018_01_05_S16 01/05/2018 09:00:00 0.2929
2018_01_05_S16 01/05/2018 09:05:00 1.5826
2018_01_05_S16 01/05/2018 09:10:00 0.5829
2018_01_05_S16 01/05/2018 09:15:00 0.1129
2018_01_05_S16 01/05/2018 09:20:00 0.067
2018_01_05_S16 01/05/2018 09:25:00 0.0
2018_01_05_S16 01/05/2018 09:30:00 0.0083
2018_01_05_S16 01/05/2018 09:35:00 0.0934
2018_01_05_S16 01/05/2018 09:40:00 1.9933
2018_01_05_S16 01/05/2018 09:45:00 3.8898
2018_01_05_S16 01/05/2018 09:50:00 2.2927
2018_01_05_S16 01/05/2018 09:55:00 3.4692
2018_01_05_S16 01/05/2018 10:00:00 0.0
2018_01_05_S16 01/05/2018 10:05:00 0.0404
2018_01_05_S16 01/05/2018 10:10:00 0.0
2018_01_05_S16 01/05/2018 10:15:00 0.0
2018_01_05_S16 01/05/2018 10:20:00 0.0011
2018_01_05_S16 01/05/2018 10:25:00 0.0051
2018_01_05_S16 01/05/2018 10:30:00 3.841
2018_01_05_S16 01/05/2018 10:35:00 0.0141
2018_01_05_S16 01/05/2018 10:40:00 0.1144
2018_01_05_S16 01/05/2018 10:45:00 1.5638
2018_01_05_S16 01/05/2018 10:50:00 0.0889
2018_01_05_S16 01/05/2018 10:55:00 0.0
2018_01_05_S16 01/05/2018 11:00:00 0.0029
2018_01_05_S16 01/05/2018 11:05:00 0.0414
2018_01_05_S16 01/05/2018 11:10:00 0.2154
2018_01_05_S16 01/05/2018 11:15:00 0.2436
2018_01_05_S16 01/05/2018 11:20:00 0.1722
2018_01_05_S16 01/05/2018 11:25:00 0.129
2018_01_05_S16 01/05/2018 11:30:00 0.114
2018_01_05_S16 01/05/2018 11:35:00 0.6021
2018_01_05_S16 01/05/2018 11:40:00 0.4723
2018_01_05_S16 01/05/2018 11:45:00 0.1143
2018_01_05_S16 01/05/2018 11:50:00 0.0
2018_01_05_S16 01/05/2018 11:55:00 0.0
2018_01_05_S16 01/05/2018 12:00:00 0.0412
2018_01_05_S16 01/05/2018 12:05:00 0.1221
2018_01_05_S16 01/05/2018 12:10:00 0.2582
2018_01_05_S16 01/05/2018 12:15:00 1.1633
2018_01_05_S16 01/05/2018 12:20:00 0.2908
2018_01_05_S16 01/05/2018 12:25:00 0.6324
2018_01_05_S16 01/05/2018 12:30:00 1.444
2018_01_05_S16 01/05/2018 12:35:00 0.3326
2018_01_05_S16 01/05/2018 12:40:00 2.4228
2018_01_05_S16 01/05/2018 12:45:00 4.6314
2018_01_05_S16 01/05/2018 12:50:00 0.1843
2018_01_05_S16 01/05/2018 12:55:00 0.4709
2018_01_05_S16 01/05/2018 13:00:00 0.0584
2018_01_05_S16 01/05/2018 13:05:00 0.3045
2018_01_05_S16 01/05/2018 13:10:00 0.0
2018_01_05_S16 01/05/2018 13:15:00 0.0
2018_01_05_S16 01/05/2018 13:20:00 0.0
2018_01_05_S16 01/05/2018 13:25:00 0.0066
2018_01_05_S16 01/05/2018 13:30:00 0.0961
2018_01_05_S16 01/05/2018 13:35:00 0.0181
2018_01_05_S16 01/05/2018 13:40:00 0.0278
2018_01_05_S16 01/05/2018 13:45:00 0.2146
2018_01_05_S16 01/05/2018 13:50:00 0.3084
2018_01_05_S16 01/05/2018 13:55:00 0.2111
2018_01_05_S16 01/05/2018 14:00:00 0.0961
2018_01_05_S16 01/05/2018 14:05:00 0.1078
2018_01_05_S16 01/05/2018 14:10:00 0.0734
2018_01_05_S16 01/05/2018 14:15:00 0.0652
2018_01_05_S16 01/05/2018 14:20:00 0.0
2018_01_05_S16 01/05/2018 14:25:00 0.0
2018_01_05_S16 01/05/2018 14:30:00 0.0
2018_01_05_S16 01/05/2018 14:35:00 0.0013
2018_01_05_S16 01/05/2018 14:40:00 0.0284
2018_01_05_S16 01/05/2018 14:45:00 0.7289
2018_01_05_S16 01/05/2018 14:50:00 2.0136
2018_01_05_S16 01/05/2018 14:55:00 0.0941
2018_01_05_S16 01/05/2018 15:00:00 0.0291
2018_01_05_S16 01/05/2018 15:05:00 0.0067
2018_01_05_S16 01/05/2018 15:10:00 0.105
2018_01_05_S16 01/05/2018 15:15:00 0.0257
2018_01_05_S16 01/05/2018 15:20:00 2.0197
2018_01_05_S16 01/05/2018 15:25:00 0.0
2018_01_05_S16 01/05/2018 15:30:00 0.0
2018_01_05_S16 01/05/2018 15:35:00 0.0126
2018_01_05_S16 01/05/2018 15:40:00 0.0713
2018_01_05_S16 01/05/2018 15:45:00 0.0082
2018_01_05_S16 01/05/2018 15:50:00 0.0
2018_01_05_S16 01/05/2018 15:55:00 0.0
2018_01_05_S16 01/05/2018 16:00:00 0.0
2018_01_05_S16 01/05/2018 16:05:00 0.0
2018_01_05_S16 01/05/2018 16:10:00 0.0
2018_01_05_S16 01/05/2018 16:15:00 0.0
2018_01_05_S16 01/05/2018 16:20:00 0.0
2018_01_05_S16 01/05/2018 16:25:00 0.0
2018_01_05_S16 01/05/2018 16:30:00 0.0
2018_01_05_S16 01/05/2018 16:35:00 0.0
2018_01_05_S16 01/05/2018 16:40:00 0.0
2018_01_05_S16 01/05/2018 16:45:00 0.0
2018_01_05_S16 01/05/2018 16:50:00 0.0
2018_01_05_S16 01/05/2018 16:55:00 0.0
2018_01_05_S16 01/05/2018 17:00:00 0.0
2018_01_05_S16 01/05/2018 17:05:00 0.0
2018_01_05_S16 01/05/2018 17:10:00 0.0
2018_01_05_S16 01/05/2018 17:15:00 0.0
2018_01_05_S16 01/05/2018 17:20:00 0.0
2018_01_05_S16 01/05/2018 17:25:00 0.0
2018_01_05_S16 01/05/2018 17:30:00 0.0
2018_01_05_S16 01/05/2018 17:35:00 0.0
2018_01_05_S16 01/05/2018 17:40:00 0.0
2018_01_05_S16 01/05/2018 17:45:00 0.0
2018_01_05_S16 01/05/2018 17:50:00 0.0
2018_01_05_S16 01/05/2018 17:55:00 0.0356
2018_01_05_S16 01/05/2018 18:00:00 0.0389
2018_01_05_S16 01/05/2018 18:05:00 0.0
2018_01_05_S16 01/05/2018 18:10:00 0.0
2018_01_05_S16 01/05/2018 18:15:00 0.0
2018_01_05_S16 01/05/2018 18:20:00 0.0458
2018_01_05_S16 01/05/2018 18:25:00 0.0252
2018_01_05_S16 01/05/2018 18:30:00 0.0
2018_01_05_S16 01/05/2018 18:35:00 0.0
2018_01_05_S16 01/05/2018 18:40:00 0.0
2018_01_05_S16 01/05/2018 18:45:00 0.0
2018_01_05_S16 01/05/2018 18:50:00 0.0
2018_01_05_S16 01/05/2018 18:55:00 0.0
2018_01_05_S16 01/05/2018 19:00:00 0.0
2018_01_05_S16 01/05/2018 19:05:00 0.0
2018_01_05_S16 01/05/2018 19:10:00 0.0
2018_01_05_S16 01/05/2018 19:15:00 0.0
2018_01_05_S16 01/05/2018 19:20:00 0.0
2018_01_05_S16 01/05/2018 19:25:00 0.0012
2018_01_05_S16 01/05/2018 19:30:00 0.0097
2018_01_05_S16 01/05/2018 19:35:00 0.0045
2018_01_05_S16 01/05/2018 19:40:00 0.0019
2018_01_05_S16 01/05/2018 19:45:00 0.017
2018_01_05_S16 01/05/2018 19:50:00 0.1089
2018_01_05_S16 01/05/2018 19:55:00 0.1111
2018_01_05_S16 01/05/2018 20:00:00 0.0188
2018_01_05_S16 01/05/2018 20:05:00 0.0102
2018_01_05_S16 01/05/2018 20:10:00 0.0
2018_01_05_S16 01/05/2018 20:15:00 0.0
2018_01_05_S16 01/05/2018 20:20:00 0.0
2018_01_05_S16 01/05/2018 20:25:00 0.0
2018_01_05_S16 01/05/2018 20:30:00 0.0
2018_01_05_S16 01/05/2018 20:35:00 0.0
2018_01_05_S16 01/05/2018 20:40:00 0.0
2018_01_05_S16 01/05/2018 20:45:00 0.0
2018_01_05_S16 01/05/2018 20:50:00 0.0
2018_01_05_S16 01/05/2018 20:55:00 0.1221
2018_01_05_S16 01/05/2018 21:00:00 0.0016
2018_01_05_S16 01/05/2018 21:05:00 0.0
2018_01_05_S16 01/05/2018 21:10:00 0.0
2018_01_05_S16 01/05/2018 21:15:00 0.0
2018_01_05_S16 01/05/2018 21:20:00 0.0
2018_01_05_S16 01/05/2018 21:25:00 0.0
2018_01_05_S16 01/05/2018 21:30:00 0.0
2018_01_05_S16 01/05/2018 21:35:00 0.0
2018_01_05_S16 01/05/2018 21:40:00 0.0181
2018_01_05_S16 01/05/2018 21:45:00 0.0
2018_01_05_S16 01/05/2018 21:50:00 0.0
2018_01_05_S16 01/05/2018 21:55:00 0.0
2018_01_05_S16 01/05/2018 22:00:00 0.0
2018_01_05_S16 01/05/2018 22:05:00 0.0045
2018_01_05_S16 01/05/2018 22:10:00 0.0
2018_01_05_S16 01/05/2018 22:15:00 0.0
2018_01_05_S16 01/05/2018 22:20:00 0.0
2018_01_05_S16 01/05/2018 22:25:00 0.0678
2018_01_05_S16 01/05/2018 22:30:00 0.0064
2018_01_05_S16 01/05/2018 22:35:00 0.0276
2018_01_05_S16 01/05/2018 22:40:00 0.0164
2018_01_05_S16 01/05/2018 22:45:00 0.0
2018_01_05_S16 01/05/2018 22:50:00 0.0005
2018_01_05_S16 01/05/2018 22:55:00 0.0
2018_01_05_S16 01/05/2018 23:00:00 0.0
2018_01_05_S16 01/05/2018 23:05:00 0.0
2018_01_05_S16 01/05/2018 23:10:00 0.0
2018_01_05_S16 01/05/2018 23:15:00 0.0
2018_01_05_S16 01/05/2018 23:20:00 0.0
2018_01_05_S16 01/05/2018 23:25:00 0.0
2018_01_05_S16 01/05/2018 23:30:00 0.0
2018_01_05_S16 01/05/2018 23:35:00 0.0
2018_01_05_S16 01/05/2018 23:40:00 0.0
2018_01_05_S16 01/05/2018 23:45:00 0.0697
2018_01_05_S16 01/05/2018 23:50:00 0.1059
2018_01_05_S16 01/05/2018 23:55:00 0.0
2018_01_05_S16 01/06/2018 00:00:00 0.0105
2018_01_05_S16 01/06/2018 00:05:00 0.007
2018_01_05_S16 01/06/2018 00:10:00 0.0
2018_01_05_S16 01/06/2018 00:15:00 0.1605
2018_01_05_S16 01/06/2018 00:20:00 0.0271
2018_01_05_S16 01/06/2018 00:25:00 0.0
2018_01_05_S16 01/06/2018 00:30:00 0.0
2018_01_05_S16 01/06/2018 00:35:00 0.0
2018_01_05_S16 01/06/2018 00:40:00 0.0
2018_01_05_S16 01/06/2018 00:45:00 0.0
2018_01_05_S16 01/06/2018 00:50:00 0.0
2018_01_05_S16 01/06/2018 00:55:00 0.0
2018_01_05_S16 01/06/2018 01:00:00 0.0
2018_01_05_S16 01/06/2018 01:05:00 0.0
2018_01_05_S16 01/06/2018 01:10:00 0.0009
2018_01_05_S16 01/06/2018 01:15:00 0.0
2018_01_05_S16 01/06/2018 01:20:00 0.0
2018_01_05_S16 01/06/2018 01:25:00 0.0
2018_01_05_S16 01/06/2018 01:30:00 0.0
2018_01_05_S16 01/06/2018 01:35:00 0.0
2018_01_05_S16 01/06/2018 01:40:00 0.0
2018_01_05_S16 01/06/2018 01:45:00 0.0
2018_01_05_S16 01/06/2018 01:50:00 0.0
2018_01_05_S16 01/06/2018 01:55:00 0.0
2018_01_05_S16 01/06/2018 02:00:00 0.0
2018_01_05_S16 01/06/2018 02:05:00 0.0
2018_01_05_S16 01/06/2018 02:10:00 0.0
2018_01_05_S16 01/06/2018 02:15:00 0.0
2018_01_05_S16 01/06/2018 02:20:00 0.0
2018_01_05_S16 01/06/2018 02:25:00 0.0
2018_01_05_S16 01/06/2018 02:30:00 0.0
2018_01_05_S16 01/06/2018 02:35:00 0.0
2018_01_05_S16 01/06/2018 02:40:00 0.0
2018_01_05_S16 01/06/2018 02:45:00 0.0
2018_01_05_S16 01/06/2018 02:50:00 0.0
2018_01_05_S16 01/06/2018 02:55:00 0.0
2018_01_05_S16 01/06/2018 03:00:00 0.0
2018_01_05_S16 01/06/2018 03:05:00 0.0
2018_01_05_S16 01/06/2018 03:10:00 0.0
2018_01_05_S16 01/06/2018 03:15:00 0.0
2018_01_05_S16 01/06/2018 03:20:00 0.0
2018_01_05_S16 01/06/2018 03:25:00 0.0
2018_01_05_S16 01/06/2018 03:30:00 0.0
2018_01_05_S16 01/06/2018 03:35:00 0.0
2018_01_05_S16 01/06/2018 03:40:00 0.0198
2018_01_05_S16 01/06/2018 03:45:00 0.4412
2018_01_05_S16 01/06/2018 03:50:00 0.0025
2018_01_05_S16 01/06/2018 03:55:00 0.0
2018_01_05_S16 01/06/2018 04:00:00 0.0
2018_01_05_S16 01/06/2018 04:05:00 0.0
2018_01_05_S16 01/06/2018 04:10:00 0.0
2018_01_05_S16 01/06/2018 04:15:00 0.0
2018_01_05_S16 01/06/2018 04:20:00 0.0
2018_01_05_S16 01/06/2018 04:25:00 0.0158
2018_01_05_S16 01/06/2018 04:30:00 0.0
2018_01_05_S16 01/06/2018 04:35:00 0.0
2018_01_05_S16 01/06/2018 04:40:00 0.0
2018_01_05_S16 01/06/2018 04:45:00 0.0
2018_01_05_S16 01/06/2018 04:50:00 0.0
2018_01_05_S16 01/06/2018 04:55:00 0.0
2018_01_05_S16 01/06/2018 05:00:00 0.0
2018_01_05_S16 01/06/2018 05:05:00 0.0
2018_01_05_S16 01/06/2018 05:10:00 0.0
2018_01_05_S16 01/06/2018 05:15:00 0.0
2018_01_05_S16 01/06/2018 05:20:00 0.0
2018_01_05_S16 01/06/2018 05:25:00 0.0
2018_01_05_S16 01/06/2018 05:30:00 0.0
2018_01_05_S16 01/06/2018 05:35:00 0.0752
2018_01_05_S16 01/06/2018 05:40:00 0.4184
2018_01_05_S16 01/06/2018 05:45:00 0.0097
2018_01_05_S16 01/06/2018 05:50:00 0.0
2018_01_05_S16 01/06/2018 05:55:00 0.0005
2018_01_05_S16 01/06/2018 06:00:00 0.0
2018_01_05_S16 01/06/2018 06:05:00 0.0
2018_01_05_S16 01/06/2018 06:10:00 0.0102
2018_01_05_S16 01/06/2018 06:15:00 0.0308
2018_01_05_S16 01/06/2018 06:20:00 0.0119
2018_01_05_S16 01/06/2018 06:25:00 0.0068
2018_01_05_S16 01/06/2018 06:30:00 0.0053
2018_01_05_S16 01/06/2018 06:35:00 0.0
2018_01_05_S16 01/06/2018 06:40:00 0.0
2018_01_05_S16 01/06/2018 06:45:00 0.0079
2018_01_05_S16 01/06/2018 06:50:00 0.0144
2018_01_05_S16 01/06/2018 06:55:00 0.0033
2018_01_05_S16 01/06/2018 07:00:00 0.0201
2018_01_05_S16 01/06/2018 07:05:00 0.0074
2018_01_05_S16 01/06/2018 07:10:00 0.0045
2018_01_05_S16 01/06/2018 07:15:00 0.0017
2018_01_05_S16 01/06/2018 07:20:00 0.0
2018_01_05_S16 01/06/2018 07:25:00 0.0
2018_01_05_S16 01/06/2018 07:30:00 0.0
2018_01_05_S16 01/06/2018 07:35:00 0.0
2018_01_05_S16 01/06/2018 07:40:00 0.0
2018_01_05_S16 01/06/2018 07:45:00 0.0028
2018_01_05_S16 01/06/2018 07:50:00 0.0205
2018_01_05_S16 01/06/2018 07:55:00 0.0432
2018_01_05_S16 01/06/2018 08:00:00 0.0

2018_01_05_S17 01/04/2018 10:25:00 0.2171
2018_01_05_S17 01/04/2018 10:30:00 0.0446
2018_01_05_S17 01/04/2018 10:35:00 0.0
2018_01_05_S17 01/04/2018 10:40:00 0.0
2018_01_05_S17 01/04/2018 10:45:00 0.0491
2018_01_05_S17 01/04/2018 10:50:00 0.1778
2018_01_05_S17 01/04/2018 10:55:00 0.0
2018_01_05_S17 01/04/2018 11:00:00 0.0
2018_01_05_S17 01/04/2018 11:05:00 1.1305
2018_01_05_S17 01/04/2018 11:10:00 0.0097
2018_01_05_S17 01/04/2018 11:15:00 2.1391
2018_01_05_S17 01/04/2018 11:20:00 0.0612
2018_01_05_S17 01/04/2018 11:25:00 0.1946
2018_01_05_S17 01/04/2018 11:30:00 0.0035
2018_01_05_S17 01/04/2018 11:35:00 0.0
2018_01_05_S17 01/04/2018 11:40:00 0.0
2018_01_05_S17 01/04/2018 11:45:00 0.0
2018_01_05_S17 01/04/2018 11:50:00 0.0
2018_01_05_S17 01/04/2018 11:55:00 0.0
2018_01_05_S17 01/04/2018 12:00:00 0.0
2018_01_05_S17 01/04/2018 12:05:00 0.0
2018_01_05_S17 01/04/2018 12:10:00 0.0
2018_01_05_S17 01/04/2018 12:15:00 0.0
2018_01_05_S17 01/04/2018 12:20:00 0.0
2018_01_05_S17 01/04/2018 12:25:00 0.0
2018_01_05_S17 01/04/2018 12:30:00 0.0516
2018_01_05_S17 01/04/2018 12:35:00 0.0
2018_01_05_S17 01/04/2018 12:40:00 0.0
2018_01_05_S17 01/04/2018 12:45:00 0.0035
2018_01_05_S17 01/04/2018 12:50:00 0.0
2018_01_05_S17 01/04/2018 12:55:00 0.0
2018_01_05_S17 01/04/2018 13:00:00 0.0
2018_01_05_S17 01/04/2018 13:05:00 0.0
2018_01_05_S17 01/04/2018 13:10:00 0.0
2018_01_05_S17 01/04/2018 13:15:00 0.0
2018_01_05_S17 01/04/2018 13:20:00 0.0
2018_01_05_S17 01/04/2018 13:25:00 0.0
2018_01_05_S17 01/04/2018 13:30:00 0.0
2018_01_05_S17 01/04/2018 13:35:00 0.0
2018_01_05_S17 01/04/2018 13:40:00 0.0
2018_01_05_S17 01/04/2018 13:45:00 0.0
2018_01_05_S17 01/04/2018 13:50:00 0.0
2018_01_05_S17 01/04/2018 13:55:00 0.0
2018_01_05_S17 01/04/2018 14:00:00 0.0007
2018_01_05_S17 01/04/2018 14:05:00 0.0
2018_01_05_S17 01/04/2018 14:10:00 0.0
2018_01_05_S17 01/04/2018 14:15:00 0.005
2018_01_05_S17 01/04/2018 14:20:00 0.0
2018_01_05_S17 01/04/2018 14:25:00 0.0081
2018_01_05_S17 01/04/2018 14:30:00 0.0008
2018_01_05_S17 01/04/2018 14:35:00 0.012
2018_01_05_S17 01/04/2018 14:40:00 0.0086
2018_01_05_S17 01/04/2018 14:45:00 0.0
2018_01_05_S17 01/04/2018 14:50:00 0.0
2018_01_05_S17 01/04/2018 14:55:00 0.0
2018_01_05_S17 01/04/2018 15:00:00 0.0
2018_01_05_S17 01/04/2018 15:05:00 0.0
2018_01_05_S17 01/04/2018 15:10:00 0.0
2018_01_05_S17 01/04/2018 15:15:00 0.0
2018_01_05_S17 01/04/2018 15:20:00 0.0
2018_01_05_S17 01/04/2018 15:25:00 0.0
2018_01_05_S17 01/04/2018 15:30:00 0.008
2018_01_05_S17 01/04/2018 15:35:00 0.8311
2018_01_05_S17 01/04/2018 15:40:00 0.0
2018_01_05_S17 01/04/2018 15:45:00 0.0
2018_01_05_S17 01/04/2018 15:50:00 0.0
2018_01_05_S17 01/04/2018 15:55:00 0.0283
2018_01_05_S17 01/04/2018 16:00:00 0.0362
2018_01_05_S17 01/04/2018 16:05:00 0.0571
2018_01_05_S17 01/04/2018 16:10:00 0.0021
2018_01_05_S17 01/04/2018 16:15:00 0.0353
2018_01_05_S17 01/04/2018 16:20:00 0.1229
2018_01_05_S17 01/04/2018 16:25:00 0.0033
2018_01_05_S17 01/04/2018 16:30:00 0.0
2018_01_05_S17 01/04/2018 16:35:00 0.0
2018_01_05_S17 01/04/2018 16:40:00 0.0
2018_01_05_S17 01/04/2018 16:45:00 0.0
2018_01_05_S17 01/04/2018 16:50:00 0.0
2018_01_05_S17 01/04/2018 16:55:00 0.0
2018_01_05_S17 01/04/2018 17:00:00 0.0
2018_01_05_S17 01/04/2018 17:05:00 0.0
2018_01_05_S17 01/04/2018 17:10:00 0.1612
2018_01_05_S17 01/04/2018 17:15:00 0.0028
2018_01_05_S17 01/04/2018 17:20:00 0.0
2018_01_05_S17 01/04/2018 17:25:00 0.0
2018_01_05_S17 01/04/2018 17:30:00 0.0299
2018_01_05_S17 01/04/2018 17:35:00 0.3327
2018_01_05_S17 01/04/2018 17:40:00 0.2865
2018_01_05_S17 01/04/2018 17:45:00 0.2053
2018_01_05_S17 01/04/2018 17:50:00 0.1635
2018_01_05_S17 01/04/2018 17:55:00 0.161
2018_01_05_S17 01/04/2018 18:00:00 0.2174
2018_01_05_S17 01/04/2018 18:05:00 0.1962
2018_01_05_S17 01/04/2018 18:10:00 0.0533
2018_01_05_S17 01/04/2018 18:15:00 0.0578
2018_01_05_S17 01/04/2018 18:20:00 0.0067
2018_01_05_S17 01/04/2018 18:25:00 0.0
2018_01_05_S17 01/04/2018 18:30:00 0.0
2018_01_05_S17 01/04/2018 18:35:00 0.0
2018_01_05_S17 01/04/2018 18:40:00 0.0
2018_01_05_S17 01/04/2018 18:45:00 0.0
2018_01_05_S17 01/04/2018 18:50:00 0.0
2018_01_05_S17 01/04/2018 18:55:00 0.0
2018_01_05_S17 01/04/2018 19:00:00 0.0
2018_01_05_S17 01/04/2018 19:05:00 0.0
2018_01_05_S17 01/04/2018 19:10:00 0.0
2018_01_05_S17 01/04/2018 19:15:00 0.0
2018_01_05_S17 01/04/2018 19:20:00 0.0
2018_01_05_S17 01/04/2018 19:25:00 0.0
2018_01_05_S17 01/04/2018 19:30:00 0.0
2018_01_05_S17 01/04/2018 19:35:00 0.0
2018_01_05_S17 01/04/2018 19:40:00 0.0
2018_01_05_S17 01/04/2018 19:45:00 0.0
2018_01_05_S17 01/04/2018 19:50:00 0.0
2018_01_05_S17 01/04/2018 19:55:00 0.0
2018_01_05_S17 01/04/2018 20:00:00 0.0
2018_01_05_S17 01/04/2018 20:05:00 0.0
2018_01_05_S17 01/04/2018 20:10:00 0.0
2018_01_05_S17 01/04/2018 20:15:00 0.0
2018_01_05_S17 01/04/2018 20:20:00 0.0
2018_01_05_S17 01/04/2018 20:25:00 0.001
2018_01_05_S17 01/04/2018 20:30:00 0.0
2018_01_05_S17 01/04/2018 20:35:00 0.0
2018_01_05_S17 01/04/2018 20:40:00 0.0
2018_01_05_S17 01/04/2018 20:45:00 0.0
2018_01_05_S17 01/04/2018 20:50:00 0.0
2018_01_05_S17 01/04/2018 20:55:00 0.0
2018_01_05_S17 01/04/2018 21:00:00 0.0
2018_01_05_S17 01/04/2018 21:05:00 0.0
2018_01_05_S17 01/04/2018 21:10:00 0.0
2018_01_05_S17 01/04/2018 21:15:00 0.0
2018_01_05_S17 01/04/2018 21:20:00 0.0
2018_01_05_S17 01/04/2018 21:25:00 0.0073
2018_01_05_S17 01/04/2018 21:30:00 0.0252
2018_01_05_S17 01/04/2018 21:35:00 0.2314
2018_01_05_S17 01/04/2018 21:40:00 0.1516
2018_01_05_S17 01/04/2018 21:45:00 0.0026
2018_01_05_S17 01/04/2018 21:50:00 0.0
2018_01_05_S17 01/04/2018 21:55:00 0.0
2018_01_05_S17 01/04/2018 22:00:00 0.0
2018_01_05_S17 01/04/2018 22:05:00 0.0
2018_01_05_S17 01/04/2018 22:10:00 0.0
2018_01_05_S17 01/04/2018 22:15:00 0.0
2018_01_05_S17 01/04/2018 22:20:00 0.0
2018_01_05_S17 01/04/2018 22:25:00 0.0
2018_01_05_S17 01/04/2018 22:30:00 0.0
2018_01_05_S17 01/04/2018 22:35:00 0.0
2018_01_05_S17 01/04/2018 22:40:00 0.0
2018_01_05_S17 01/04/2018 22:45:00 0.0
2018_01_05_S17 01/04/2018 22:50:00 0.0
2018_01_05_S17 01/04/2018 22:55:00 0.0
2018_01_05_S17 01/04/2018 23:00:00 0.0
2018_01_05_S17 01/04/2018 23:05:00 0.0
2018_01_05_S17 01/04/2018 23:10:00 0.0
2018_01_05_S17 01/04/2018 23:15:00 0.0
2018_01_05_S17 01/04/2018 23:20:00 0.0
2018_01_05_S17 01/04/2018 23:25:00 0.0
2018_01_05_S17 01/04/2018 23:30:00 0.0
2018_01_05_S17 01/04/2018 23:35:00 0.0
2018_01_05_S17 01/04/2018 23:40:00 0.0
2018_01_05_S17 01/04/2018 23:45:00 0.0
2018_01_05_S17 01/04/2018 23:50:00 0.0
2018_01_05_S17 01/04/2018 23:55:00 0.0
2018_01_05_S17 01/05/2018 00:00:00 0.0
2018_01_05_S17 01/05/2018 00:05:00 0.0
2018_01_05_S17 01/05/2018 00:10:00 0.0
2018_01_05_S17 01/05/2018 00:15:00 0.0
2018_01_05_S17 01/05/2018 00:20:00 0.0
2018_01_05_S17 01/05/2018 00:25:00 0.0
2018_01_05_S17 01/05/2018 00:30:00 0.0
2018_01_05_S17 01/05/2018 00:35:00 0.0
2018_01_05_S17 01/05/2018 00:40:00 0.0
2018_01_05_S17 01/05/2018 00:45:00 0.0
2018_01_05_S17 01/05/2018 00:50:00 0.0491
2018_01_05_S17 01/05/2018 00:55:00 0.0337
2018_01_05_S17 01/05/2018 01:00:00 0.0057
2018_01_05_S17 01/05/2018 01:05:00 0.1749
2018_01_05_S17 01/05/2018 01:10:00 0.0642
2018_01_05_S17 01/05/2018 01:15:00 0.0101
2018_01_05_S17 01/05/2018 01:20:00 0.0196
2018_01_05_S17 01/05/2018 01:25:00 0.0318
2018_01_05_S17 01/05/2018 01:30:00 0.0085
2018_01_05_S17 01/05/2018 01:35:00 0.0226
2018_01_05_S17 01/05/2018 01:40:00 0.0
2018_01_05_S17 01/05/2018 01:45:00 0.0175
2018_01_05_S17 01/05/2018 01:50:00 0.03
2018_01_05_S17 01/05/2018 01:55:00 0.0142
2018_01_05_S17 01/05/2018 02:00:00 0.0074
2018_01_05_S17 01/05/2018 02:05:00 0.0167
2018_01_05_S17 01/05/2018 02:10:00 0.0163
2018_01_05_S17 01/05/2018 02:15:00 0.0366
2018_01_05_S17 01/05/2018 02:20:00 0.0068
2018_01_05_S17 01/05/2018 02:25:00 0.0
2018_01_05_S17 01/05/2018 02:30:00 0.0
2018_01_05_S17 01/05/2018 02:35:00 0.0
2018_01_05_S17 01/05/2018 02:40:00 0.0
2018_01_05_S17 01/05/2018 02:45:00 0.0
2018_01_05_S17 01/05/2018 02:50:00 0.0
2018_01_05_S17 01/05/2018 02:55:00 0.0
2018_01_05_S17 01/05/2018 03:00:00 0.0
2018_01_05_S17 01/05/2018 03:05:00 0.2024
2018_01_05_S17 01/05/2018 03:10:00 0.2973
2018_01_05_S17 01/05/2018 03:15:00 0.2715
2018_01_05_S17 01/05/2018 03:20:00 0.5156
2018_01_05_S17 01/05/2018 03:25:00 0.3616
2018_01_05_S17 01/05/2018 03:30:00 0.3813
2018_01_05_S17 01/05/2018 03:35:00 0.1242
2018_01_05_S17 01/05/2018 03:40:00 0.0
2018_01_05_S17 01/05/2018 03:45:00 0.0076
2018_01_05_S17 01/05/2018 03:50:00 0.0525
2018_01_05_S17 01/05/2018 03:55:00 0.0122
2018_01_05_S17 01/05/2018 04:00:00 0.0833
2018_01_05_S17 01/05/2018 04:05:00 0.0
2018_01_05_S17 01/05/2018 04:10:00 0.0
2018_01_05_S17 01/05/2018 04:15:00 0.0074
2018_01_05_S17 01/05/2018 04:20:00 0.0073
2018_01_05_S17 01/05/2018 04:25:00 0.0995
2018_01_05_S17 01/05/2018 04:30:00 0.0183
2018_01_05_S17 01/05/2018 04:35:00 0.0336
2018_01_05_S17 01/05/2018 04:40:00 0.0381
2018_01_05_S17 01/05/2018 04:45:00 0.1111
2018_01_05_S17 01/05/2018 04:50:00 0.0436
2018_01_05_S17 01/05/2018 04:55:00 0.005
2018_01_05_S17 01/05/2018 05:00:00 0.0696
2018_01_05_S17 01/05/2018 05:05:00 0.0
2018_01_05_S17 01/05/2018 05:10:00 0.0067
2018_01_05_S17 01/05/2018 05:15:00 0.0
2018_01_05_S17 01/05/2018 05:20:00 0.0154
2018_01_05_S17 01/05/2018 05:25:00 0.0
2018_01_05_S17 01/05/2018 05:30:00 0.0055
2018_01_05_S17 01/05/2018 05:35:00 0.0
2018_01_05_S17 01/05/2018 05:40:00 0.0
2018_01_05_S17 01/05/2018 05:45:00 0.0
2018_01_05_S17 01/05/2018 05:50:00 0.0
2018_01_05_S17 01/05/2018 05:55:00 0.018
2018_01_05_S17 01/05/2018 06:00:00 0.3369
2018_01_05_S17 01/05/2018 06:05:00 0.1406
2018_01_05_S17 01/05/2018 06:10:00 0.0129
2018_01_05_S17 01/05/2018 06:15:00 0.0084
2018_01_05_S17 01/05/2018 06:20:00 0.6487
2018_01_05_S17 01/05/2018 06:25:00 6.2688
2018_01_05_S17 01/05/2018 06:30:00 1.2781
2018_01_05_S17 01/05/2018 06:35:00 2.7398
2018_01_05_S17 01/05/2018 06:40:00 0.4324
2018_01_05_S17 01/05/2018 06:45:00 0.983
2018_01_05_S17 01/05/2018 06:50:00 1.1603
2018_01_05_S17 01/05/2018 06:55:00 0.3215
2018_01_05_S17 01/05/2018 07:00:00 0.2644
2018_01_05_S17 01/05/2018 07:05:00 0.2248
2018_01_05_S17 01/05/2018 07:10:00 0.3179
2018_01_05_S17 01/05/2018 07:15:00 0.0
2018_01_05_S17 01/05/2018 07:20:00 0.0
2018_01_05_S17 01/05/2018 07:25:00 0.0
2018_01_05_S17 01/05/2018 07:30:00 0.0
2018_01_05_S17 01/05/2018 07:35:00 0.0
2018_01_05_S17 01/05/2018 07:40:00 0.0
2018_01_05_S17 01/05/2018 07:45:00 0.0
2018_01_05_S17 01/05/2018 07:50:00 0.0
2018_01_05_S17 01/05/2018 07:55:00 0.0
2018_01_05_S17 01/05/2018 08:00:00 0.0
2018_01_05_S17 01/05/2018 08:05:00 0.0
2018_01_05_S17 01/05/2018 08:10:00 0.0
2018_01_05_S17 01/05/2018 08:15:00 0.0
2018_01_05_S17 01/05/2018 08:20:00 0.0
2018_01_05_S17 01/05/2018 08:25:00 0.0004
2018_01_05_S17 01/05/2018 08:30:00 0.0165
2018_01_05_S17 01/05/2018 08:35:00 0.0728
2018_01_05_S17 01/05/2018 08:40:00 0.5083
2018_01_05_S17 01/05/2018 08:45:00 0.6297
2018_01_05_S17 01/05/2018 08:50:00 0.3691
2018_01_05_S17 01/05/2018 08:55:00 1.8942
2018_01_05_S17 01/05/2018 09:00:00 0.3849
2018_01_05_S17 01/05/2018 09:05:00 1.1134
2018_01_05_S17 01/05/2018 09:10:00 0.6818
2018_01_05_S17 01/05/2018 09:15:00 0.1257
2018_01_05_S17 01/05/2018 09:20:00 0.026
2018_01_05_S17 01/05/2018 09:25:00 0.0
2018_01_05_S17 01/05/2018 09:30:00 0.0037
2018_01_05_S17 01/05/2018 09:35:00 0.0769
2018_01_05_S17 01/05/2018 09:40:00 1.8422
2018_01_05_S17 01/05/2018 09:45:00 2.0006
2018_01_05_S17 01/05/2018 09:50:00 1.4393
2018_01_05_S17 01/05/2018 09:55:00 3.8699
2018_01_05_S17 01/05/2018 10:00:00 0.0103
2018_01_05_S17 01/05/2018 10:05:00 0.0979
2018_01_05_S17 01/05/2018 10:10:00 0.0
2018_01_05_S17 01/05/2018 10:15:00 0.0
2018_01_05_S17 01/05/2018 10:20:00 0.0
2018_01_05_S17 01/05/2018 10:25:00 0.0323
2018_01_05_S17 01/05/2018 10:30:00 3.1992
2018_01_05_S17 01/05/2018 10:35:00 0.0137
2018_01_05_S17 01/05/2018 10:40:00 0.1369
2018_01_05_S17 01/05/2018 10:45:00 0.8708
2018_01_05_S17 01/05/2018 10:50:00 0.0853
2018_01_05_S17 01/05/2018 10:55:00 0.0
2018_01_05_S17 01/05/2018 11:00:00 0.0104
2018_01_05_S17 01/05/2018 11:05:00 0.0592
2018_01_05_S17 01/05/2018 11:10:00 0.18
2018_01_05_S17 01/05/2018 11:15:00 0.2642
2018_01_05_S17 01/05/2018 11:20:00 0.1442
2018_01_05_S17 01/05/2018 11:25:00 0.1089
2018_01_05_S17 01/05/2018 11:30:00 0.1418
2018_01_05_S17 01/05/2018 11:35:00 0.2469
2018_01_05_S17 01/05/2018 11:40:00 0.2737
2018_01_05_S17 01/05/2018 11:45:00 0.0404
2018_01_05_S17 01/05/2018 11:50:00 0.0023
2018_01_05_S17 01/05/2018 11:55:00 0.0
2018_01_05_S17 01/05/2018 12:00:00 0.0554
2018_01_05_S17 01/05/2018 12:05:00 0.1325
2018_01_05_S17 01/05/2018 12:10:00 0.3716
2018_01_05_S17 01/05/2018 12:15:00 1.0982
2018_01_05_S17 01/05/2018 12:20:00 0.2507
2018_01_05_S17 01/05/2018 12:25:00 0.528
2018_01_05_S17 01/05/2018 12:30:00 1.4266
2018_01_05_S17 01/05/2018 12:35:00 0.4497
2018_01_05_S17 01/05/2018 12:40:00 2.4609
2018_01_05_S17 01/05/2018 12:45:00 4.1764
2018_01_05_S17 01/05/2018 12:50:00 0.2939
2018_01_05_S17 01/05/2018 12:55:00 0.2199
2018_01_05_S17 01/05/2018 13:00:00 0.0674
2018_01_05_S17 01/05/2018 13:05:00 0.1771
2018_01_05_S17 01/05/2018 13:10:00 0.0007
2018_01_05_S17 01/05/2018 13:15:00 0.0
2018_01_05_S17 01/05/2018 13:20:00 0.0
2018_01_05_S17 01/05/2018 13:25:00 0.0078
2018_01_05_S17 01/05/2018 13:30:00 0.0488
2018_01_05_S17 01/05/2018 13:35:00 0.0097
2018_01_05_S17 01/05/2018 13:40:00 0.0223
2018_01_05_S17 01/05/2018 13:45:00 0.2826
2018_01_05_S17 01/05/2018 13:50:00 0.3109
2018_01_05_S17 01/05/2018 13:55:00 0.2421
2018_01_05_S17 01/05/2018 14:00:00 0.1495
2018_01_05_S17 01/05/2018 14:05:00 0.2179
2018_01_05_S17 01/05/2018 14:10:00 0.2008
2018_01_05_S17 01/05/2018 14:15:00 0.0902
2018_01_05_S17 01/05/2018 14:20:00 0.0
2018_01_05_S17 01/05/2018 14:25:00 0.0
2018_01_05_S17 01/05/2018 14:30:00 0.0
2018_01_05_S17 01/05/2018 14:35:00 0.0059
2018_01_05_S17 01/05/2018 14:40:00 0.0449
2018_01_05_S17 01/05/2018 14:45:00 0.6691
2018_01_05_S17 01/05/2018 14:50:00 0.984
2018_01_05_S17 01/05/2018 14:55:00 0.0362
2018_01_05_S17 01/05/2018 15:00:00 0.0033
2018_01_05_S17 01/05/2018 15:05:00 0.0
2018_01_05_S17 01/05/2018 15:10:00 0.0463
2018_01_05_S17 01/05/2018 15:15:00 0.0388
2018_01_05_S17 01/05/2018 15:20:00 0.8533
2018_01_05_S17 01/05/2018 15:25:00 0.0
2018_01_05_S17 01/05/2018 15:30:00 0.0
2018_01_05_S17 01/05/2018 15:35:00 0.0138
2018_01_05_S17 01/05/2018 15:40:00 0.0531
2018_01_05_S17 01/05/2018 15:45:00 0.0035
2018_01_05_S17 01/05/2018 15:50:00 0.0
2018_01_05_S17 01/05/2018 15:55:00 0.0
2018_01_05_S17 01/05/2018 16:00:00 0.0
2018_01_05_S17 01/05/2018 16:05:00 0.0
2018_01_05_S17 01/05/2018 16:10:00 0.0
2018_01_05_S17 01/05/2018 16:15:00 0.0
2018_01_05_S17 01/05/2018 16:20:00 0.0
2018_01_05_S17 01/05/2018 16:25:00 0.0
2018_01_05_S17 01/05/2018 16:30:00 0.0
2018_01_05_S17 01/05/2018 16:35:00 0.0
2018_01_05_S17 01/05/2018 16:40:00 0.0
2018_01_05_S17 01/05/2018 16:45:00 0.0
2018_01_05_S17 01/05/2018 16:50:00 0.0
2018_01_05_S17 01/05/2018 16:55:00 0.0
2018_01_05_S17 01/05/2018 17:00:00 0.0
2018_01_05_S17 01/05/2018 17:05:00 0.0
2018_01_05_S17 01/05/2018 17:10:00 0.0
2018_01_05_S17 01/05/2018 17:15:00 0.0
2018_01_05_S17 01/05/2018 17:20:00 0.0
2018_01_05_S17 01/05/2018 17:25:00 0.0
2018_01_05_S17 01/05/2018 17:30:00 0.0
2018_01_05_S17 01/05/2018 17:35:00 0.0
2018_01_05_S17 01/05/2018 17:40:00 0.0
2018_01_05_S17 01/05/2018 17:45:00 0.0
2018_01_05_S17 01/05/2018 17:50:00 0.0
2018_01_05_S17 01/05/2018 17:55:00 0.0194
2018_01_05_S17 01/05/2018 18:00:00 0.0479
2018_01_05_S17 01/05/2018 18:05:00 0.0
2018_01_05_S17 01/05/2018 18:10:00 0.0
2018_01_05_S17 01/05/2018 18:15:00 0.0
2018_01_05_S17 01/05/2018 18:20:00 0.0664
2018_01_05_S17 01/05/2018 18:25:00 0.0082
2018_01_05_S17 01/05/2018 18:30:00 0.0
2018_01_05_S17 01/05/2018 18:35:00 0.0
2018_01_05_S17 01/05/2018 18:40:00 0.0
2018_01_05_S17 01/05/2018 18:45:00 0.0
2018_01_05_S17 01/05/2018 18:50:00 0.0
2018_01_05_S17 01/05/2018 18:55:00 0.0
2018_01_05_S17 01/05/2018 19:00:00 0.0
2018_01_05_S17 01/05/2018 19:05:00 0.0
2018_01_05_S17 01/05/2018 19:10:00 0.0
2018_01_05_S17 01/05/2018 19:15:00 0.0
2018_01_05_S17 01/05/2018 19:20:00 0.0
2018_01_05_S17 01/05/2018 19:25:00 0.0004
2018_01_05_S17 01/05/2018 19:30:00 0.0
2018_01_05_S17 01/05/2018 19:35:00 0.0005
2018_01_05_S17 01/05/2018 19:40:00 0.0
2018_01_05_S17 01/05/2018 19:45:00 0.0167
2018_01_05_S17 01/05/2018 19:50:00 0.2402
2018_01_05_S17 01/05/2018 19:55:00 0.0429
2018_01_05_S17 01/05/2018 20:00:00 0.0155
2018_01_05_S17 01/05/2018 20:05:00 0.0051
2018_01_05_S17 01/05/2018 20:10:00 0.0
2018_01_05_S17 01/05/2018 20:15:00 0.0
2018_01_05_S17 01/05/2018 20:20:00 0.0
2018_01_05_S17 01/05/2018 20:25:00 0.0
2018_01_05_S17 01/05/2018 20:30:00 0.0
2018_01_05_S17 01/05/2018 20:35:00 0.0
2018_01_05_S17 01/05/2018 20:40:00 0.0
2018_01_05_S17 01/05/2018 20:45:00 0.0
2018_01_05_S17 01/05/2018 20:50:00 0.0
2018_01_05_S17 01/05/2018 20:55:00 0.0096
2018_01_05_S17 01/05/2018 21:00:00 0.0
2018_01_05_S17 01/05/2018 21:05:00 0.0
2018_01_05_S17 01/05/2018 21:10:00 0.0
2018_01_05_S17 01/05/2018 21:15:00 0.0
2018_01_05_S17 01/05/2018 21:20:00 0.0
2018_01_05_S17 01/05/2018 21:25:00 0.0
2018_01_05_S17 01/05/2018 21:30:00 0.0
2018_01_05_S17 01/05/2018 21:35:00 0.0
2018_01_05_S17 01/05/2018 21:40:00 0.0063
2018_01_05_S17 01/05/2018 21:45:00 0.0
2018_01_05_S17 01/05/2018 21:50:00 0.0
2018_01_05_S17 01/05/2018 21:55:00 0.0
2018_01_05_S17 01/05/2018 22:00:00 0.0
2018_01_05_S17 01/05/2018 22:05:00 0.0044
2018_01_05_S17 01/05/2018 22:10:00 0.0
2018_01_05_S17 01/05/2018 22:15:00 0.0
2018_01_05_S17 01/05/2018 22:20:00 0.0
2018_01_05_S17 01/05/2018 22:25:00 0.0591
2018_01_05_S17 01/05/2018 22:30:00 0.0157
2018_01_05_S17 01/05/2018 22:35:00 0.0091
2018_01_05_S17 01/05/2018 22:40:00 0.0184
2018_01_05_S17 01/05/2018 22:45:00 0.0
2018_01_05_S17 01/05/2018 22:50:00 0.0
2018_01_05_S17 01/05/2018 22:55:00 0.0
2018_01_05_S17 01/05/2018 23:00:00 0.0
2018_01_05_S17 01/05/2018 23:05:00 0.0
2018_01_05_S17 01/05/2018 23:10:00 0.0
2018_01_05_S17 01/05/2018 23:15:00 0.0
2018_01_05_S17 01/05/2018 23:20:00 0.0
2018_01_05_S17 01/05/2018 23:25:00 0.0
2018_01_05_S17 01/05/2018 23:30:00 0.0
2018_01_05_S17 01/05/2018 23:35:00 0.0
2018_01_05_S17 01/05/2018 23:40:00 0.0
2018_01_05_S17 01/05/2018 23:45:00 0.0334
2018_01_05_S17 01/05/2018 23:50:00 0.0769
2018_01_05_S17 01/05/2018 23:55:00 0.0009
2018_01_05_S17 01/06/2018 00:00:00 0.0103
2018_01_05_S17 01/06/2018 00:05:00 0.0329
2018_01_05_S17 01/06/2018 00:10:00 0.0043
2018_01_05_S17 01/06/2018 00:15:00 0.3879
2018_01_05_S17 01/06/2018 00:20:00 0.0114
2018_01_05_S17 01/06/2018 00:25:00 0.0
2018_01_05_S17 01/06/2018 00:30:00 0.0
2018_01_05_S17 01/06/2018 00:35:00 0.0
2018_01_05_S17 01/06/2018 00:40:00 0.0
2018_01_05_S17 01/06/2018 00:45:00 0.0
2018_01_05_S17 01/06/2018 00:50:00 0.0
2018_01_05_S17 01/06/2018 00:55:00 0.0
2018_01_05_S17 01/06/2018 01:00:00 0.0012
2018_01_05_S17 01/06/2018 01:05:00 0.0
2018_01_05_S17 01/06/2018 01:10:00 0.009
2018_01_05_S17 01/06/2018 01:15:00 0.0
2018_01_05_S17 01/06/2018 01:20:00 0.0
2018_01_05_S17 01/06/2018 01:25:00 0.0
2018_01_05_S17 01/06/2018 01:30:00 0.0
2018_01_05_S17 01/06/2018 01:35:00 0.0
2018_01_05_S17 01/06/2018 01:40:00 0.0
2018_01_05_S17 01/06/2018 01:45:00 0.0
2018_01_05_S17 01/06/2018 01:50:00 0.0
2018_01_05_S17 01/06/2018 01:55:00 0.0
2018_01_05_S17 01/06/2018 02:00:00 0.0
2018_01_05_S17 01/06/2018 02:05:00 0.0
2018_01_05_S17 01/06/2018 02:10:00 0.0
2018_01_05_S17 01/06/2018 02:15:00 0.0
2018_01_05_S17 01/06/2018 02:20:00 0.0
2018_01_05_S17 01/06/2018 02:25:00 0.0
2018_01_05_S17 01/06/2018 02:30:00 0.0
2018_01_05_S17 01/06/2018 02:35:00 0.0
2018_01_05_S17 01/06/2018 02:40:00 0.0
2018_01_05_S17 01/06/2018 02:45:00 0.0
2018_01_05_S17 01/06/2018 02:50:00 0.0
2018_01_05_S17 01/06/2018 02:55:00 0.0
2018_01_05_S17 01/06/2018 03:00:00 0.0
2018_01_05_S17 01/06/2018 03:05:00 0.0
2018_01_05_S17 01/06/2018 03:10:00 0.0
2018_01_05_S17 01/06/2018 03:15:00 0.0
2018_01_05_S17 01/06/2018 03:20:00 0.0
2018_01_05_S17 01/06/2018 03:25:00 0.0
2018_01_05_S17 01/06/2018 03:30:00 0.0
2018_01_05_S17 01/06/2018 03:35:00 0.0
2018_01_05_S17 01/06/2018 03:40:00 0.0621
2018_01_05_S17 01/06/2018 03:45:00 0.619
2018_01_05_S17 01/06/2018 03:50:00 0.0
2018_01_05_S17 01/06/2018 03:55:00 0.0
2018_01_05_S17 01/06/2018 04:00:00 0.0
2018_01_05_S17 01/06/2018 04:05:00 0.0
2018_01_05_S17 01/06/2018 04:10:00 0.0
2018_01_05_S17 01/06/2018 04:15:00 0.0
2018_01_05_S17 01/06/2018 04:20:00 0.0069
2018_01_05_S17 01/06/2018 04:25:00 0.0111
2018_01_05_S17 01/06/2018 04:30:00 0.0
2018_01_05_S17 01/06/2018 04:35:00 0.0
2018_01_05_S17 01/06/2018 04:40:00 0.0
2018_01_05_S17 01/06/2018 04:45:00 0.0
2018_01_05_S17 01/06/2018 04:50:00 0.0
2018_01_05_S17 01/06/2018 04:55:00 0.0
2018_01_05_S17 01/06/2018 05:00:00 0.0
2018_01_05_S17 01/06/2018 05:05:00 0.0
2018_01_05_S17 01/06/2018 05:10:00 0.0
2018_01_05_S17 01/06/2018 05:15:00 0.0
2018_01_05_S17 01/06/2018 05:20:00 0.0
2018_01_05_S17 01/06/2018 05:25:00 0.0
2018_01_05_S17 01/06/2018 05:30:00 0.0014
2018_01_05_S17 01/06/2018 05:35:00 0.2785
2018_01_05_S17 01/06/2018 05:40:00 0.4802
2018_01_05_S17 01/06/2018 05:45:00 0.0
2018_01_05_S17 01/06/2018 05:50:00 0.0
2018_01_05_S17 01/06/2018 05:55:00 0.0
2018_01_05_S17 01/06/2018 06:00:00 0.0
2018_01_05_S17 01/06/2018 06:05:00 0.0
2018_01_05_S17 01/06/2018 06:10:00 0.0505
2018_01_05_S17 01/06/2018 06:15:00 0.0158
2018_01_05_S17 01/06/2018 06:20:00 0.02
2018_01_05_S17 01/06/2018 06:25:00 0.0116
2018_01_05_S17 01/06/2018 06:30:00 0.0099
2018_01_05_S17 01/06/2018 06:35:00 0.0
2018_01_05_S17 01/06/2018 06:40:00 0.0
2018_01_05_S17 01/06/2018 06:45:00 0.0052
2018_01_05_S17 01/06/2018 06:50:00 0.0218
2018_01_05_S17 01/06/2018 06:55:00 0.0031
2018_01_05_S17 01/06/2018 07:00:00 0.0569
2018_01_05_S17 01/06/2018 07:05:00 0.0162
2018_01_05_S17 01/06/2018 07:10:00 0.0053
2018_01_05_S17 01/06/2018 07:15:00 0.0
2018_01_05_S17 01/06/2018 07:20:00 0.0
2018_01_05_S17 01/06/2018 07:25:00 0.0
2018_01_05_S17 01/06/2018 07:30:00 0.0
2018_01_05_S17 01/06/2018 07:35:00 0.0
2018_01_05_S17 01/06/2018 07:40:00 0.0017
2018_01_05_S17 01/06/2018 07:45:00 0.0085
2018_01_05_S17 01/06/2018 07:50:00 0.0118
2018_01_05_S17 01/06/2018 07:55:00 0.0389
2018_01_05_S17 01/06/2018 08:00:00 0.0

2018_01_05_S18 01/04/2018 10:25:00 0.168
2018_01_05_S18 01/04/2018 10:30:00 0.1235
2018_01_05_S18 01/04/2018 10:35:00 0.002
2018_01_05_S18 01/04/2018 10:40:00 0.0
2018_01_05_S18 01/04/2018 10:45:00 0.042
2018_01_05_S18 01/04/2018 10:50:00 0.0102
2018_01_05_S18 01/04/2018 10:55:00 0.0
2018_01_05_S18 01/04/2018 11:00:00 0.0
2018_01_05_S18 01/04/2018 11:05:00 3.3926
2018_01_05_S18 01/04/2018 11:10:00 0.0229
2018_01_05_S18 01/04/2018 11:15:00 3.3661
2018_01_05_S18 01/04/2018 11:20:00 0.1192
2018_01_05_S18 01/04/2018 11:25:00 0.2044
2018_01_05_S18 01/04/2018 11:30:00 0.0
2018_01_05_S18 01/04/2018 11:35:00 0.0
2018_01_05_S18 01/04/2018 11:40:00 0.0
2018_01_05_S18 01/04/2018 11:45:00 0.0
2018_01_05_S18 01/04/2018 11:50:00 0.0
2018_01_05_S18 01/04/2018 11:55:00 0.0
2018_01_05_S18 01/04/2018 12:00:00 0.0
2018_01_05_S18 01/04/2018 12:05:00 0.0
2018_01_05_S18 01/04/2018 12:10:00 0.0
2018_01_05_S18 01/04/2018 12:15:00 0.0
2018_01_05_S18 01/04/2018 12:20:00 0.0
2018_01_05_S18 01/04/2018 12:25:00 0.0
2018_01_05_S18 01/04/2018 12:30:00 0.0215
2018_01_05_S18 01/04/2018 12:35:00 0.0
2018_01_05_S18 01/04/2018 12:40:00 0.0
2018_01_05_S18 01/04/2018 12:45:00 0.0
2018_01_05_S18 01/04/2018 12:50:00 0.0
2018_01_05_S18 01/04/2018 12:55:00 0.0
2018_01_05_S18 01/04/2018 13:00:00 0.0
2018_01_05_S18 01/04/2018 13:05:00 0.0
2018_01_05_S18 01/04/2018 13:10:00 0.0
2018_01_05_S18 01/04/2018 13:15:00 0.0
2018_01_05_S18 01/04/2018 13:20:00 0.0
2018_01_05_S18 01/04/2018 13:25:00 0.0
2018_01_05_S18 01/04/2018 13:30:00 0.0
2018_01_05_S18 01/04/2018 13:35:00 0.0
2018_01_05_S18 01/04/2018 13:40:00 0.0
2018_01_05_S18 01/04/2018 13:45:00 0.0
2018_01_05_S18 01/04/2018 13:50:00 0.0
2018_01_05_S18 01/04/2018 13:55:00 0.0
2018_01_05_S18 01/04/2018 14:00:00 0.0
2018_01_05_S18 01/04/2018 14:05:00 0.0
2018_01_05_S18 01/04/2018 14:10:00 0.0
2018_01_05_S18 01/04/2018 14:15:00 0.0006
2018_01_05_S18 01/04/2018 14:20:00 0.0
2018_01_05_S18 01/04/2018 14:25:00 0.0072
2018_01_05_S18 01/04/2018 14:30:00 0.0
2018_01_05_S18 01/04/2018 14:35:00 0.0045
2018_01_05_S18 01/04/2018 14:40:00 0.0
2018_01_05_S18 01/04/2018 14:45:00 0.0
2018_01_05_S18 01/04/2018 14:50:00 0.0
2018_01_05_S18 01/04/2018 14:55:00 0.0
2018_01_05_S18 01/04/2018 15:00:00 0.0
2018_01_05_S18 01/04/2018 15:05:00 0.0
2018_01_05_S18 01/04/2018 15:10:00 0.0
2018_01_05_S18 01/04/2018 15:15:00 0.0
2018_01_05_S18 01/04/2018 15:20:00 0.0
2018_01_05_S18 01/04/2018 15:25:00 0.0
2018_01_05_S18 01/04/2018 15:30:00 0.0224
2018_01_05_S18 01/04/2018 15:35:00 0.658
2018_01_05_S18 01/04/2018 15:40:00 0.0
2018_01_05_S18 01/04/2018 15:45:00 0.0
2018_01_05_S18 01/04/2018 15:50:00 0.0
2018_01_05_S18 01/04/2018 15:55:00 0.0458
2018_01_05_S18 01/04/2018 16:00:00 0.0521
2018_01_05_S18 01/04/2018 16:05:00 0.0967
2018_01_05_S18 01/04/2018 16:10:00 0.0
2018_01_05_S18 01/04/2018 16:15:00 0.0351
2018_01_05_S18 01/04/2018 16:20:00 0.0706
2018_01_05_S18 01/04/2018 16:25:00 0.0
2018_01_05_S18 01/04/2018 16:30:00 0.0
2018_01_05_S18 01/04/2018 16:35:00 0.0
2018_01_05_S18 01/04/2018 16:40:00 0.0
2018_01_05_S18 01/04/2018 16:45:00 0.0
2018_01_05_S18 01/04/2018 16:50:00 0.0
2018_01_05_S18 01/04/2018 16:55:00 0.0
2018_01_05_S18 01/04/2018 17:00:00 0.0007
2018_01_05_S18 01/04/2018 17:05:00 0.0
2018_01_05_S18 01/04/2018 17:10:00 0.1989
2018_01_05_S18 01/04/2018 17:15:00 0.0
2018_01_05_S18 01/04/2018 17:20:00 0.0
2018_01_05_S18 01/04/2018 17:25:00 0.0
2018_01_05_S18 01/04/2018 17:30:00 0.0854
2018_01_05_S18 01/04/2018 17:35:00 0.3806
2018_01_05_S18 01/04/2018 17:40:00 0.3872
2018_01_05_S18 01/04/2018 17:45:00 0.1605
2018_01_05_S18 01/04/2018 17:50:00 0.0971
2018_01_05_S18 01/04/2018 17:55:00 0.1433
2018_01_05_S18 01/04/2018 18:00:00 0.2476
2018_01_05_S18 01/04/2018 18:05:00 0.2059
2018_01_05_S18 01/04/2018 18:10:00 0.067
2018_01_05_S18 01/04/2018 18:15:00 0.0419
2018_01_05_S18 01/04/2018 18:20:00 0.0037
2018_01_05_S18 01/04/2018 18:25:00 0.0
2018_01_05_S18 01/04/2018 18:30:00 0.0
2018_01_05_S18 01/04/2018 18:35:00 0.0
2018_01_05_S18 01/04/2018 18:40:00 0.0
2018_01_05_S18 01/04/2018 18:45:00 0.0
2018_01_05_S18 01/04/2018 18:50:00 0.0
2018_01_05_S18 01/04/2018 18:55:00 0.0
2018_01_05_S18 01/04/2018 19:00:00 0.0
2018_01_05_S18 01/04/2018 19:05:00 0.0
2018_01_05_S18 01/04/2018 19:10:00 0.0
2018_01_05_S18 01/04/2018 19:15:00 0.0
2018_01_05_S18 01/04/2018 19:20:00 0.0
2018_01_05_S18 01/04/2018 19:25:00 0.0
2018_01_05_S18 01/04/2018 19:30:00 0.0
2018_01_05_S18 01/04/2018 19:35:00 0.0
2018_01_05_S18 01/04/2018 19:40:00 0.0
2018_01_05_S18 01/04/2018 19:45:00 0.0
2018_01_05_S18 01/04/2018 19:50:00 0.0
2018_01_05_S18 01/04/2018 19:55:00 0.0
2018_01_05_S18 01/04/2018 20:00:00 0.0
2018_01_05_S18 01/04/2018 20:05:00 0.0
2018_01_05_S18 01/04/2018 20:10:00 0.0
2018_01_05_S18 01/04/2018 20:15:00 0.0
2018_01_05_S18 01/04/2018 20:20:00 0.0
2018_01_05_S18 01/04/2018 20:25:00 0.0055
2018_01_05_S18 01/04/2018 20:30:00 0.0
2018_01_05_S18 01/04/2018 20:35:00 0.0
2018_01_05_S18 01/04/2018 20:40:00 0.0
2018_01_05_S18 01/04/2018 20:45:00 0.0
2018_01_05_S18 01/04/2018 20:50:00 0.0
2018_01_05_S18 01/04/2018 20:55:00 0.0
2018_01_05_S18 01/04/2018 21:00:00 0.0
2018_01_05_S18 01/04/2018 21:05:00 0.0
2018_01_05_S18 01/04/2018 21:10:00 0.0
2018_01_05_S18 01/04/2018 21:15:00 0.0
2018_01_05_S18 01/04/2018 21:20:00 0.0
2018_01_05_S18 01/04/2018 21:25:00 0.0107
2018_01_05_S18 01/04/2018 21:30:00 0.1237
2018_01_05_S18 01/04/2018 21:35:00 0.038
2018_01_05_S18 01/04/2018 21:40:00 0.3343
2018_01_05_S18 01/04/2018 21:45:00 0.0
2018_01_05_S18 01/04/2018 21:50:00 0.0
2018_01_05_S18 01/04/2018 21:55:00 0.0
2018_01_05_S18 01/04/2018 22:00:00 0.0
2018_01_05_S18 01/04/2018 22:05:00 0.0
2018_01_05_S18 01/04/2018 22:10:00 0.0
2018_01_05_S18 01/04/2018 22:15:00 0.0
2018_01_05_S18 01/04/2018 22:20:00 0.0
2018_01_05_S18 01/04/2018 22:25:00 0.0
2018_01_05_S18 01/04/2018 22:30:00 0.0
2018_01_05_S18 01/04/2018 22:35:00 0.0
2018_01_05_S18 01/04/2018 22:40:00 0.0
2018_01_05_S18 01/04/2018 22:45:00 0.0
2018_01_05_S18 01/04/2018 22:50:00 0.0
2018_01_05_S18 01/04/2018 22:55:00 0.0
2018_01_05_S18 01/04/2018 23:00:00 0.0
2018_01_05_S18 01/04/2018 23:05:00 0.0
2018_01_05_S18 01/04/2018 23:10:00 0.0
2018_01_05_S18 01/04/2018 23:15:00 0.0
2018_01_05_S18 01/04/2018 23:20:00 0.0
2018_01_05_S18 01/04/2018 23:25:00 0.0
2018_01_05_S18 01/04/2018 23:30:00 0.0
2018_01_05_S18 01/04/2018 23:35:00 0.0
2018_01_05_S18 01/04/2018 23:40:00 0.0
2018_01_05_S18 01/04/2018 23:45:00 0.0
2018_01_05_S18 01/04/2018 23:50:00 0.0
2018_01_05_S18 01/04/2018 23:55:00 0.0
2018_01_05_S18 01/05/2018 00:00:00 0.0
2018_01_05_S18 01/05/2018 00:05:00 0.0
2018_01_05_S18 01/05/2018 00:10:00 0.0
2018_01_05_S18 01/05/2018 00:15:00 0.0
2018_01_05_S18 01/05/2018 00:20:00 0.0
2018_01_05_S18 01/05/2018 00:25:00 0.0
2018_01_05_S18 01/05/2018 00:30:00 0.0
2018_01_05_S18 01/05/2018 00:35:00 0.0
2018_01_05_S18 01/05/2018 00:40:00 0.0
2018_01_05_S18 01/05/2018 00:45:00 0.0
2018_01_05_S18 01/05/2018 00:50:00 0.0575
2018_01_05_S18 01/05/2018 00:55:00 0.0694
2018_01_05_S18 01/05/2018 01:00:00 0.0
2018_01_05_S18 01/05/2018 01:05:00 0.1533
2018_01_05_S18 01/05/2018 01:10:00 0.0869
2018_01_05_S18 01/05/2018 01:15:00 0.0081
2018_01_05_S18 01/05/2018 01:20:00 0.0204
2018_01_05_S18 01/05/2018 01:25:00 0.0342
2018_01_05_S18 01/05/2018 01:30:00 0.0074
2018_01_05_S18 01/05/2018 01:35:00 0.0208
2018_01_05_S18 01/05/2018 01:40:00 0.0
2018_01_05_S18 01/05/2018 01:45:00 0.0274
2018_01_05_S18 01/05/2018 01:50:00 0.0375
2018_01_05_S18 01/05/2018 01:55:00 0.0107
2018_01_05_S18 01/05/2018 02:00:00 0.0092
2018_01_05_S18 01/05/2018 02:05:00 0.0189
2018_01_05_S18 01/05/2018 02:10:00 0.0066
2018_01_05_S18 01/05/2018 02:15:00 0.0238
2018_01_05_S18 01/05/2018 02:20:00 0.0043
2018_01_05_S18 01/05/2018 02:25:00 0.0
2018_01_05_S18 01/05/2018 02:30:00 0.0
2018_01_05_S18 01/05/2018 02:35:00 0.0
2018_01_05_S18 01/05/2018 02:40:00 0.0
2018_01_05_S18 01/05/2018 02:45:00 0.0
2018_01_05_S18 01/05/2018 02:50:00 0.0
2018_01_05_S18 01/05/2018 02:55:00 0.0
2018_01_05_S18 01/05/2018 03:00:00 0.0
2018_01_05_S18 01/05/2018 03:05:00 0.2406
2018_01_05_S18 01/05/2018 03:10:00 0.3674
2018_01_05_S18 01/05/2018 03:15:00 0.3294
2018_01_05_S18 01/05/2018 03:20:00 0.785
2018_01_05_S18 01/05/2018 03:25:00 0.3335
2018_01_05_S18 01/05/2018 03:30:00 0.3254
2018_01_05_S18 01/05/2018 03:35:00 0.1275
2018_01_05_S18 01/05/2018 03:40:00 0.0
2018_01_05_S18 01/05/2018 03:45:00 0.0124
2018_01_05_S18 01/05/2018 03:50:00 0.0546
2018_01_05_S18 01/05/2018 03:55:00 0.0152
2018_01_05_S18 01/05/2018 04:00:00 0.0776
2018_01_05_S18 01/05/2018 04:05:00 0.0
2018_01_05_S18 01/05/2018 04:10:00 0.0
2018_01_05_S18 01/05/2018 04:15:00 0.0072
2018_01_05_S18 01/05/2018 04:20:00 0.0075
2018_01_05_S18 01/05/2018 04:25:00 0.1694
2018_01_05_S18 01/05/2018 04:30:00 0.0446
2018_01_05_S18 01/05/2018 04:35:00 0.027
2018_01_05_S18 01/05/2018 04:40:00 0.0387
2018_01_05_S18 01/05/2018 04:45:00 0.112
2018_01_05_S18 01/05/2018 04:50:00 0.0296
2018_01_05_S18 01/05/2018 04:55:00 0.0001
2018_01_05_S18 01/05/2018 05:00:00 0.0924
2018_01_05_S18 01/05/2018 05:05:00 0.0007
2018_01_05_S18 01/05/2018 05:10:00 0.0005
2018_01_05_S18 01/05/2018 05:15:00 0.0
2018_01_05_S18 01/05/2018 05:20:00 0.0137
2018_01_05_S18 01/05/2018 05:25:00 0.0
2018_01_05_S18 01/05/2018 05:30:00 0.0051
2018_01_05_S18 01/05/2018 05:35:00 0.0
2018_01_05_S18 01/05/2018 05:40:00 0.0
2018_01_05_S18 01/05/2018 05:45:00 0.0
2018_01_05_S18 01/05/2018 05:50:00 0.0
2018_01_05_S18 01/05/2018 05:55:00 0.0228
2018_01_05_S18 01/05/2018 06:00:00 0.2824
2018_01_05_S18 01/05/2018 06:05:00 0.2689
2018_01_05_S18 01/05/2018 06:10:00 0.0091
2018_01_05_S18 01/05/2018 06:15:00 0.0079
2018_01_05_S18 01/05/2018 06:20:00 2.3788
2018_01_05_S18 01/05/2018 06:25:00 2.9452
2018_01_05_S18 01/05/2018 06:30:00 1.1431
2018_01_05_S18 01/05/2018 06:35:00 1.9265
2018_01_05_S18 01/05/2018 06:40:00 0.3603
2018_01_05_S18 01/05/2018 06:45:00 0.8045
2018_01_05_S18 01/05/2018 06:50:00 1.0345
2018_01_05_S18 01/05/2018 06:55:00 0.3104
2018_01_05_S18 01/05/2018 07:00:00 0.3487
2018_01_05_S18 01/05/2018 07:05:00 0.152
2018_01_05_S18 01/05/2018 07:10:00 0.1704
2018_01_05_S18 01/05/2018 07:15:00 0.0
2018_01_05_S18 01/05/2018 07:20:00 0.0
2018_01_05_S18 01/05/2018 07:25:00 0.0
2018_01_05_S18 01/05/2018 07:30:00 0.0
2018_01_05_S18 01/05/2018 07:35:00 0.0
2018_01_05_S18 01/05/2018 07:40:00 0.0
2018_01_05_S18 01/05/2018 07:45:00 0.0
2018_01_05_S18 01/05/2018 07:50:00 0.0
2018_01_05_S18 01/05/2018 07:55:00 0.0
2018_01_05_S18 01/05/2018 08:00:00 0.0
2018_01_05_S18 01/05/2018 08:05:00 0.0
2018_01_05_S18 01/05/2018 08:10:00 0.0
2018_01_05_S18 01/05/2018 08:15:00 0.0
2018_01_05_S18 01/05/2018 08:20:00 0.0
2018_01_05_S18 01/05/2018 08:25:00 0.0034
2018_01_05_S18 01/05/2018 08:30:00 0.0602
2018_01_05_S18 01/05/2018 08:35:00 0.1288
2018_01_05_S18 01/05/2018 08:40:00 0.4784
2018_01_05_S18 01/05/2018 08:45:00 0.9347
2018_01_05_S18 01/05/2018 08:50:00 0.4343
2018_01_05_S18 01/05/2018 08:55:00 2.2427
2018_01_05_S18 01/05/2018 09:00:00 0.4434
2018_01_05_S18 01/05/2018 09:05:00 0.5247
2018_01_05_S18 01/05/2018 09:10:00 0.684
2018_01_05_S18 01/05/2018 09:15:00 0.1604
2018_01_05_S18 01/05/2018 09:20:00 0.0084
2018_01_05_S18 01/05/2018 09:25:00 0.0
2018_01_05_S18 01/05/2018 09:30:00 0.0009
2018_01_05_S18 01/05/2018 09:35:00 0.042
2018_01_05_S18 01/05/2018 09:40:00 1.5367
2018_01_05_S18 01/05/2018 09:45:00 0.8019
2018_01_05_S18 01/05/2018 09:50:00 0.7819
2018_01_05_S18 01/05/2018 09:55:00 3.0637
2018_01_05_S18 01/05/2018 10:00:00 0.0843
2018_01_05_S18 01/05/2018 10:05:00 0.1233
2018_01_05_S18 01/05/2018 10:10:00 0.0
2018_01_05_S18 01/05/2018 10:15:00 0.0
2018_01_05_S18 01/05/2018 10:20:00 0.0
2018_01_05_S18 01/05/2018 10:25:00 0.055
2018_01_05_S18 01/05/2018 10:30:00 2.9664
2018_01_05_S18 01/05/2018 10:35:00 0.0162
2018_01_05_S18 01/05/2018 10:40:00 0.1925
2018_01_05_S18 01/05/2018 10:45:00 1.1081
2018_01_05_S18 01/05/2018 10:50:00 0.0562
2018_01_05_S18 01/05/2018 10:55:00 0.0
2018_01_05_S18 01/05/2018 11:00:00 0.0228
2018_01_05_S18 01/05/2018 11:05:00 0.0622
2018_01_05_S18 01/05/2018 11:10:00 0.1576
2018_01_05_S18 01/05/2018 11:15:00 0.2535
2018_01_05_S18 01/05/2018 11:20:00 0.1736
2018_01_05_S18 01/05/2018 11:25:00 0.0934
2018_01_05_S18 01/05/2018 11:30:00 0.2438
2018_01_05_S18 01/05/2018 11:35:00 0.2158
2018_01_05_S18 01/05/2018 11:40:00 0.184
2018_01_05_S18 01/05/2018 11:45:00 0.0129
2018_01_05_S18 01/05/2018 11:50:00 0.0007
2018_01_05_S18 01/05/2018 11:55:00 0.0032
2018_01_05_S18 01/05/2018 12:00:00 0.0313
2018_01_05_S18 01/05/2018 12:05:00 0.1512
2018_01_05_S18 01/05/2018 12:10:00 0.6181
2018_01_05_S18 01/05/2018 12:15:00 1.2476
2018_01_05_S18 01/05/2018 12:20:00 0.3603
2018_01_05_S18 01/05/2018 12:25:00 0.406
2018_01_05_S18 01/05/2018 12:30:00 0.6889
2018_01_05_S18 01/05/2018 12:35:00 0.5663
2018_01_05_S18 01/05/2018 12:40:00 1.6013
2018_01_05_S18 01/05/2018 12:45:00 3.2676
2018_01_05_S18 01/05/2018 12:50:00 0.2527
2018_01_05_S18 01/05/2018 12:55:00 0.18
2018_01_05_S18 01/05/2018 13:00:00 0.116
2018_01_05_S18 01/05/2018 13:05:00 0.4323
2018_01_05_S18 01/05/2018 13:10:00 0.0
2018_01_05_S18 01/05/2018 13:15:00 0.0
2018_01_05_S18 01/05/2018 13:20:00 0.0
2018_01_05_S18 01/05/2018 13:25:00 0.0081
2018_01_05_S18 01/05/2018 13:30:00 0.0202
2018_01_05_S18 01/05/2018 13:35:00 0.006
2018_01_05_S18 01/05/2018 13:40:00 0.105
2018_01_05_S18 01/05/2018 13:45:00 0.4176
2018_01_05_S18 01/05/2018 13:50:00 0.2526
2018_01_05_S18 01/05/2018 13:55:00 0.2965
2018_01_05_S18 01/05/2018 14:00:00 0.2577
2018_01_05_S18 01/05/2018 14:05:00 0.2138
2018_01_05_S18 01/05/2018 14:10:00 0.4077
2018_01_05_S18 01/05/2018 14:15:00 0.0626
2018_01_05_S18 01/05/2018 14:20:00 0.0
2018_01_05_S18 01/05/2018 14:25:00 0.0
2018_01_05_S18 01/05/2018 14:30:00 0.0
2018_01_05_S18 01/05/2018 14:35:00 0.0204
2018_01_05_S18 01/05/2018 14:40:00 0.0481
2018_01_05_S18 01/05/2018 14:45:00 0.431
2018_01_05_S18 01/05/2018 14:50:00 0.0833
2018_01_05_S18 01/05/2018 14:55:00 0.0052
2018_01_05_S18 01/05/2018 15:00:00 0.0
2018_01_05_S18 01/05/2018 15:05:00 0.0
2018_01_05_S18 01/05/2018 15:10:00 0.0645
2018_01_05_S18 01/05/2018 15:15:00 0.1939
2018_01_05_S18 01/05/2018 15:20:00 0.6296
2018_01_05_S18 01/05/2018 15:25:00 0.0
2018_01_05_S18 01/05/2018 15:30:00 0.0
2018_01_05_S18 01/05/2018 15:35:00 0.0196
2018_01_05_S18 01/05/2018 15:40:00 0.0691
2018_01_05_S18 01/05/2018 15:45:00 0.0
2018_01_05_S18 01/05/2018 15:50:00 0.0
2018_01_05_S18 01/05/2018 15:55:00 0.0
2018_01_05_S18 01/05/2018 16:00:00 0.0
2018_01_05_S18 01/05/2018 16:05:00 0.0
2018_01_05_S18 01/05/2018 16:10:00 0.0
2018_01_05_S18 01/05/2018 16:15:00 0.0
2018_01_05_S18 01/05/2018 16:20:00 0.0
2018_01_05_S18 01/05/2018 16:25:00 0.0
2018_01_05_S18 01/05/2018 16:30:00 0.0
2018_01_05_S18 01/05/2018 16:35:00 0.0
2018_01_05_S18 01/05/2018 16:40:00 0.0
2018_01_05_S18 01/05/2018 16:45:00 0.0
2018_01_05_S18 01/05/2018 16:50:00 0.0
2018_01_05_S18 01/05/2018 16:55:00 0.0
2018_01_05_S18 01/05/2018 17:00:00 0.0
2018_01_05_S18 01/05/2018 17:05:00 0.0
2018_01_05_S18 01/05/2018 17:10:00 0.0
2018_01_05_S18 01/05/2018 17:15:00 0.0
2018_01_05_S18 01/05/2018 17:20:00 0.0
2018_01_05_S18 01/05/2018 17:25:00 0.0
2018_01_05_S18 01/05/2018 17:30:00 0.0
2018_01_05_S18 01/05/2018 17:35:00 0.0
2018_01_05_S18 01/05/2018 17:40:00 0.0
2018_01_05_S18 01/05/2018 17:45:00 0.0
2018_01_05_S18 01/05/2018 17:50:00 0.0
2018_01_05_S18 01/05/2018 17:55:00 0.0237
2018_01_05_S18 01/05/2018 18:00:00 0.0375
2018_01_05_S18 01/05/2018 18:05:00 0.0
2018_01_05_S18 01/05/2018 18:10:00 0.0
2018_01_05_S18 01/05/2018 18:15:00 0.0
2018_01_05_S18 01/05/2018 18:20:00 0.0573
2018_01_05_S18 01/05/2018 18:25:00 0.0052
2018_01_05_S18 01/05/2018 18:30:00 0.0
2018_01_05_S18 01/05/2018 18:35:00 0.0
2018_01_05_S18 01/05/2018 18:40:00 0.0
2018_01_05_S18 01/05/2018 18:45:00 0.0
2018_01_05_S18 01/05/2018 18:50:00 0.0
2018_01_05_S18 01/05/2018 18:55:00 0.0
2018_01_05_S18 01/05/2018 19:00:00 0.0
2018_01_05_S18 01/05/2018 19:05:00 0.0
2018_01_05_S18 01/05/2018 19:10:00 0.0
2018_01_05_S18 01/05/2018 19:15:00 0.0
2018_01_05_S18 01/05/2018 19:20:00 0.0
2018_01_05_S18 01/05/2018 19:25:00 0.0
2018_01_05_S18 01/05/2018 19:30:00 0.0
2018_01_05_S18 01/05/2018 19:35:00 0.0009
2018_01_05_S18 01/05/2018 19:40:00 0.0
2018_01_05_S18 01/05/2018 19:45:00 0.0017
2018_01_05_S18 01/05/2018 19:50:00 0.196
2018_01_05_S18 01/05/2018 19:55:00 0.0167
2018_01_05_S18 01/05/2018 20:00:00 0.0144
2018_01_05_S18 01/05/2018 20:05:00 0.0
2018_01_05_S18 01/05/2018 20:10:00 0.0
2018_01_05_S18 01/05/2018 20:15:00 0.0
2018_01_05_S18 01/05/2018 20:20:00 0.0
2018_01_05_S18 01/05/2018 20:25:00 0.0
2018_01_05_S18 01/05/2018 20:30:00 0.0
2018_01_05_S18 01/05/2018 20:35:00 0.0
2018_01_05_S18 01/05/2018 20:40:00 0.0
2018_01_05_S18 01/05/2018 20:45:00 0.0
2018_01_05_S18 01/05/2018 20:50:00 0.0
2018_01_05_S18 01/05/2018 20:55:00 0.0069
2018_01_05_S18 01/05/2018 21:00:00 0.0
2018_01_05_S18 01/05/2018 21:05:00 0.0
2018_01_05_S18 01/05/2018 21:10:00 0.0
2018_01_05_S18 01/05/2018 21:15:00 0.0
2018_01_05_S18 01/05/2018 21:20:00 0.0
2018_01_05_S18 01/05/2018 21:25:00 0.0
2018_01_05_S18 01/05/2018 21:30:00 0.0
2018_01_05_S18 01/05/2018 21:35:00 0.0
2018_01_05_S18 01/05/2018 21:40:00 0.0001
2018_01_05_S18 01/05/2018 21:45:00 0.0
2018_01_05_S18 01/05/2018 21:50:00 0.0
2018_01_05_S18 01/05/2018 21:55:00 0.0
2018_01_05_S18 01/05/2018 22:00:00 0.0
2018_01_05_S18 01/05/2018 22:05:00 0.0013
2018_01_05_S18 01/05/2018 22:10:00 0.0
2018_01_05_S18 01/05/2018 22:15:00 0.0
2018_01_05_S18 01/05/2018 22:20:00 0.0
2018_01_05_S18 01/05/2018 22:25:00 0.0121
2018_01_05_S18 01/05/2018 22:30:00 0.0179
2018_01_05_S18 01/05/2018 22:35:00 0.0
2018_01_05_S18 01/05/2018 22:40:00 0.0173
2018_01_05_S18 01/05/2018 22:45:00 0.0
2018_01_05_S18 01/05/2018 22:50:00 0.0
2018_01_05_S18 01/05/2018 22:55:00 0.0
2018_01_05_S18 01/05/2018 23:00:00 0.0
2018_01_05_S18 01/05/2018 23:05:00 0.0
2018_01_05_S18 01/05/2018 23:10:00 0.0
2018_01_05_S18 01/05/2018 23:15:00 0.0
2018_01_05_S18 01/05/2018 23:20:00 0.0
2018_01_05_S18 01/05/2018 23:25:00 0.0
2018_01_05_S18 01/05/2018 23:30:00 0.0
2018_01_05_S18 01/05/2018 23:35:00 0.0
2018_01_05_S18 01/05/2018 23:40:00 0.0
2018_01_05_S18 01/05/2018 23:45:00 0.0065
2018_01_05_S18 01/05/2018 23:50:00 0.0546
2018_01_05_S18 01/05/2018 23:55:00 0.0
2018_01_05_S18 01/06/2018 00:00:00 0.0063
2018_01_05_S18 01/06/2018 00:05:00 0.0135
2018_01_05_S18 01/06/2018 00:10:00 0.0309
2018_01_05_S18 01/06/2018 00:15:00 0.4178
2018_01_05_S18 01/06/2018 00:20:00 0.001
2018_01_05_S18 01/06/2018 00:25:00 0.0
2018_01_05_S18 01/06/2018 00:30:00 0.0
2018_01_05_S18 01/06/2018 00:35:00 0.0
2018_01_05_S18 01/06/2018 00:40:00 0.0
2018_01_05_S18 01/06/2018 00:45:00 0.0
2018_01_05_S18 01/06/2018 00:50:00 0.0
2018_01_05_S18 01/06/2018 00:55:00 0.0
2018_01_05_S18 01/06/2018 01:00:00 0.0006
2018_01_05_S18 01/06/2018 01:05:00 0.0
2018_01_05_S18 01/06/2018 01:10:00 0.0181
2018_01_05_S18 01/06/2018 01:15:00 0.0
2018_01_05_S18 01/06/2018 01:20:00 0.0
2018_01_05_S18 01/06/2018 01:25:00 0.0
2018_01_05_S18 01/06/2018 01:30:00 0.0
2018_01_05_S18 01/06/2018 01:35:00 0.0
2018_01_05_S18 01/06/2018 01:40:00 0.0
2018_01_05_S18 01/06/2018 01:45:00 0.0
2018_01_05_S18 01/06/2018 01:50:00 0.0
2018_01_05_S18 01/06/2018 01:55:00 0.0
2018_01_05_S18 01/06/2018 02:00:00 0.0
2018_01_05_S18 01/06/2018 02:05:00 0.0
2018_01_05_S18 01/06/2018 02:10:00 0.0
2018_01_05_S18 01/06/2018 02:15:00 0.0
2018_01_05_S18 01/06/2018 02:20:00 0.0
2018_01_05_S18 01/06/2018 02:25:00 0.0
2018_01_05_S18 01/06/2018 02:30:00 0.0
2018_01_05_S18 01/06/2018 02:35:00 0.0
2018_01_05_S18 01/06/2018 02:40:00 0.0
2018_01_05_S18 01/06/2018 02:45:00 0.0
2018_01_05_S18 01/06/2018 02:50:00 0.0
2018_01_05_S18 01/06/2018 02:55:00 0.0
2018_01_05_S18 01/06/2018 03:00:00 0.0
2018_01_05_S18 01/06/2018 03:05:00 0.0
2018_01_05_S18 01/06/2018 03:10:00 0.0
2018_01_05_S18 01/06/2018 03:15:00 0.0
2018_01_05_S18 01/06/2018 03:20:00 0.0
2018_01_05_S18 01/06/2018 03:25:00 0.0
2018_01_05_S18 01/06/2018 03:30:00 0.0
2018_01_05_S18 01/06/2018 03:35:00 0.0
2018_01_05_S18 01/06/2018 03:40:00 0.1065
2018_01_05_S18 01/06/2018 03:45:00 0.3594
2018_01_05_S18 01/06/2018 03:50:00 0.0
2018_01_05_S18 01/06/2018 03:55:00 0.0
2018_01_05_S18 01/06/2018 04:00:00 0.0
2018_01_05_S18 01/06/2018 04:05:00 0.0
2018_01_05_S18 01/06/2018 04:10:00 0.0
2018_01_05_S18 01/06/2018 04:15:00 0.0
2018_01_05_S18 01/06/2018 04:20:00 0.0167
2018_01_05_S18 01/06/2018 04:25:00 0.0078
2018_01_05_S18 01/06/2018 04:30:00 0.0
2018_01_05_S18 01/06/2018 04:35:00 0.0
2018_01_05_S18 01/06/2018 04:40:00 0.0
2018_01_05_S18 01/06/2018 04:45:00 0.0
2018_01_05_S18 01/06/2018 04:50:00 0.0
2018_01_05_S18 01/06/2018 04:55:00 0.0
2018_01_05_S18 01/06/2018 05:00:00 0.0
2018_01_05_S18 01/06/2018 05:05:00 0.0
2018_01_05_S18 01/06/2018 05:10:00 0.0
2018_01_05_S18 01/06/2018 05:15:00 0.0
2018_01_05_S18 01/06/2018 05:20:00 0.0
2018_01_05_S18 01/06/2018 05:25:00 0.0
2018_01_05_S18 01/06/2018 05:30:00 0.0
2018_01_05_S18 01/06/2018 05:35:00 0.6407
2018_01_05_S18 01/06/2018 05:40:00 0.186
2018_01_05_S18 01/06/2018 05:45:00 0.0
2018_01_05_S18 01/06/2018 05:50:00 0.0
2018_01_05_S18 01/06/2018 05:55:00 0.0
2018_01_05_S18 01/06/2018 06:00:00 0.0
2018_01_05_S18 01/06/2018 06:05:00 0.0
2018_01_05_S18 01/06/2018 06:10:00 0.0624
2018_01_05_S18 01/06/2018 06:15:00 0.0193
2018_01_05_S18 01/06/2018 06:20:00 0.0188
2018_01_05_S18 01/06/2018 06:25:00 0.0134
2018_01_05_S18 01/06/2018 06:30:00 0.0102
2018_01_05_S18 01/06/2018 06:35:00 0.0
2018_01_05_S18 01/06/2018 06:40:00 0.0
2018_01_05_S18 01/06/2018 06:45:00 0.0001
2018_01_05_S18 01/06/2018 06:50:00 0.0152
2018_01_05_S18 01/06/2018 06:55:00 0.0113
2018_01_05_S18 01/06/2018 07:00:00 0.1511
2018_01_05_S18 01/06/2018 07:05:00 0.0304
2018_01_05_S18 01/06/2018 07:10:00 0.0056
2018_01_05_S18 01/06/2018 07:15:00 0.0
2018_01_05_S18 01/06/2018 07:20:00 0.0
2018_01_05_S18 01/06/2018 07:25:00 0.0
2018_01_05_S18 01/06/2018 07:30:00 0.0
2018_01_05_S18 01/06/2018 07:35:00 0.0
2018_01_05_S18 01/06/2018 07:40:00 0.0043
2018_01_05_S18 01/06/2018 07:45:00 0.0132
2018_01_05_S18 01/06/2018 07:50:00 0.024
2018_01_05_S18 01/06/2018 07:55:00 0.0381
2018_01_05_S18 01/06/2018 08:00:00 0.0

2018_01_05_S19 01/04/2018 10:25:00 0.1331
2018_01_05_S19 01/04/2018 10:30:00 0.0995
2018_01_05_S19 01/04/2018 10:35:00 0.0
2018_01_05_S19 01/04/2018 10:40:00 0.0041
2018_01_05_S19 01/04/2018 10:45:00 0.172
2018_01_05_S19 01/04/2018 10:50:00 0.216
2018_01_05_S19 01/04/2018 10:55:00 0.0
2018_01_05_S19 01/04/2018 11:00:00 0.0
2018_01_05_S19 01/04/2018 11:05:00 3.358
2018_01_05_S19 01/04/2018 11:10:00 0.0397
2018_01_05_S19 01/04/2018 11:15:00 5.1942
2018_01_05_S19 01/04/2018 11:20:00 0.1069
2018_01_05_S19 01/04/2018 11:25:00 0.3022
2018_01_05_S19 01/04/2018 11:30:00 0.0
2018_01_05_S19 01/04/2018 11:35:00 0.0
2018_01_05_S19 01/04/2018 11:40:00 0.0
2018_01_05_S19 01/04/2018 11:45:00 0.0
2018_01_05_S19 01/04/2018 11:50:00 0.0
2018_01_05_S19 01/04/2018 11:55:00 0.0
2018_01_05_S19 01/04/2018 12:00:00 0.0
2018_01_05_S19 01/04/2018 12:05:00 0.0
2018_01_05_S19 01/04/2018 12:10:00 0.0
2018_01_05_S19 01/04/2018 12:15:00 0.0
2018_01_05_S19 01/04/2018 12:20:00 0.0
2018_01_05_S19 01/04/2018 12:25:00 0.0
2018_01_05_S19 01/04/2018 12:30:00 0.0256
2018_01_05_S19 01/04/2018 12:35:00 0.0
2018_01_05_S19 01/04/2018 12:40:00 0.0
2018_01_05_S19 01/04/2018 12:45:00 0.0
2018_01_05_S19 01/04/2018 12:50:00 0.0
2018_01_05_S19 01/04/2018 12:55:00 0.0
2018_01_05_S19 01/04/2018 13:00:00 0.0
2018_01_05_S19 01/04/2018 13:05:00 0.0
2018_01_05_S19 01/04/2018 13:10:00 0.0
2018_01_05_S19 01/04/2018 13:15:00 0.0001
2018_01_05_S19 01/04/2018 13:20:00 0.0
2018_01_05_S19 01/04/2018 13:25:00 0.0
2018_01_05_S19 01/04/2018 13:30:00 0.0
2018_01_05_S19 01/04/2018 13:35:00 0.0
2018_01_05_S19 01/04/2018 13:40:00 0.0
2018_01_05_S19 01/04/2018 13:45:00 0.0
2018_01_05_S19 01/04/2018 13:50:00 0.0
2018_01_05_S19 01/04/2018 13:55:00 0.0
2018_01_05_S19 01/04/2018 14:00:00 0.0011
2018_01_05_S19 01/04/2018 14:05:00 0.0
2018_01_05_S19 01/04/2018 14:10:00 0.0
2018_01_05_S19 01/04/2018 14:15:00 0.0015
2018_01_05_S19 01/04/2018 14:20:00 0.0
2018_01_05_S19 01/04/2018 14:25:00 0.007
2018_01_05_S19 01/04/2018 14:30:00 0.001
2018_01_05_S19 01/04/2018 14:35:00 0.0056
2018_01_05_S19 01/04/2018 14:40:00 0.0061
2018_01_05_S19 01/04/2018 14:45:00 0.0
2018_01_05_S19 01/04/2018 14:50:00 0.0
2018_01_05_S19 01/04/2018 14:55:00 0.0
2018_01_05_S19 01/04/2018 15:00:00 0.0
2018_01_05_S19 01/04/2018 15:05:00 0.0
2018_01_05_S19 01/04/2018 15:10:00 0.0
2018_01_05_S19 01/04/2018 15:15:00 0.0
2018_01_05_S19 01/04/2018 15:20:00 0.0
2018_01_05_S19 01/04/2018 15:25:00 0.0
2018_01_05_S19 01/04/2018 15:30:00 0.0269
2018_01_05_S19 01/04/2018 15:35:00 1.0498
2018_01_05_S19 01/04/2018 15:40:00 0.0
2018_01_05_S19 01/04/2018 15:45:00 0.0
2018_01_05_S19 01/04/2018 15:50:00 0.0
2018_01_05_S19 01/04/2018 15:55:00 0.0486
2018_01_05_S19 01/04/2018 16:00:00 0.0506
2018_01_05_S19 01/04/2018 16:05:00 0.1512
2018_01_05_S19 01/04/2018 16:10:00 0.0
2018_01_05_S19 01/04/2018 16:15:00 0.0278
2018_01_05_S19 01/04/2018 16:20:00 0.1948
2018_01_05_S19 01/04/2018 16:25:00 0.0021
2018_01_05_S19 01/04/2018 16:30:00 0.0
2018_01_05_S19 01/04/2018 16:35:00 0.0
2018_01_05_S19 01/04/2018 16:40:00 0.0
2018_01_05_S19 01/04/2018 16:45:00 0.0
2018_01_05_S19 01/04/2018 16:50:00 0.0
2018_01_05_S19 01/04/2018 16:55:00 0.0
2018_01_05_S19 01/04/2018 17:00:00 0.0001
2018_01_05_S19 01/04/2018 17:05:00 0.0
2018_01_05_S19 01/04/2018 17:10:00 0.2271
2018_01_05_S19 01/04/2018 17:15:00 0.0
2018_01_05_S19 01/04/2018 17:20:00 0.0
2018_01_05_S19 01/04/2018 17:25:00 0.0
2018_01_05_S19 01/04/2018 17:30:00 0.0255
2018_01_05_S19 01/04/2018 17:35:00 0.6017
2018_01_05_S19 01/04/2018 17:40:00 0.3417
2018_01_05_S19 01/04/2018 17:45:00 0.2405
2018_01_05_S19 01/04/2018 17:50:00 0.1651
2018_01_05_S19 01/04/2018 17:55:00 0.1524
2018_01_05_S19 01/04/2018 18:00:00 0.25
2018_01_05_S19 01/04/2018 18:05:00 0.3061
2018_01_05_S19 01/04/2018 18:10:00 0.0717
2018_01_05_S19 01/04/2018 18:15:00 0.0804
2018_01_05_S19 01/04/2018 18:20:00 0.0112
2018_01_05_S19 01/04/2018 18:25:00 0.0
2018_01_05_S19 01/04/2018 18:30:00 0.0
2018_01_05_S19 01/04/2018 18:35:00 0.0
2018_01_05_S19 01/04/2018 18:40:00 0.0
2018_01_05_S19 01/04/2018 18:45:00 0.0
2018_01_05_S19 01/04/2018 18:50:00 0.0
2018_01_05_S19 01/04/2018 18:55:00 0.0
2018_01_05_S19 01/04/2018 19:00:00 0.0
2018_01_05_S19 01/04/2018 19:05:00 0.0
2018_01_05_S19 01/04/2018 19:10:00 0.0
2018_01_05_S19 01/04/2018 19:15:00 0.0
2018_01_05_S19 01/04/2018 19:20:00 0.0
2018_01_05_S19 01/04/2018 19:25:00 0.0
2018_01_05_S19 01/04/2018 19:30:00 0.0
2018_01_05_S19 01/04/2018 19:35:00 0.0
2018_01_05_S19 01/04/2018 19:40:00 0.0
2018_01_05_S19 01/04/2018 19:45:00 0.0
2018_01_05_S19 01/04/2018 19:50:00 0.0
2018_01_05_S19 01/04/2018 19:55:00 0.0
2018_01_05_S19 01/04/2018 20:00:00 0.0
2018_01_05_S19 01/04/2018 20:05:00 0.0
2018_01_05_S19 01/04/2018 20:10:00 0.0
2018_01_05_S19 01/04/2018 20:15:00 0.0
2018_01_05_S19 01/04/2018 20:20:00 0.0
2018_01_05_S19 01/04/2018 20:25:00 0.0038
2018_01_05_S19 01/04/2018 20:30:00 0.0
2018_01_05_S19 01/04/2018 20:35:00 0.0
2018_01_05_S19 01/04/2018 20:40:00 0.0
2018_01_05_S19 01/04/2018 20:45:00 0.0
2018_01_05_S19 01/04/2018 20:50:00 0.0
2018_01_05_S19 01/04/2018 20:55:00 0.0
2018_01_05_S19 01/04/2018 21:00:00 0.0
2018_01_05_S19 01/04/2018 21:05:00 0.0
2018_01_05_S19 01/04/2018 21:10:00 0.0
2018_01_05_S19 01/04/2018 21:15:00 0.0
2018_01_05_S19 01/04/2018 21:20:00 0.0
2018_01_05_S19 01/04/2018 21:25:00 0.0078
2018_01_05_S19 01/04/2018 21:30:00 0.1724
2018_01_05_S19 01/04/2018 21:35:00 0.0168
2018_01_05_S19 01/04/2018 21:40:00 0.1508
2018_01_05_S19 01/04/2018 21:45:00 0.0
2018_01_05_S19 01/04/2018 21:50:00 0.0
2018_01_05_S19 01/04/2018 21:55:00 0.0
2018_01_05_S19 01/04/2018 22:00:00 0.0
2018_01_05_S19 01/04/2018 22:05:00 0.0
2018_01_05_S19 01/04/2018 22:10:00 0.0
2018_01_05_S19 01/04/2018 22:15:00 0.0
2018_01_05_S19 01/04/2018 22:20:00 0.0
2018_01_05_S19 01/04/2018 22:25:00 0.0
2018_01_05_S19 01/04/2018 22:30:00 0.0
2018_01_05_S19 01/04/2018 22:35:00 0.0
2018_01_05_S19 01/04/2018 22:40:00 0.0
2018_01_05_S19 01/04/2018 22:45:00 0.0
2018_01_05_S19 01/04/2018 22:50:00 0.0
2018_01_05_S19 01/04/2018 22:55:00 0.0
2018_01_05_S19 01/04/2018 23:00:00 0.0
2018_01_05_S19 01/04/2018 23:05:00 0.0
2018_01_05_S19 01/04/2018 23:10:00 0.0
2018_01_05_S19 01/04/2018 23:15:00 0.0
2018_01_05_S19 01/04/2018 23:20:00 0.0
2018_01_05_S19 01/04/2018 23:25:00 0.0
2018_01_05_S19 01/04/2018 23:30:00 0.0
2018_01_05_S19 01/04/2018 23:35:00 0.0
2018_01_05_S19 01/04/2018 23:40:00 0.0
2018_01_05_S19 01/04/2018 23:45:00 0.0
2018_01_05_S19 01/04/2018 23:50:00 0.0
2018_01_05_S19 01/04/2018 23:55:00 0.0
2018_01_05_S19 01/05/2018 00:00:00 0.0
2018_01_05_S19 01/05/2018 00:05:00 0.0
2018_01_05_S19 01/05/2018 00:10:00 0.0
2018_01_05_S19 01/05/2018 00:15:00 0.0
2018_01_05_S19 01/05/2018 00:20:00 0.0
2018_01_05_S19 01/05/2018 00:25:00 0.0
2018_01_05_S19 01/05/2018 00:30:00 0.0
2018_01_05_S19 01/05/2018 00:35:00 0.0
2018_01_05_S19 01/05/2018 00:40:00 0.0
2018_01_05_S19 01/05/2018 00:45:00 0.0
2018_01_05_S19 01/05/2018 00:50:00 0.069
2018_01_05_S19 01/05/2018 00:55:00 0.1537
2018_01_05_S19 01/05/2018 01:00:00 0.0
2018_01_05_S19 01/05/2018 01:05:00 0.1579
2018_01_05_S19 01/05/2018 01:10:00 0.0571
2018_01_05_S19 01/05/2018 01:15:00 0.0104
2018_01_05_S19 01/05/2018 01:20:00 0.0469
2018_01_05_S19 01/05/2018 01:25:00 0.0669
2018_01_05_S19 01/05/2018 01:30:00 0.0081
2018_01_05_S19 01/05/2018 01:35:00 0.0486
2018_01_05_S19 01/05/2018 01:40:00 0.0
2018_01_05_S19 01/05/2018 01:45:00 0.0321
2018_01_05_S19 01/05/2018 01:50:00 0.0378
2018_01_05_S19 01/05/2018 01:55:00 0.0101
2018_01_05_S19 01/05/2018 02:00:00 0.0076
2018_01_05_S19 01/05/2018 02:05:00 0.0173
2018_01_05_S19 01/05/2018 02:10:00 0.0059
2018_01_05_S19 01/05/2018 02:15:00 0.0312
2018_01_05_S19 01/05/2018 02:20:00 0.0023
2018_01_05_S19 01/05/2018 02:25:00 0.0
2018_01_05_S19 01/05/2018 02:30:00 0.0
2018_01_05_S19 01/05/2018 02:35:00 0.0
2018_01_05_S19 01/05/2018 02:40:00 0.0
2018_01_05_S19 01/05/2018 02:45:00 0.0
2018_01_05_S19 01/05/2018 02:50:00 0.0
2018_01_05_S19 01/05/2018 02:55:00 0.0
2018_01_05_S19 01/05/2018 03:00:00 0.0
2018_01_05_S19 01/05/2018 03:05:00 0.3002
2018_01_05_S19 01/05/2018 03:10:00 0.3909
2018_01_05_S19 01/05/2018 03:15:00 0.4155
2018_01_05_S19 01/05/2018 03:20:00 0.9573
2018_01_05_S19 01/05/2018 03:25:00 0.3786
2018_01_05_S19 01/05/2018 03:30:00 0.5429
2018_01_05_S19 01/05/2018 03:35:00 0.1085
2018_01_05_S19 01/05/2018 03:40:00 0.0
2018_01_05_S19 01/05/2018 03:45:00 0.0108
2018_01_05_S19 01/05/2018 03:50:00 0.0603
2018_01_05_S19 01/05/2018 03:55:00 0.0183
2018_01_05_S19 01/05/2018 04:00:00 0.0829
2018_01_05_S19 01/05/2018 04:05:00 0.0
2018_01_05_S19 01/05/2018 04:10:00 0.0033
2018_01_05_S19 01/05/2018 04:15:00 0.0055
2018_01_05_S19 01/05/2018 04:20:00 0.0089
2018_01_05_S19 01/05/2018 04:25:00 0.1668
2018_01_05_S19 01/05/2018 04:30:00 0.0517
2018_01_05_S19 01/05/2018 04:35:00 0.0158
2018_01_05_S19 01/05/2018 04:40:00 0.0237
2018_01_05_S19 01/05/2018 04:45:00 0.2019
2018_01_05_S19 01/05/2018 04:50:00 0.0277
2018_01_05_S19 01/05/2018 04:55:00 0.0
2018_01_05_S19 01/05/2018 05:00:00 0.1163
2018_01_05_S19 01/05/2018 05:05:00 0.0037
2018_01_05_S19 01/05/2018 05:10:00 0.0004
2018_01_05_S19 01/05/2018 05:15:00 0.0
2018_01_05_S19 01/05/2018 05:20:00 0.0179
2018_01_05_S19 01/05/2018 05:25:00 0.0
2018_01_05_S19 01/05/2018 05:30:00 0.0056
2018_01_05_S19 01/05/2018 05:35:00 0.0
2018_01_05_S19 01/05/2018 05:40:00 0.0
2018_01_05_S19 01/05/2018 05:45:00 0.0
2018_01_05_S19 01/05/2018 05:50:00 0.0
2018_01_05_S19 01/05/2018 05:55:00 0.0203
2018_01_05_S19 01/05/2018 06:00:00 0.2621
2018_01_05_S19 01/05/2018 06:05:00 0.277
2018_01_05_S19 01/05/2018 06:10:00 0.01
2018_01_05_S19 01/05/2018 06:15:00 0.0149
2018_01_05_S19 01/05/2018 06:20:00 2.9061
2018_01_05_S19 01/05/2018 06:25:00 2.5382
2018_01_05_S19 01/05/2018 06:30:00 1.3487
2018_01_05_S19 01/05/2018 06:35:00 1.5931
2018_01_05_S19 01/05/2018 06:40:00 0.3578
2018_01_05_S19 01/05/2018 06:45:00 0.6615
2018_01_05_S19 01/05/2018 06:50:00 1.1383
2018_01_05_S19 01/05/2018 06:55:00 0.3333
2018_01_05_S19 01/05/2018 07:00:00 0.3528
2018_01_05_S19 01/05/2018 07:05:00 0.1667
2018_01_05_S19 01/05/2018 07:10:00 0.1282
2018_01_05_S19 01/05/2018 07:15:00 0.0
2018_01_05_S19 01/05/2018 07:20:00 0.0
2018_01_05_S19 01/05/2018 07:25:00 0.0
2018_01_05_S19 01/05/2018 07:30:00 0.0
2018_01_05_S19 01/05/2018 07:35:00 0.0
2018_01_05_S19 01/05/2018 07:40:00 0.0
2018_01_05_S19 01/05/2018 07:45:00 0.0
2018_01_05_S19 01/05/2018 07:50:00 0.0
2018_01_05_S19 01/05/2018 07:55:00 0.0
2018_01_05_S19 01/05/2018 08:00:00 0.0
2018_01_05_S19 01/05/2018 08:05:00 0.0
2018_01_05_S19 01/05/2018 08:10:00 0.0
2018_01_05_S19 01/05/2018 08:15:00 0.0073
2018_01_05_S19 01/05/2018 08:20:00 0.0
2018_01_05_S19 01/05/2018 08:25:00 0.0
2018_01_05_S19 01/05/2018 08:30:00 0.0355
2018_01_05_S19 01/05/2018 08:35:00 0.3013
2018_01_05_S19 01/05/2018 08:40:00 0.654
2018_01_05_S19 01/05/2018 08:45:00 1.111
2018_01_05_S19 01/05/2018 08:50:00 0.9433
2018_01_05_S19 01/05/2018 08:55:00 2.1645
2018_01_05_S19 01/05/2018 09:00:00 0.7236
2018_01_05_S19 01/05/2018 09:05:00 0.4641
2018_01_05_S19 01/05/2018 09:10:00 0.9471
2018_01_05_S19 01/05/2018 09:15:00 0.14
2018_01_05_S19 01/05/2018 09:20:00 0.0094
2018_01_05_S19 01/05/2018 09:25:00 0.0
2018_01_05_S19 01/05/2018 09:30:00 0.0
2018_01_05_S19 01/05/2018 09:35:00 0.0336
2018_01_05_S19 01/05/2018 09:40:00 2.3156
2018_01_05_S19 01/05/2018 09:45:00 0.5047
2018_01_05_S19 01/05/2018 09:50:00 0.7801
2018_01_05_S19 01/05/2018 09:55:00 4.4301
2018_01_05_S19 01/05/2018 10:00:00 0.0306
2018_01_05_S19 01/05/2018 10:05:00 0.3312
2018_01_05_S19 01/05/2018 10:10:00 0.0
2018_01_05_S19 01/05/2018 10:15:00 0.0
2018_01_05_S19 01/05/2018 10:20:00 0.0
2018_01_05_S19 01/05/2018 10:25:00 0.0484
2018_01_05_S19 01/05/2018 10:30:00 1.6613
2018_01_05_S19 01/05/2018 10:35:00 0.0189
2018_01_05_S19 01/05/2018 10:40:00 0.1717
2018_01_05_S19 01/05/2018 10:45:00 0.8956
2018_01_05_S19 01/05/2018 10:50:00 0.0593
2018_01_05_S19 01/05/2018 10:55:00 0.0
2018_01_05_S19 01/05/2018 11:00:00 0.0232
2018_01_05_S19 01/05/2018 11:05:00 0.0803
2018_01_05_S19 01/05/2018 11:10:00 0.1646
2018_01_05_S19 01/05/2018 11:15:00 0.4288
2018_01_05_S19 01/05/2018 11:20:00 0.1516
2018_01_05_S19 01/05/2018 11:25:00 0.1019
2018_01_05_S19 01/05/2018 11:30:00 0.1811
2018_01_05_S19 01/05/2018 11:35:00 0.2242
2018_01_05_S19 01/05/2018 11:40:00 0.1959
2018_01_05_S19 01/05/2018 11:45:00 0.0266
2018_01_05_S19 01/05/2018 11:50:00 0.0006
2018_01_05_S19 01/05/2018 11:55:00 0.0007
2018_01_05_S19 01/05/2018 12:00:00 0.0501
2018_01_05_S19 01/05/2018 12:05:00 0.2571
2018_01_05_S19 01/05/2018 12:10:00 0.5671
2018_01_05_S19 01/05/2018 12:15:00 1.3167
2018_01_05_S19 01/05/2018 12:20:00 0.3383
2018_01_05_S19 01/05/2018 12:25:00 0.2895
2018_01_05_S19 01/05/2018 12:30:00 1.6879
2018_01_05_S19 01/05/2018 12:35:00 0.5184
2018_01_05_S19 01/05/2018 12:40:00 1.2277
2018_01_05_S19 01/05/2018 12:45:00 4.4219
2018_01_05_S19 01/05/2018 12:50:00 0.1958
2018_01_05_S19 01/05/2018 12:55:00 0.113
2018_01_05_S19 01/05/2018 13:00:00 0.0768
2018_01_05_S19 01/05/2018 13:05:00 0.2775
2018_01_05_S19 01/05/2018 13:10:00 0.0
2018_01_05_S19 01/05/2018 13:15:00 0.0
2018_01_05_S19 01/05/2018 13:20:00 0.0001
2018_01_05_S19 01/05/2018 13:25:00 0.0084
2018_01_05_S19 01/05/2018 13:30:00 0.0209
2018_01_05_S19 01/05/2018 13:35:00 0.0061
2018_01_05_S19 01/05/2018 13:40:00 0.0338
2018_01_05_S19 01/05/2018 13:45:00 0.3163
2018_01_05_S19 01/05/2018 13:50:00 0.3245
2018_01_05_S19 01/05/2018 13:55:00 0.9335
2018_01_05_S19 01/05/2018 14:00:00 0.265
2018_01_05_S19 01/05/2018 14:05:00 0.3403
2018_01_05_S19 01/05/2018 14:10:00 0.3909
2018_01_05_S19 01/05/2018 14:15:00 0.3479
2018_01_05_S19 01/05/2018 14:20:00 0.0
2018_01_05_S19 01/05/2018 14:25:00 0.0
2018_01_05_S19 01/05/2018 14:30:00 0.0
2018_01_05_S19 01/05/2018 14:35:00 0.0315
2018_01_05_S19 01/05/2018 14:40:00 0.0617
2018_01_05_S19 01/05/2018 14:45:00 0.2652
2018_01_05_S19 01/05/2018 14:50:00 0.05
2018_01_05_S19 01/05/2018 14:55:00 0.0017
2018_01_05_S19 01/05/2018 15:00:00 0.0
2018_01_05_S19 01/05/2018 15:05:00 0.0
2018_01_05_S19 01/05/2018 15:10:00 0.0302
2018_01_05_S19 01/05/2018 15:15:00 0.1723
2018_01_05_S19 01/05/2018 15:20:00 0.5971
2018_01_05_S19 01/05/2018 15:25:00 0.0
2018_01_05_S19 01/05/2018 15:30:00 0.0
2018_01_05_S19 01/05/2018 15:35:00 0.0145
2018_01_05_S19 01/05/2018 15:40:00 0.0567
2018_01_05_S19 01/05/2018 15:45:00 0.0
2018_01_05_S19 01/05/2018 15:50:00 0.0
2018_01_05_S19 01/05/2018 15:55:00 0.0
2018_01_05_S19 01/05/2018 16:00:00 0.0
2018_01_05_S19 01/05/2018 16:05:00 0.0
2018_01_05_S19 01/05/2018 16:10:00 0.0
2018_01_05_S19 01/05/2018 16:15:00 0.0
2018_01_05_S19 01/05/2018 16:20:00 0.0
2018_01_05_S19 01/05/2018 16:25:00 0.0
2018_01_05_S19 01/05/2018 16:30:00 0.0
2018_01_05_S19 01/05/2018 16:35:00 0.0
2018_01_05_S19 01/05/2018 16:40:00 0.0
2018_01_05_S19 01/05/2018 16:45:00 0.0
2018_01_05_S19 01/05/2018 16:50:00 0.0
2018_01_05_S19 01/05/2018 16:55:00 0.0
2018_01_05_S19 01/05/2018 17:00:00 0.0
2018_01_05_S19 01/05/2018 17:05:00 0.0
2018_01_05_S19 01/05/2018 17:10:00 0.0
2018_01_05_S19 01/05/2018 17:15:00 0.0
2018_01_05_S19 01/05/2018 17:20:00 0.0
2018_01_05_S19 01/05/2018 17:25:00 0.0
2018_01_05_S19 01/05/2018 17:30:00 0.0
2018_01_05_S19 01/05/2018 17:35:00 0.0
2018_01_05_S19 01/05/2018 17:40:00 0.0
2018_01_05_S19 01/05/2018 17:45:00 0.0
2018_01_05_S19 01/05/2018 17:50:00 0.0
2018_01_05_S19 01/05/2018 17:55:00 0.025
2018_01_05_S19 01/05/2018 18:00:00 0.0229
2018_01_05_S19 01/05/2018 18:05:00 0.0
2018_01_05_S19 01/05/2018 18:10:00 0.0
2018_01_05_S19 01/05/2018 18:15:00 0.0042
2018_01_05_S19 01/05/2018 18:20:00 0.0514
2018_01_05_S19 01/05/2018 18:25:00 0.0009
2018_01_05_S19 01/05/2018 18:30:00 0.0
2018_01_05_S19 01/05/2018 18:35:00 0.0
2018_01_05_S19 01/05/2018 18:40:00 0.0
2018_01_05_S19 01/05/2018 18:45:00 0.0
2018_01_05_S19 01/05/2018 18:50:00 0.0
2018_01_05_S19 01/05/2018 18:55:00 0.0
2018_01_05_S19 01/05/2018 19:00:00 0.0
2018_01_05_S19 01/05/2018 19:05:00 0.0
2018_01_05_S19 01/05/2018 19:10:00 0.0
2018_01_05_S19 01/05/2018 19:15:00 0.0
2018_01_05_S19 01/05/2018 19:20:00 0.0
2018_01_05_S19 01/05/2018 19:25:00 0.0
2018_01_05_S19 01/05/2018 19:30:00 0.0
2018_01_05_S19 01/05/2018 19:35:00 0.0035
2018_01_05_S19 01/05/2018 19:40:00 0.0
2018_01_05_S19 01/05/2018 19:45:00 0.0066
2018_01_05_S19 01/05/2018 19:50:00 0.1139
2018_01_05_S19 01/05/2018 19:55:00 0.0134
2018_01_05_S19 01/05/2018 20:00:00 0.0107
2018_01_05_S19 01/05/2018 20:05:00 0.0
2018_01_05_S19 01/05/2018 20:10:00 0.0
2018_01_05_S19 01/05/2018 20:15:00 0.0
2018_01_05_S19 01/05/2018 20:20:00 0.0
2018_01_05_S19 01/05/2018 20:25:00 0.0
2018_01_05_S19 01/05/2018 20:30:00 0.0
2018_01_05_S19 01/05/2018 20:35:00 0.0
2018_01_05_S19 01/05/2018 20:40:00 0.0
2018_01_05_S19 01/05/2018 20:45:00 0.0
2018_01_05_S19 01/05/2018 20:50:00 0.0012
2018_01_05_S19 01/05/2018 20:55:00 0.001
2018_01_05_S19 01/05/2018 21:00:00 0.0
2018_01_05_S19 01/05/2018 21:05:00 0.0
2018_01_05_S19 01/05/2018 21:10:00 0.0
2018_01_05_S19 01/05/2018 21:15:00 0.0
2018_01_05_S19 01/05/2018 21:20:00 0.0
2018_01_05_S19 01/05/2018 21:25:00 0.0
2018_01_05_S19 01/05/2018 21:30:00 0.0
2018_01_05_S19 01/05/2018 21:35:00 0.0
2018_01_05_S19 01/05/2018 21:40:00 0.0
2018_01_05_S19 01/05/2018 21:45:00 0.0
2018_01_05_S19 01/05/2018 21:50:00 0.0
2018_01_05_S19 01/05/2018 21:55:00 0.0
2018_01_05_S19 01/05/2018 22:00:00 0.0
2018_01_05_S19 01/05/2018 22:05:00 0.0004
2018_01_05_S19 01/05/2018 22:10:00 0.0
2018_01_05_S19 01/05/2018 22:15:00 0.0
2018_01_05_S19 01/05/2018 22:20:00 0.0
2018_01_05_S19 01/05/2018 22:25:00 0.0191
2018_01_05_S19 01/05/2018 22:30:00 0.0108
2018_01_05_S19 01/05/2018 22:35:00 0.0
2018_01_05_S19 01/05/2018 22:40:00 0.0171
2018_01_05_S19 01/05/2018 22:45:00 0.0
2018_01_05_S19 01/05/2018 22:50:00 0.0
2018_01_05_S19 01/05/2018 22:55:00 0.0
2018_01_05_S19 01/05/2018 23:00:00 0.0
2018_01_05_S19 01/05/2018 23:05:00 0.0
2018_01_05_S19 01/05/2018 23:10:00 0.0
2018_01_05_S19 01/05/2018 23:15:00 0.0
2018_01_05_S19 01/05/2018 23:20:00 0.0
2018_01_05_S19 01/05/2018 23:25:00 0.0
2018_01_05_S19 01/05/2018 23:30:00 0.0
2018_01_05_S19 01/05/2018 23:35:00 0.0
2018_01_05_S19 01/05/2018 23:40:00 0.0
2018_01_05_S19 01/05/2018 23:45:00 0.0358
2018_01_05_S19 01/05/2018 23:50:00 0.0365
2018_01_05_S19 01/05/2018 23:55:00 0.0016
2018_01_05_S19 01/06/2018 00:00:00 0.0058
2018_01_05_S19 01/06/2018 00:05:00 0.0913
2018_01_05_S19 01/06/2018 00:10:00 0.0121
2018_01_05_S19 01/06/2018 00:15:00 0.4652
2018_01_05_S19 01/06/2018 00:20:00 0.0026
2018_01_05_S19 01/06/2018 00:25:00 0.0
2018_01_05_S19 01/06/2018 00:30:00 0.0
2018_01_05_S19 01/06/2018 00:35:00 0.0
2018_01_05_S19 01/06/2018 00:40:00 0.0
2018_01_05_S19 01/06/2018 00:45:00 0.0
2018_01_05_S19 01/06/2018 00:50:00 0.0
2018_01_05_S19 01/06/2018 00:55:00 0.0
2018_01_05_S19 01/06/2018 01:00:00 0.0005
2018_01_05_S19 01/06/2018 01:05:00 0.0
2018_01_05_S19 01/06/2018 01:10:00 0.0157
2018_01_05_S19 01/06/2018 01:15:00 0.0
2018_01_05_S19 01/06/2018 01:20:00 0.0
2018_01_05_S19 01/06/2018 01:25:00 0.0
2018_01_05_S19 01/06/2018 01:30:00 0.0
2018_01_05_S19 01/06/2018 01:35:00 0.0
2018_01_05_S19 01/06/2018 01:40:00 0.0
2018_01_05_S19 01/06/2018 01:45:00 0.0
2018_01_05_S19 01/06/2018 01:50:00 0.0
2018_01_05_S19 01/06/2018 01:55:00 0.0
2018_01_05_S19 01/06/2018 02:00:00 0.0
2018_01_05_S19 01/06/2018 02:05:00 0.0
2018_01_05_S19 01/06/2018 02:10:00 0.0
2018_01_05_S19 01/06/2018 02:15:00 0.0
2018_01_05_S19 01/06/2018 02:20:00 0.0
2018_01_05_S19 01/06/2018 02:25:00 0.0
2018_01_05_S19 01/06/2018 02:30:00 0.0
2018_01_05_S19 01/06/2018 02:35:00 0.0
2018_01_05_S19 01/06/2018 02:40:00 0.0
2018_01_05_S19 01/06/2018 02:45:00 0.0078
2018_01_05_S19 01/06/2018 02:50:00 0.0
2018_01_05_S19 01/06/2018 02:55:00 0.0
2018_01_05_S19 01/06/2018 03:00:00 0.0
2018_01_05_S19 01/06/2018 03:05:00 0.0
2018_01_05_S19 01/06/2018 03:10:00 0.0
2018_01_05_S19 01/06/2018 03:15:00 0.0
2018_01_05_S19 01/06/2018 03:20:00 0.0
2018_01_05_S19 01/06/2018 03:25:00 0.0009
2018_01_05_S19 01/06/2018 03:30:00 0.0
2018_01_05_S19 01/06/2018 03:35:00 0.0
2018_01_05_S19 01/06/2018 03:40:00 0.0656
2018_01_05_S19 01/06/2018 03:45:00 0.0868
2018_01_05_S19 01/06/2018 03:50:00 0.0
2018_01_05_S19 01/06/2018 03:55:00 0.0
2018_01_05_S19 01/06/2018 04:00:00 0.0
2018_01_05_S19 01/06/2018 04:05:00 0.0
2018_01_05_S19 01/06/2018 04:10:00 0.0
2018_01_05_S19 01/06/2018 04:15:00 0.0
2018_01_05_S19 01/06/2018 04:20:00 0.0093
2018_01_05_S19 01/06/2018 04:25:00 0.0017
2018_01_05_S19 01/06/2018 04:30:00 0.0
2018_01_05_S19 01/06/2018 04:35:00 0.0
2018_01_05_S19 01/06/2018 04:40:00 0.0
2018_01_05_S19 01/06/2018 04:45:00 0.0
2018_01_05_S19 01/06/2018 04:50:00 0.0
2018_01_05_S19 01/06/2018 04:55:00 0.0
2018_01_05_S19 01/06/2018 05:00:00 0.0
2018_01_05_S19 01/06/2018 05:05:00 0.0
2018_01_05_S19 01/06/2018 05:10:00 0.0
2018_01_05_S19 01/06/2018 05:15:00 0.0
2018_01_05_S19 01/06/2018 05:20:00 0.0
2018_01_05_S19 01/06/2018 05:25:00 0.0
2018_01_05_S19 01/06/2018 05:30:00 0.0081
2018_01_05_S19 01/06/2018 05:35:00 0.3138
2018_01_05_S19 01/06/2018 05:40:00 0.0464
2018_01_05_S19 01/06/2018 05:45:00 0.0
2018_01_05_S19 01/06/2018 05:50:00 0.0
2018_01_05_S19 01/06/2018 05:55:00 0.0
2018_01_05_S19 01/06/2018 06:00:00 0.0
2018_01_05_S19 01/06/2018 06:05:00 0.0
2018_01_05_S19 01/06/2018 06:10:00 0.0604
2018_01_05_S19 01/06/2018 06:15:00 0.0112
2018_01_05_S19 01/06/2018 06:20:00 0.0101
2018_01_05_S19 01/06/2018 06:25:00 0.0133
2018_01_05_S19 01/06/2018 06:30:00 0.003
2018_01_05_S19 01/06/2018 06:35:00 0.0
2018_01_05_S19 01/06/2018 06:40:00 0.0
2018_01_05_S19 01/06/2018 06:45:00 0.0
2018_01_05_S19 01/06/2018 06:50:00 0.0238
2018_01_05_S19 01/06/2018 06:55:00 0.0164
2018_01_05_S19 01/06/2018 07:00:00 0.0648
2018_01_05_S19 01/06/2018 07:05:00 0.024
2018_01_05_S19 01/06/2018 07:10:00 0.0052
2018_01_05_S19 01/06/2018 07:15:00 0.0
2018_01_05_S19 01/06/2018 07:20:00 0.0
2018_01_05_S19 01/06/2018 07:25:00 0.0
2018_01_05_S19 01/06/2018 07:30:00 0.0
2018_01_05_S19 01/06/2018 07:35:00 0.0
2018_01_05_S19 01/06/2018 07:40:00 0.0023
2018_01_05_S19 01/06/2018 07:45:00 0.026
2018_01_05_S19 01/06/2018 07:50:00 0.0489
2018_01_05_S19 01/06/2018 07:55:00 0.0285
2018_01_05_S19 01/06/2018 08:00:00 0.0

2018_01_05_S20 01/04/2018 10:25:00 0.0816
2018_01_05_S20 01/04/2018 10:30:00 0.0742
2018_01_05_S20 01/04/2018 10:35:00 0.0104
2018_01_05_S20 01/04/2018 10:40:00 0.0098
2018_01_05_S20 01/04/2018 10:45:00 0.1809
2018_01_05_S20 01/04/2018 10:50:00 0.2729
2018_01_05_S20 01/04/2018 10:55:00 0.0
2018_01_05_S20 01/04/2018 11:00:00 0.0
2018_01_05_S20 01/04/2018 11:05:00 2.5556
2018_01_05_S20 01/04/2018 11:10:00 0.102
2018_01_05_S20 01/04/2018 11:15:00 6.2845
2018_01_05_S20 01/04/2018 11:20:00 0.1531
2018_01_05_S20 01/04/2018 11:25:00 0.2888
2018_01_05_S20 01/04/2018 11:30:00 0.0
2018_01_05_S20 01/04/2018 11:35:00 0.0
2018_01_05_S20 01/04/2018 11:40:00 0.0
2018_01_05_S20 01/04/2018 11:45:00 0.0
2018_01_05_S20 01/04/2018 11:50:00 0.0
2018_01_05_S20 01/04/2018 11:55:00 0.0
2018_01_05_S20 01/04/2018 12:00:00 0.0
2018_01_05_S20 01/04/2018 12:05:00 0.0
2018_01_05_S20 01/04/2018 12:10:00 0.0
2018_01_05_S20 01/04/2018 12:15:00 0.0
2018_01_05_S20 01/04/2018 12:20:00 0.0
2018_01_05_S20 01/04/2018 12:25:00 0.0
2018_01_05_S20 01/04/2018 12:30:00 0.0236
2018_01_05_S20 01/04/2018 12:35:00 0.0
2018_01_05_S20 01/04/2018 12:40:00 0.0
2018_01_05_S20 01/04/2018 12:45:00 0.0016
2018_01_05_S20 01/04/2018 12:50:00 0.0
2018_01_05_S20 01/04/2018 12:55:00 0.0
2018_01_05_S20 01/04/2018 13:00:00 0.0
2018_01_05_S20 01/04/2018 13:05:00 0.0
2018_01_05_S20 01/04/2018 13:10:00 0.0
2018_01_05_S20 01/04/2018 13:15:00 0.0054
2018_01_05_S20 01/04/2018 13:20:00 0.0
2018_01_05_S20 01/04/2018 13:25:00 0.0
2018_01_05_S20 01/04/2018 13:30:00 0.0
2018_01_05_S20 01/04/2018 13:35:00 0.0
2018_01_05_S20 01/04/2018 13:40:00 0.0
2018_01_05_S20 01/04/2018 13:45:00 0.0
2018_01_05_S20 01/04/2018 13:50:00 0.0
2018_01_05_S20 01/04/2018 13:55:00 0.0
2018_01_05_S20 01/04/2018 14:00:00 0.0044
2018_01_05_S20 01/04/2018 14:05:00 0.0
2018_01_05_S20 01/04/2018 14:10:00 0.0
2018_01_05_S20 01/04/2018 14:15:00 0.0019
2018_01_05_S20 01/04/2018 14:20:00 0.0
2018_01_05_S20 01/04/2018 14:25:00 0.0073
2018_01_05_S20 01/04/2018 14:30:00 0.0042
2018_01_05_S20 01/04/2018 14:35:00 0.0098
2018_01_05_S20 01/04/2018 14:40:00 0.0086
2018_01_05_S20 01/04/2018 14:45:00 0.0
2018_01_05_S20 01/04/2018 14:50:00 0.0
2018_01_05_S20 01/04/2018 14:55:00 0.0
2018_01_05_S20 01/04/2018 15:00:00 0.0
2018_01_05_S20 01/04/2018 15:05:00 0.0
2018_01_05_S20 01/04/2018 15:10:00 0.0
2018_01_05_S20 01/04/2018 15:15:00 0.0
2018_01_05_S20 01/04/2018 15:20:00 0.0
2018_01_05_S20 01/04/2018 15:25:00 0.0
2018_01_05_S20 01/04/2018 15:30:00 0.0142
2018_01_05_S20 01/04/2018 15:35:00 0.7151
2018_01_05_S20 01/04/2018 15:40:00 0.0
2018_01_05_S20 01/04/2018 15:45:00 0.0
2018_01_05_S20 01/04/2018 15:50:00 0.0
2018_01_05_S20 01/04/2018 15:55:00 0.0414
2018_01_05_S20 01/04/2018 16:00:00 0.0528
2018_01_05_S20 01/04/2018 16:05:00 0.1498
2018_01_05_S20 01/04/2018 16:10:00 0.001
2018_01_05_S20 01/04/2018 16:15:00 0.0226
2018_01_05_S20 01/04/2018 16:20:00 0.3269
2018_01_05_S20 01/04/2018 16:25:00 0.0081
2018_01_05_S20 01/04/2018 16:30:00 0.0529
2018_01_05_S20 01/04/2018 16:35:00 0.0
2018_01_05_S20 01/04/2018 16:40:00 0.0
2018_01_05_S20 01/04/2018 16:45:00 0.0
2018_01_05_S20 01/04/2018 16:50:00 0.0
2018_01_05_S20 01/04/2018 16:55:00 0.0
2018_01_05_S20 01/04/2018 17:00:00 0.0
2018_01_05_S20 01/04/2018 17:05:00 0.0
2018_01_05_S20 01/04/2018 17:10:00 0.282
2018_01_05_S20 01/04/2018 17:15:00 0.0
2018_01_05_S20 01/04/2018 17:20:00 0.0
2018_01_05_S20 01/04/2018 17:25:00 0.0
2018_01_05_S20 01/04/2018 17:30:00 0.0107
2018_01_05_S20 01/04/2018 17:35:00 0.8082
2018_01_05_S20 01/04/2018 17:40:00 0.3219
2018_01_05_S20 01/04/2018 17:45:00 0.3564
2018_01_05_S20 01/04/2018 17:50:00 0.4928
2018_01_05_S20 01/04/2018 17:55:00 0.1488
2018_01_05_S20 01/04/2018 18:00:00 0.276
2018_01_05_S20 01/04/2018 18:05:00 0.3371
2018_01_05_S20 01/04/2018 18:10:00 0.1332
2018_01_05_S20 01/04/2018 18:15:00 0.1056
2018_01_05_S20 01/04/2018 18:20:00 0.0061
2018_01_05_S20 01/04/2018 18:25:00 0.0
2018_01_05_S20 01/04/2018 18:30:00 0.0
2018_01_05_S20 01/04/2018 18:35:00 0.0
2018_01_05_S20 01/04/2018 18:40:00 0.0
2018_01_05_S20 01/04/2018 18:45:00 0.0
2018_01_05_S20 01/04/2018 18:50:00 0.0
2018_01_05_S20 01/04/2018 18:55:00 0.0
2018_01_05_S20 01/04/2018 19:00:00 0.0
2018_01_05_S20 01/04/2018 19:05:00 0.0
2018_01_05_S20 01/04/2018 19:10:00 0.0
2018_01_05_S20 01/04/2018 19:15:00 0.0
2018_01_05_S20 01/04/2018 19:20:00 0.0
2018_01_05_S20 01/04/2018 19:25:00 0.0
2018_01_05_S20 01/04/2018 19:30:00 0.0
2018_01_05_S20 01/04/2018 19:35:00 0.0
2018_01_05_S20 01/04/2018 19:40:00 0.0
2018_01_05_S20 01/04/2018 19:45:00 0.0
2018_01_05_S20 01/04/2018 19:50:00 0.0
2018_01_05_S20 01/04/2018 19:55:00 0.0
2018_01_05_S20 01/04/2018 20:00:00 0.0
2018_01_05_S20 01/04/2018 20:05:00 0.0
2018_01_05_S20 01/04/2018 20:10:00 0.0
2018_01_05_S20 01/04/2018 20:15:00 0.0
2018_01_05_S20 01/04/2018 20:20:00 0.0
2018_01_05_S20 01/04/2018 20:25:00 0.0013
2018_01_05_S20 01/04/2018 20:30:00 0.0
2018_01_05_S20 01/04/2018 20:35:00 0.0
2018_01_05_S20 01/04/2018 20:40:00 0.0
2018_01_05_S20 01/04/2018 20:45:00 0.0
2018_01_05_S20 01/04/2018 20:50:00 0.0
2018_01_05_S20 01/04/2018 20:55:00 0.0
2018_01_05_S20 01/04/2018 21:00:00 0.0
2018_01_05_S20 01/04/2018 21:05:00 0.0
2018_01_05_S20 01/04/2018 21:10:00 0.0
2018_01_05_S20 01/04/2018 21:15:00 0.0
2018_01_05_S20 01/04/2018 21:20:00 0.0
2018_01_05_S20 01/04/2018 21:25:00 0.0092
2018_01_05_S20 01/04/2018 21:30:00 0.1869
2018_01_05_S20 01/04/2018 21:35:00 0.0049
2018_01_05_S20 01/04/2018 21:40:00 0.0474
2018_01_05_S20 01/04/2018 21:45:00 0.0008
2018_01_05_S20 01/04/2018 21:50:00 0.0
2018_01_05_S20 01/04/2018 21:55:00 0.0
2018_01_05_S20 01/04/2018 22:00:00 0.0
2018_01_05_S20 01/04/2018 22:05:00 0.0
2018_01_05_S20 01/04/2018 22:10:00 0.0
2018_01_05_S20 01/04/2018 22:15:00 0.0
2018_01_05_S20 01/04/2018 22:20:00 0.0
2018_01_05_S20 01/04/2018 22:25:00 0.0
2018_01_05_S20 01/04/2018 22:30:00 0.0
2018_01_05_S20 01/04/2018 22:35:00 0.0
2018_01_05_S20 01/04/2018 22:40:00 0.0
2018_01_05_S20 01/04/2018 22:45:00 0.0
2018_01_05_S20 01/04/2018 22:50:00 0.0
2018_01_05_S20 01/04/2018 22:55:00 0.0
2018_01_05_S20 01/04/2018 23:00:00 0.0
2018_01_05_S20 01/04/2018 23:05:00 0.0
2018_01_05_S20 01/04/2018 23:10:00 0.0
2018_01_05_S20 01/04/2018 23:15:00 0.0
2018_01_05_S20 01/04/2018 23:20:00 0.0
2018_01_05_S20 01/04/2018 23:25:00 0.0
2018_01_05_S20 01/04/2018 23:30:00 0.0
2018_01_05_S20 01/04/2018 23:35:00 0.0
2018_01_05_S20 01/04/2018 23:40:00 0.0
2018_01_05_S20 01/04/2018 23:45:00 0.0
2018_01_05_S20 01/04/2018 23:50:00 0.0
2018_01_05_S20 01/04/2018 23:55:00 0.0
2018_01_05_S20 01/05/2018 00:00:00 0.0
2018_01_05_S20 01/05/2018 00:05:00 0.0
2018_01_05_S20 01/05/2018 00:10:00 0.0
2018_01_05_S20 01/05/2018 00:15:00 0.0
2018_01_05_S20 01/05/2018 00:20:00 0.0
2018_01_05_S20 01/05/2018 00:25:00 0.0
2018_01_05_S20 01/05/2018 00:30:00 0.0
2018_01_05_S20 01/05/2018 00:35:00 0.0
2018_01_05_S20 01/05/2018 00:40:00 0.0
2018_01_05_S20 01/05/2018 00:45:00 0.0
2018_01_05_S20 01/05/2018 00:50:00 0.1141
2018_01_05_S20 01/05/2018 00:55:00 0.2628
2018_01_05_S20 01/05/2018 01:00:00 0.0
2018_01_05_S20 01/05/2018 01:05:00 0.2088
2018_01_05_S20 01/05/2018 01:10:00 0.0449
2018_01_05_S20 01/05/2018 01:15:00 0.0122
2018_01_05_S20 01/05/2018 01:20:00 0.0905
2018_01_05_S20 01/05/2018 01:25:00 0.1153
2018_01_05_S20 01/05/2018 01:30:00 0.0076
2018_01_05_S20 01/05/2018 01:35:00 0.0762
2018_01_05_S20 01/05/2018 01:40:00 0.0
2018_01_05_S20 01/05/2018 01:45:00 0.0498
2018_01_05_S20 01/05/2018 01:50:00 0.0434
2018_01_05_S20 01/05/2018 01:55:00 0.0099
2018_01_05_S20 01/05/2018 02:00:00 0.009
2018_01_05_S20 01/05/2018 02:05:00 0.0177
2018_01_05_S20 01/05/2018 02:10:00 0.0061
2018_01_05_S20 01/05/2018 02:15:00 0.0271
2018_01_05_S20 01/05/2018 02:20:00 0.005
2018_01_05_S20 01/05/2018 02:25:00 0.0
2018_01_05_S20 01/05/2018 02:30:00 0.0
2018_01_05_S20 01/05/2018 02:35:00 0.0
2018_01_05_S20 01/05/2018 02:40:00 0.0
2018_01_05_S20 01/05/2018 02:45:00 0.0
2018_01_05_S20 01/05/2018 02:50:00 0.0
2018_01_05_S20 01/05/2018 02:55:00 0.0
2018_01_05_S20 01/05/2018 03:00:00 0.0
2018_01_05_S20 01/05/2018 03:05:00 0.3003
2018_01_05_S20 01/05/2018 03:10:00 0.5365
2018_01_05_S20 01/05/2018 03:15:00 0.3931
2018_01_05_S20 01/05/2018 03:20:00 1.0326
2018_01_05_S20 01/05/2018 03:25:00 0.4
2018_01_05_S20 01/05/2018 03:30:00 0.6213
2018_01_05_S20 01/05/2018 03:35:00 0.0867
2018_01_05_S20 01/05/2018 03:40:00 0.0
2018_01_05_S20 01/05/2018 03:45:00 0.0084
2018_01_05_S20 01/05/2018 03:50:00 0.0621
2018_01_05_S20 01/05/2018 03:55:00 0.0185
2018_01_05_S20 01/05/2018 04:00:00 0.0739
2018_01_05_S20 01/05/2018 04:05:00 0.0
2018_01_05_S20 01/05/2018 04:10:00 0.0041
2018_01_05_S20 01/05/2018 04:15:00 0.0027
2018_01_05_S20 01/05/2018 04:20:00 0.0141
2018_01_05_S20 01/05/2018 04:25:00 0.1355
2018_01_05_S20 01/05/2018 04:30:00 0.0444
2018_01_05_S20 01/05/2018 04:35:00 0.0139
2018_01_05_S20 01/05/2018 04:40:00 0.0167
2018_01_05_S20 01/05/2018 04:45:00 0.2624
2018_01_05_S20 01/05/2018 04:50:00 0.0259
2018_01_05_S20 01/05/2018 04:55:00 0.0
2018_01_05_S20 01/05/2018 05:00:00 0.0919
2018_01_05_S20 01/05/2018 05:05:00 0.0052
2018_01_05_S20 01/05/2018 05:10:00 0.0
2018_01_05_S20 01/05/2018 05:15:00 0.0
2018_01_05_S20 01/05/2018 05:20:00 0.0208
2018_01_05_S20 01/05/2018 05:25:00 0.0
2018_01_05_S20 01/05/2018 05:30:00 0.0043
2018_01_05_S20 01/05/2018 05:35:00 0.0
2018_01_05_S20 01/05/2018 05:40:00 0.0
2018_01_05_S20 01/05/2018 05:45:00 0.0029
2018_01_05_S20 01/05/2018 05:50:00 0.0
2018_01_05_S20 01/05/2018 05:55:00 0.0143
2018_01_05_S20 01/05/2018 06:00:00 0.2217
2018_01_05_S20 01/05/2018 06:05:00 0.2767
2018_01_05_S20 01/05/2018 06:10:00 0.0089
2018_01_05_S20 01/05/2018 06:15:00 0.0177
2018_01_05_S20 01/05/2018 06:20:00 2.507
2018_01_05_S20 01/05/2018 06:25:00 2.1536
2018_01_05_S20 01/05/2018 06:30:00 1.4333
2018_01_05_S20 01/05/2018 06:35:00 1.319
2018_01_05_S20 01/05/2018 06:40:00 0.3998
2018_01_05_S20 01/05/2018 06:45:00 0.6107
2018_01_05_S20 01/05/2018 06:50:00 1.2865
2018_01_05_S20 01/05/2018 06:55:00 0.2759
2018_01_05_S20 01/05/2018 07:00:00 0.406
2018_01_05_S20 01/05/2018 07:05:00 0.1878
2018_01_05_S20 01/05/2018 07:10:00 0.0797
2018_01_05_S20 01/05/2018 07:15:00 0.0
2018_01_05_S20 01/05/2018 07:20:00 0.0
2018_01_05_S20 01/05/2018 07:25:00 0.0
2018_01_05_S20 01/05/2018 07:30:00 0.0
2018_01_05_S20 01/05/2018 07:35:00 0.0
2018_01_05_S20 01/05/2018 07:40:00 0.0
2018_01_05_S20 01/05/2018 07:45:00 0.0
2018_01_05_S20 01/05/2018 07:50:00 0.0
2018_01_05_S20 01/05/2018 07:55:00 0.0
2018_01_05_S20 01/05/2018 08:00:00 0.0073
2018_01_05_S20 01/05/2018 08:05:00 0.0
2018_01_05_S20 01/05/2018 08:10:00 0.0
2018_01_05_S20 01/05/2018 08:15:00 0.0295
2018_01_05_S20 01/05/2018 08:20:00 0.0
2018_01_05_S20 01/05/2018 08:25:00 0.0033
2018_01_05_S20 01/05/2018 08:30:00 0.0759
2018_01_05_S20 01/05/2018 08:35:00 0.3965
2018_01_05_S20 01/05/2018 08:40:00 0.6226
2018_01_05_S20 01/05/2018 08:45:00 1.429
2018_01_05_S20 01/05/2018 08:50:00 0.8169
2018_01_05_S20 01/05/2018 08:55:00 2.1439
2018_01_05_S20 01/05/2018 09:00:00 0.6816
2018_01_05_S20 01/05/2018 09:05:00 0.6528
2018_01_05_S20 01/05/2018 09:10:00 0.8599
2018_01_05_S20 01/05/2018 09:15:00 0.1391
2018_01_05_S20 01/05/2018 09:20:00 0.0114
2018_01_05_S20 01/05/2018 09:25:00 0.0
2018_01_05_S20 01/05/2018 09:30:00 0.0
2018_01_05_S20 01/05/2018 09:35:00 0.0302
2018_01_05_S20 01/05/2018 09:40:00 2.7077
2018_01_05_S20 01/05/2018 09:45:00 0.2566
2018_01_05_S20 01/05/2018 09:50:00 0.6807
2018_01_05_S20 01/05/2018 09:55:00 6.4372
2018_01_05_S20 01/05/2018 10:00:00 0.0568
2018_01_05_S20 01/05/2018 10:05:00 0.5203
2018_01_05_S20 01/05/2018 10:10:00 0.0
2018_01_05_S20 01/05/2018 10:15:00 0.0017
2018_01_05_S20 01/05/2018 10:20:00 0.0
2018_01_05_S20 01/05/2018 10:25:00 0.0429
2018_01_05_S20 01/05/2018 10:30:00 0.9436
2018_01_05_S20 01/05/2018 10:35:00 0.0183
2018_01_05_S20 01/05/2018 10:40:00 0.2364
2018_01_05_S20 01/05/2018 10:45:00 0.9572
2018_01_05_S20 01/05/2018 10:50:00 0.0711
2018_01_05_S20 01/05/2018 10:55:00 0.0
2018_01_05_S20 01/05/2018 11:00:00 0.0275
2018_01_05_S20 01/05/2018 11:05:00 0.1313
2018_01_05_S20 01/05/2018 11:10:00 0.1511
2018_01_05_S20 01/05/2018 11:15:00 0.4814
2018_01_05_S20 01/05/2018 11:20:00 0.1248
2018_01_05_S20 01/05/2018 11:25:00 0.1037
2018_01_05_S20 01/05/2018 11:30:00 0.1426
2018_01_05_S20 01/05/2018 11:35:00 0.1916
2018_01_05_S20 01/05/2018 11:40:00 0.2027
2018_01_05_S20 01/05/2018 11:45:00 0.0283
2018_01_05_S20 01/05/2018 11:50:00 0.0
2018_01_05_S20 01/05/2018 11:55:00 0.0
2018_01_05_S20 01/05/2018 12:00:00 0.0835
2018_01_05_S20 01/05/2018 12:05:00 0.2938
2018_01_05_S20 01/05/2018 12:10:00 0.6659
2018_01_05_S20 01/05/2018 12:15:00 1.1616
2018_01_05_S20 01/05/2018 12:20:00 0.3388
2018_01_05_S20 01/05/2018 12:25:00 0.2822
2018_01_05_S20 01/05/2018 12:30:00 1.891
2018_01_05_S20 01/05/2018 12:35:00 0.5374
2018_01_05_S20 01/05/2018 12:40:00 0.9304
2018_01_05_S20 01/05/2018 12:45:00 4.3343
2018_01_05_S20 01/05/2018 12:50:00 0.1128
2018_01_05_S20 01/05/2018 12:55:00 0.0723
2018_01_05_S20 01/05/2018 13:00:00 0.0529
2018_01_05_S20 01/05/2018 13:05:00 0.1745
2018_01_05_S20 01/05/2018 13:10:00 0.0
2018_01_05_S20 01/05/2018 13:15:00 0.0
2018_01_05_S20 01/05/2018 13:20:00 0.0
2018_01_05_S20 01/05/2018 13:25:00 0.0098
2018_01_05_S20 01/05/2018 13:30:00 0.0182
2018_01_05_S20 01/05/2018 13:35:00 0.004
2018_01_05_S20 01/05/2018 13:40:00 0.0161
2018_01_05_S20 01/05/2018 13:45:00 0.3299
2018_01_05_S20 01/05/2018 13:50:00 0.3507
2018_01_05_S20 01/05/2018 13:55:00 2.1277
2018_01_05_S20 01/05/2018 14:00:00 0.575
2018_01_05_S20 01/05/2018 14:05:00 0.5105
2018_01_05_S20 01/05/2018 14:10:00 0.315
2018_01_05_S20 01/05/2018 14:15:00 0.9821
2018_01_05_S20 01/05/2018 14:20:00 0.0
2018_01_05_S20 01/05/2018 14:25:00 0.0
2018_01_05_S20 01/05/2018 14:30:00 0.0
2018_01_05_S20 01/05/2018 14:35:00 0.0441
2018_01_05_S20 01/05/2018 14:40:00 0.0835
2018_01_05_S20 01/05/2018 14:45:00 0.2276
2018_01_05_S20 01/05/2018 14:50:00 0.0108
2018_01_05_S20 01/05/2018 14:55:00 0.0
2018_01_05_S20 01/05/2018 15:00:00 0.0
2018_01_05_S20 01/05/2018 15:05:00 0.0
2018_01_05_S20 01/05/2018 15:10:00 0.0142
2018_01_05_S20 01/05/2018 15:15:00 0.1788
2018_01_05_S20 01/05/2018 15:20:00 0.7593
2018_01_05_S20 01/05/2018 15:25:00 0.0
2018_01_05_S20 01/05/2018 15:30:00 0.0
2018_01_05_S20 01/05/2018 15:35:00 0.0468
2018_01_05_S20 01/05/2018 15:40:00 0.0958
2018_01_05_S20 01/05/2018 15:45:00 0.0
2018_01_05_S20 01/05/2018 15:50:00 0.0
2018_01_05_S20 01/05/2018 15:55:00 0.0
2018_01_05_S20 01/05/2018 16:00:00 0.0
2018_01_05_S20 01/05/2018 16:05:00 0.0
2018_01_05_S20 01/05/2018 16:10:00 0.0
2018_01_05_S20 01/05/2018 16:15:00 0.0
2018_01_05_S20 01/05/2018 16:20:00 0.0
2018_01_05_S20 01/05/2018 16:25:00 0.0
2018_01_05_S20 01/05/2018 16:30:00 0.0
2018_01_05_S20 01/05/2018 16:35:00 0.0
2018_01_05_S20 01/05/2018 16:40:00 0.0
2018_01_05_S20 01/05/2018 16:45:00 0.0
2018_01_05_S20 01/05/2018 16:50:00 0.0
2018_01_05_S20 01/05/2018 16:55:00 0.0
2018_01_05_S20 01/05/2018 17:00:00 0.0
2018_01_05_S20 01/05/2018 17:05:00 0.0
2018_01_05_S20 01/05/2018 17:10:00 0.0
2018_01_05_S20 01/05/2018 17:15:00 0.0
2018_01_05_S20 01/05/2018 17:20:00 0.0
2018_01_05_S20 01/05/2018 17:25:00 0.0
2018_01_05_S20 01/05/2018 17:30:00 0.0
2018_01_05_S20 01/05/2018 17:35:00 0.0
2018_01_05_S20 01/05/2018 17:40:00 0.0
2018_01_05_S20 01/05/2018 17:45:00 0.0
2018_01_05_S20 01/05/2018 17:50:00 0.0
2018_01_05_S20 01/05/2018 17:55:00 0.0258
2018_01_05_S20 01/05/2018 18:00:00 0.0137
2018_01_05_S20 01/05/2018 18:05:00 0.0
2018_01_05_S20 01/05/2018 18:10:00 0.0
2018_01_05_S20 01/05/2018 18:15:00 0.0049
2018_01_05_S20 01/05/2018 18:20:00 0.0309
2018_01_05_S20 01/05/2018 18:25:00 0.0
2018_01_05_S20 01/05/2018 18:30:00 0.0
2018_01_05_S20 01/05/2018 18:35:00 0.0
2018_01_05_S20 01/05/2018 18:40:00 0.0
2018_01_05_S20 01/05/2018 18:45:00 0.0
2018_01_05_S20 01/05/2018 18:50:00 0.0
2018_01_05_S20 01/05/2018 18:55:00 0.0
2018_01_05_S20 01/05/2018 19:00:00 0.0
2018_01_05_S20 01/05/2018 19:05:00 0.0
2018_01_05_S20 01/05/2018 19:10:00 0.0
2018_01_05_S20 01/05/2018 19:15:00 0.0
2018_01_05_S20 01/05/2018 19:20:00 0.0
2018_01_05_S20 01/05/2018 19:25:00 0.0
2018_01_05_S20 01/05/2018 19:30:00 0.0
2018_01_05_S20 01/05/2018 19:35:00 0.0017
2018_01_05_S20 01/05/2018 19:40:00 0.0
2018_01_05_S20 01/05/2018 19:45:00 0.0134
2018_01_05_S20 01/05/2018 19:50:00 0.0714
2018_01_05_S20 01/05/2018 19:55:00 0.0084
2018_01_05_S20 01/05/2018 20:00:00 0.0077
2018_01_05_S20 01/05/2018 20:05:00 0.0
2018_01_05_S20 01/05/2018 20:10:00 0.0
2018_01_05_S20 01/05/2018 20:15:00 0.0
2018_01_05_S20 01/05/2018 20:20:00 0.0
2018_01_05_S20 01/05/2018 20:25:00 0.0
2018_01_05_S20 01/05/2018 20:30:00 0.0
2018_01_05_S20 01/05/2018 20:35:00 0.0
2018_01_05_S20 01/05/2018 20:40:00 0.0
2018_01_05_S20 01/05/2018 20:45:00 0.0
2018_01_05_S20 01/05/2018 20:50:00 0.0358
2018_01_05_S20 01/05/2018 20:55:00 0.0
2018_01_05_S20 01/05/2018 21:00:00 0.0
2018_01_05_S20 01/05/2018 21:05:00 0.0
2018_01_05_S20 01/05/2018 21:10:00 0.0
2018_01_05_S20 01/05/2018 21:15:00 0.0
2018_01_05_S20 01/05/2018 21:20:00 0.0
2018_01_05_S20 01/05/2018 21:25:00 0.0
2018_01_05_S20 01/05/2018 21:30:00 0.0
2018_01_05_S20 01/05/2018 21:35:00 0.0
2018_01_05_S20 01/05/2018 21:40:00 0.0
2018_01_05_S20 01/05/2018 21:45:00 0.0
2018_01_05_S20 01/05/2018 21:50:00 0.0
2018_01_05_S20 01/05/2018 21:55:00 0.0
2018_01_05_S20 01/05/2018 22:00:00 0.0
2018_01_05_S20 01/05/2018 22:05:00 0.0
2018_01_05_S20 01/05/2018 22:10:00 0.0
2018_01_05_S20 01/05/2018 22:15:00 0.0
2018_01_05_S20 01/05/2018 22:20:00 0.0
2018_01_05_S20 01/05/2018 22:25:00 0.0273
2018_01_05_S20 01/05/2018 22:30:00 0.0046
2018_01_05_S20 01/05/2018 22:35:00 0.0048
2018_01_05_S20 01/05/2018 22:40:00 0.011
2018_01_05_S20 01/05/2018 22:45:00 0.0
2018_01_05_S20 01/05/2018 22:50:00 0.0
2018_01_05_S20 01/05/2018 22:55:00 0.0
2018_01_05_S20 01/05/2018 23:00:00 0.0
2018_01_05_S20 01/05/2018 23:05:00 0.0
2018_01_05_S20 01/05/2018 23:10:00 0.0
2018_01_05_S20 01/05/2018 23:15:00 0.0
2018_01_05_S20 01/05/2018 23:20:00 0.0
2018_01_05_S20 01/05/2018 23:25:00 0.0
2018_01_05_S20 01/05/2018 23:30:00 0.0
2018_01_05_S20 01/05/2018 23:35:00 0.0
2018_01_05_S20 01/05/2018 23:40:00 0.0
2018_01_05_S20 01/05/2018 23:45:00 0.07
2018_01_05_S20 01/05/2018 23:50:00 0.0265
2018_01_05_S20 01/05/2018 23:55:00 0.0091
2018_01_05_S20 01/06/2018 00:00:00 0.0062
2018_01_05_S20 01/06/2018 00:05:00 0.2184
2018_01_05_S20 01/06/2018 00:10:00 0.0034
2018_01_05_S20 01/06/2018 00:15:00 0.6594
2018_01_05_S20 01/06/2018 00:20:00 0.0021
2018_01_05_S20 01/06/2018 00:25:00 0.0
2018_01_05_S20 01/06/2018 00:30:00 0.0
2018_01_05_S20 01/06/2018 00:35:00 0.0
2018_01_05_S20 01/06/2018 00:40:00 0.0
2018_01_05_S20 01/06/2018 00:45:00 0.0
2018_01_05_S20 01/06/2018 00:50:00 0.0
2018_01_05_S20 01/06/2018 00:55:00 0.0
2018_01_05_S20 01/06/2018 01:00:00 0.0
2018_01_05_S20 01/06/2018 01:05:00 0.0028
2018_01_05_S20 01/06/2018 01:10:00 0.0133
2018_01_05_S20 01/06/2018 01:15:00 0.0
2018_01_05_S20 01/06/2018 01:20:00 0.0
2018_01_05_S20 01/06/2018 01:25:00 0.0
2018_01_05_S20 01/06/2018 01:30:00 0.0
2018_01_05_S20 01/06/2018 01:35:00 0.0
2018_01_05_S20 01/06/2018 01:40:00 0.0
2018_01_05_S20 01/06/2018 01:45:00 0.0
2018_01_05_S20 01/06/2018 01:50:00 0.0
2018_01_05_S20 01/06/2018 01:55:00 0.0
2018_01_05_S20 01/06/2018 02:00:00 0.0
2018_01_05_S20 01/06/2018 02:05:00 0.0
2018_01_05_S20 01/06/2018 02:10:00 0.0
2018_01_05_S20 01/06/2018 02:15:00 0.0
2018_01_05_S20 01/06/2018 02:20:00 0.0
2018_01_05_S20 01/06/2018 02:25:00 0.0
2018_01_05_S20 01/06/2018 02:30:00 0.0
2018_01_05_S20 01/06/2018 02:35:00 0.0
2018_01_05_S20 01/06/2018 02:40:00 0.0
2018_01_05_S20 01/06/2018 02:45:00 0.0312
2018_01_05_S20 01/06/2018 02:50:00 0.0
2018_01_05_S20 01/06/2018 02:55:00 0.0
2018_01_05_S20 01/06/2018 03:00:00 0.0
2018_01_05_S20 01/06/2018 03:05:00 0.0
2018_01_05_S20 01/06/2018 03:10:00 0.0
2018_01_05_S20 01/06/2018 03:15:00 0.0
2018_01_05_S20 01/06/2018 03:20:00 0.0
2018_01_05_S20 01/06/2018 03:25:00 0.0011
2018_01_05_S20 01/06/2018 03:30:00 0.0
2018_01_05_S20 01/06/2018 03:35:00 0.0
2018_01_05_S20 01/06/2018 03:40:00 0.0263
2018_01_05_S20 01/06/2018 03:45:00 0.0066
2018_01_05_S20 01/06/2018 03:50:00 0.0
2018_01_05_S20 01/06/2018 03:55:00 0.0
2018_01_05_S20 01/06/2018 04:00:00 0.0
2018_01_05_S20 01/06/2018 04:05:00 0.0
2018_01_05_S20 01/06/2018 04:10:00 0.0
2018_01_05_S20 01/06/2018 04:15:00 0.0
2018_01_05_S20 01/06/2018 04:20:00 0.0032
2018_01_05_S20 01/06/2018 04:25:00 0.0
2018_01_05_S20 01/06/2018 04:30:00 0.0
2018_01_05_S20 01/06/2018 04:35:00 0.0
2018_01_05_S20 01/06/2018 04:40:00 0.0
2018_01_05_S20 01/06/2018 04:45:00 0.0
2018_01_05_S20 01/06/2018 04:50:00 0.0
2018_01_05_S20 01/06/2018 04:55:00 0.0
2018_01_05_S20 01/06/2018 05:00:00 0.0
2018_01_05_S20 01/06/2018 05:05:00 0.0
2018_01_05_S20 01/06/2018 05:10:00 0.0
2018_01_05_S20 01/06/2018 05:15:00 0.0
2018_01_05_S20 01/06/2018 05:20:00 0.0
2018_01_05_S20 01/06/2018 05:25:00 0.0
2018_01_05_S20 01/06/2018 05:30:00 0.0164
2018_01_05_S20 01/06/2018 05:35:00 0.6372
2018_01_05_S20 01/06/2018 05:40:00 0.0031
2018_01_05_S20 01/06/2018 05:45:00 0.0
2018_01_05_S20 01/06/2018 05:50:00 0.0
2018_01_05_S20 01/06/2018 05:55:00 0.0021
2018_01_05_S20 01/06/2018 06:00:00 0.0
2018_01_05_S20 01/06/2018 06:05:00 0.0033
2018_01_05_S20 01/06/2018 06:10:00 0.0417
2018_01_05_S20 01/06/2018 06:15:00 0.0067
2018_01_05_S20 01/06/2018 06:20:00 0.0095
2018_01_05_S20 01/06/2018 06:25:00 0.0076
2018_01_05_S20 01/06/2018 06:30:00 0.0
2018_01_05_S20 01/06/2018 06:35:00 0.0
2018_01_05_S20 01/06/2018 06:40:00 0.0
2018_01_05_S20 01/06/2018 06:45:00 0.0052
2018_01_05_S20 01/06/2018 06:50:00 0.0229
2018_01_05_S20 01/06/2018 06:55:00 0.0288
2018_01_05_S20 01/06/2018 07:00:00 0.0255
2018_01_05_S20 01/06/2018 07:05:00 0.0176
2018_01_05_S20 01/06/2018 07:10:00 0.0054
2018_01_05_S20 01/06/2018 07:15:00 0.0
2018_01_05_S20 01/06/2018 07:20:00 0.0
2018_01_05_S20 01/06/2018 07:25:00 0.0
2018_01_05_S20 01/06/2018 07:30:00 0.0
2018_01_05_S20 01/06/2018 07:35:00 0.0
2018_01_05_S20 01/06/2018 07:40:00 0.004
2018_01_05_S20 01/06/2018 07:45:00 0.0483
2018_01_05_S20 01/06/2018 07:50:00 0.094
2018_01_05_S20 01/06/2018 07:55:00 0.0203
2018_01_05_S20 01/06/2018 08:00:00 0.0

2018_01_05_S21 01/04/2018 10:25:00 0.1996
2018_01_05_S21 01/04/2018 10:30:00 0.0637
2018_01_05_S21 01/04/2018 10:35:00 0.0001
2018_01_05_S21 01/04/2018 10:40:00 0.0061
2018_01_05_S21 01/04/2018 10:45:00 0.1535
2018_01_05_S21 01/04/2018 10:50:00 1.3688
2018_01_05_S21 01/04/2018 10:55:00 0.0
2018_01_05_S21 01/04/2018 11:00:00 0.0
2018_01_05_S21 01/04/2018 11:05:00 1.3096
2018_01_05_S21 01/04/2018 11:10:00 0.0261
2018_01_05_S21 01/04/2018 11:15:00 2.7304
2018_01_05_S21 01/04/2018 11:20:00 0.1094
2018_01_05_S21 01/04/2018 11:25:00 0.2669
2018_01_05_S21 01/04/2018 11:30:00 0.0355
2018_01_05_S21 01/04/2018 11:35:00 0.0
2018_01_05_S21 01/04/2018 11:40:00 0.0
2018_01_05_S21 01/04/2018 11:45:00 0.0
2018_01_05_S21 01/04/2018 11:50:00 0.0
2018_01_05_S21 01/04/2018 11:55:00 0.0
2018_01_05_S21 01/04/2018 12:00:00 0.0
2018_01_05_S21 01/04/2018 12:05:00 0.0
2018_01_05_S21 01/04/2018 12:10:00 0.0
2018_01_05_S21 01/04/2018 12:15:00 0.0
2018_01_05_S21 01/04/2018 12:20:00 0.0
2018_01_05_S21 01/04/2018 12:25:00 0.0
2018_01_05_S21 01/04/2018 12:30:00 0.0972
2018_01_05_S21 01/04/2018 12:35:00 0.0
2018_01_05_S21 01/04/2018 12:40:00 0.0
2018_01_05_S21 01/04/2018 12:45:00 0.0019
2018_01_05_S21 01/04/2018 12:50:00 0.0
2018_01_05_S21 01/04/2018 12:55:00 0.0
2018_01_05_S21 01/04/2018 13:00:00 0.0
2018_01_05_S21 01/04/2018 13:05:00 0.0
2018_01_05_S21 01/04/2018 13:10:00 0.0
2018_01_05_S21 01/04/2018 13:15:00 0.0
2018_01_05_S21 01/04/2018 13:20:00 0.0
2018_01_05_S21 01/04/2018 13:25:00 0.0
2018_01_05_S21 01/04/2018 13:30:00 0.0
2018_01_05_S21 01/04/2018 13:35:00 0.0
2018_01_05_S21 01/04/2018 13:40:00 0.0
2018_01_05_S21 01/04/2018 13:45:00 0.0
2018_01_05_S21 01/04/2018 13:50:00 0.0
2018_01_05_S21 01/04/2018 13:55:00 0.0
2018_01_05_S21 01/04/2018 14:00:00 0.0057
2018_01_05_S21 01/04/2018 14:05:00 0.0
2018_01_05_S21 01/04/2018 14:10:00 0.0
2018_01_05_S21 01/04/2018 14:15:00 0.0053
2018_01_05_S21 01/04/2018 14:20:00 0.0
2018_01_05_S21 01/04/2018 14:25:00 0.0114
2018_01_05_S21 01/04/2018 14:30:00 0.0048
2018_01_05_S21 01/04/2018 14:35:00 0.0116
2018_01_05_S21 01/04/2018 14:40:00 0.0388
2018_01_05_S21 01/04/2018 14:45:00 0.0
2018_01_05_S21 01/04/2018 14:50:00 0.0
2018_01_05_S21 01/04/2018 14:55:00 0.0
2018_01_05_S21 01/04/2018 15:00:00 0.0
2018_01_05_S21 01/04/2018 15:05:00 0.0
2018_01_05_S21 01/04/2018 15:10:00 0.0
2018_01_05_S21 01/04/2018 15:15:00 0.0
2018_01_05_S21 01/04/2018 15:20:00 0.0
2018_01_05_S21 01/04/2018 15:25:00 0.0
2018_01_05_S21 01/04/2018 15:30:00 0.0088
2018_01_05_S21 01/04/2018 15:35:00 1.6065
2018_01_05_S21 01/04/2018 15:40:00 0.0
2018_01_05_S21 01/04/2018 15:45:00 0.0
2018_01_05_S21 01/04/2018 15:50:00 0.0
2018_01_05_S21 01/04/2018 15:55:00 0.0186
2018_01_05_S21 01/04/2018 16:00:00 0.0329
2018_01_05_S21 01/04/2018 16:05:00 0.1167
2018_01_05_S21 01/04/2018 16:10:00 0.0063
2018_01_05_S21 01/04/2018 16:15:00 0.0163
2018_01_05_S21 01/04/2018 16:20:00 0.334
2018_01_05_S21 01/04/2018 16:25:00 0.023
2018_01_05_S21 01/04/2018 16:30:00 0.0005
2018_01_05_S21 01/04/2018 16:35:00 0.0
2018_01_05_S21 01/04/2018 16:40:00 0.0
2018_01_05_S21 01/04/2018 16:45:00 0.0
2018_01_05_S21 01/04/2018 16:50:00 0.0
2018_01_05_S21 01/04/2018 16:55:00 0.0
2018_01_05_S21 01/04/2018 17:00:00 0.0
2018_01_05_S21 01/04/2018 17:05:00 0.0
2018_01_05_S21 01/04/2018 17:10:00 0.1901
2018_01_05_S21 01/04/2018 17:15:00 0.005
2018_01_05_S21 01/04/2018 17:20:00 0.0
2018_01_05_S21 01/04/2018 17:25:00 0.0
2018_01_05_S21 01/04/2018 17:30:00 0.0255
2018_01_05_S21 01/04/2018 17:35:00 1.1858
2018_01_05_S21 01/04/2018 17:40:00 0.2385
2018_01_05_S21 01/04/2018 17:45:00 0.3585
2018_01_05_S21 01/04/2018 17:50:00 0.3231
2018_01_05_S21 01/04/2018 17:55:00 0.184
2018_01_05_S21 01/04/2018 18:00:00 0.2116
2018_01_05_S21 01/04/2018 18:05:00 0.2831
2018_01_05_S21 01/04/2018 18:10:00 0.1291
2018_01_05_S21 01/04/2018 18:15:00 0.1028
2018_01_05_S21 01/04/2018 18:20:00 0.0153
2018_01_05_S21 01/04/2018 18:25:00 0.0
2018_01_05_S21 01/04/2018 18:30:00 0.0
2018_01_05_S21 01/04/2018 18:35:00 0.0
2018_01_05_S21 01/04/2018 18:40:00 0.0
2018_01_05_S21 01/04/2018 18:45:00 0.0
2018_01_05_S21 01/04/2018 18:50:00 0.0
2018_01_05_S21 01/04/2018 18:55:00 0.0
2018_01_05_S21 01/04/2018 19:00:00 0.0
2018_01_05_S21 01/04/2018 19:05:00 0.0
2018_01_05_S21 01/04/2018 19:10:00 0.0
2018_01_05_S21 01/04/2018 19:15:00 0.0
2018_01_05_S21 01/04/2018 19:20:00 0.0
2018_01_05_S21 01/04/2018 19:25:00 0.0
2018_01_05_S21 01/04/2018 19:30:00 0.0
2018_01_05_S21 01/04/2018 19:35:00 0.0
2018_01_05_S21 01/04/2018 19:40:00 0.0
2018_01_05_S21 01/04/2018 19:45:00 0.0
2018_01_05_S21 01/04/2018 19:50:00 0.0
2018_01_05_S21 01/04/2018 19:55:00 0.0
2018_01_05_S21 01/04/2018 20:00:00 0.0
2018_01_05_S21 01/04/2018 20:05:00 0.0
2018_01_05_S21 01/04/2018 20:10:00 0.0
2018_01_05_S21 01/04/2018 20:15:00 0.0
2018_01_05_S21 01/04/2018 20:20:00 0.0
2018_01_05_S21 01/04/2018 20:25:00 0.0005
2018_01_05_S21 01/04/2018 20:30:00 0.001
2018_01_05_S21 01/04/2018 20:35:00 0.0007
2018_01_05_S21 01/04/2018 20:40:00 0.0
2018_01_05_S21 01/04/2018 20:45:00 0.0
2018_01_05_S21 01/04/2018 20:50:00 0.0
2018_01_05_S21 01/04/2018 20:55:00 0.0
2018_01_05_S21 01/04/2018 21:00:00 0.0
2018_01_05_S21 01/04/2018 21:05:00 0.0
2018_01_05_S21 01/04/2018 21:10:00 0.0
2018_01_05_S21 01/04/2018 21:15:00 0.0
2018_01_05_S21 01/04/2018 21:20:00 0.0
2018_01_05_S21 01/04/2018 21:25:00 0.006
2018_01_05_S21 01/04/2018 21:30:00 0.0161
2018_01_05_S21 01/04/2018 21:35:00 0.0171
2018_01_05_S21 01/04/2018 21:40:00 0.0742
2018_01_05_S21 01/04/2018 21:45:00 0.0047
2018_01_05_S21 01/04/2018 21:50:00 0.0
2018_01_05_S21 01/04/2018 21:55:00 0.0
2018_01_05_S21 01/04/2018 22:00:00 0.0
2018_01_05_S21 01/04/2018 22:05:00 0.0
2018_01_05_S21 01/04/2018 22:10:00 0.0
2018_01_05_S21 01/04/2018 22:15:00 0.0
2018_01_05_S21 01/04/2018 22:20:00 0.0
2018_01_05_S21 01/04/2018 22:25:00 0.0
2018_01_05_S21 01/04/2018 22:30:00 0.0
2018_01_05_S21 01/04/2018 22:35:00 0.0
2018_01_05_S21 01/04/2018 22:40:00 0.0
2018_01_05_S21 01/04/2018 22:45:00 0.0
2018_01_05_S21 01/04/2018 22:50:00 0.0
2018_01_05_S21 01/04/2018 22:55:00 0.0
2018_01_05_S21 01/04/2018 23:00:00 0.0
2018_01_05_S21 01/04/2018 23:05:00 0.0
2018_01_05_S21 01/04/2018 23:10:00 0.0
2018_01_05_S21 01/04/2018 23:15:00 0.0
2018_01_05_S21 01/04/2018 23:20:00 0.0
2018_01_05_S21 01/04/2018 23:25:00 0.0
2018_01_05_S21 01/04/2018 23:30:00 0.0
2018_01_05_S21 01/04/2018 23:35:00 0.0
2018_01_05_S21 01/04/2018 23:40:00 0.0
2018_01_05_S21 01/04/2018 23:45:00 0.0
2018_01_05_S21 01/04/2018 23:50:00 0.0
2018_01_05_S21 01/04/2018 23:55:00 0.0
2018_01_05_S21 01/05/2018 00:00:00 0.0
2018_01_05_S21 01/05/2018 00:05:00 0.0
2018_01_05_S21 01/05/2018 00:10:00 0.0
2018_01_05_S21 01/05/2018 00:15:00 0.0
2018_01_05_S21 01/05/2018 00:20:00 0.0
2018_01_05_S21 01/05/2018 00:25:00 0.0
2018_01_05_S21 01/05/2018 00:30:00 0.0
2018_01_05_S21 01/05/2018 00:35:00 0.0
2018_01_05_S21 01/05/2018 00:40:00 0.0
2018_01_05_S21 01/05/2018 00:45:00 0.0
2018_01_05_S21 01/05/2018 00:50:00 0.0565
2018_01_05_S21 01/05/2018 00:55:00 0.1023
2018_01_05_S21 01/05/2018 01:00:00 0.0063
2018_01_05_S21 01/05/2018 01:05:00 0.1372
2018_01_05_S21 01/05/2018 01:10:00 0.0584
2018_01_05_S21 01/05/2018 01:15:00 0.0122
2018_01_05_S21 01/05/2018 01:20:00 0.0426
2018_01_05_S21 01/05/2018 01:25:00 0.096
2018_01_05_S21 01/05/2018 01:30:00 0.0074
2018_01_05_S21 01/05/2018 01:35:00 0.0969
2018_01_05_S21 01/05/2018 01:40:00 0.0
2018_01_05_S21 01/05/2018 01:45:00 0.0119
2018_01_05_S21 01/05/2018 01:50:00 0.0396
2018_01_05_S21 01/05/2018 01:55:00 0.0152
2018_01_05_S21 01/05/2018 02:00:00 0.009
2018_01_05_S21 01/05/2018 02:05:00 0.0356
2018_01_05_S21 01/05/2018 02:10:00 0.0112
2018_01_05_S21 01/05/2018 02:15:00 0.0437
2018_01_05_S21 01/05/2018 02:20:00 0.0114
2018_01_05_S21 01/05/2018 02:25:00 0.0
2018_01_05_S21 01/05/2018 02:30:00 0.0
2018_01_05_S21 01/05/2018 02:35:00 0.0
2018_01_05_S21 01/05/2018 02:40:00 0.0
2018_01_05_S21 01/05/2018 02:45:00 0.0
2018_01_05_S21 01/05/2018 02:50:00 0.0
2018_01_05_S21 01/05/2018 02:55:00 0.0
2018_01_05_S21 01/05/2018 03:00:00 0.0
2018_01_05_S21 01/05/2018 03:05:00 0.2603
2018_01_05_S21 01/05/2018 03:10:00 0.3266
2018_01_05_S21 01/05/2018 03:15:00 0.304
2018_01_05_S21 01/05/2018 03:20:00 0.5276
2018_01_05_S21 01/05/2018 03:25:00 0.555
2018_01_05_S21 01/05/2018 03:30:00 0.5343
2018_01_05_S21 01/05/2018 03:35:00 0.1232
2018_01_05_S21 01/05/2018 03:40:00 0.0005
2018_01_05_S21 01/05/2018 03:45:00 0.0025
2018_01_05_S21 01/05/2018 03:50:00 0.0658
2018_01_05_S21 01/05/2018 03:55:00 0.0088
2018_01_05_S21 01/05/2018 04:00:00 0.1012
2018_01_05_S21 01/05/2018 04:05:00 0.0
2018_01_05_S21 01/05/2018 04:10:00 0.0006
2018_01_05_S21 01/05/2018 04:15:00 0.0077
2018_01_05_S21 01/05/2018 04:20:00 0.0071
2018_01_05_S21 01/05/2018 04:25:00 0.0827
2018_01_05_S21 01/05/2018 04:30:00 0.0389
2018_01_05_S21 01/05/2018 04:35:00 0.0184
2018_01_05_S21 01/05/2018 04:40:00 0.0246
2018_01_05_S21 01/05/2018 04:45:00 0.1897
2018_01_05_S21 01/05/2018 04:50:00 0.0436
2018_01_05_S21 01/05/2018 04:55:00 0.0019
2018_01_05_S21 01/05/2018 05:00:00 0.0569
2018_01_05_S21 01/05/2018 05:05:00 0.0028
2018_01_05_S21 01/05/2018 05:10:00 0.0066
2018_01_05_S21 01/05/2018 05:15:00 0.0
2018_01_05_S21 01/05/2018 05:20:00 0.0151
2018_01_05_S21 01/05/2018 05:25:00 0.0
2018_01_05_S21 01/05/2018 05:30:00 0.004
2018_01_05_S21 01/05/2018 05:35:00 0.0
2018_01_05_S21 01/05/2018 05:40:00 0.0
2018_01_05_S21 01/05/2018 05:45:00 0.0
2018_01_05_S21 01/05/2018 05:50:00 0.0
2018_01_05_S21 01/05/2018 05:55:00 0.016
2018_01_05_S21 01/05/2018 06:00:00 0.2169
2018_01_05_S21 01/05/2018 06:05:00 0.1819
2018_01_05_S21 01/05/2018 06:10:00 0.0123
2018_01_05_S21 01/05/2018 06:15:00 0.0035
2018_01_05_S21 01/05/2018 06:20:00 1.221
2018_01_05_S21 01/05/2018 06:25:00 5.3102
2018_01_05_S21 01/05/2018 06:30:00 1.7533
2018_01_05_S21 01/05/2018 06:35:00 2.0042
2018_01_05_S21 01/05/2018 06:40:00 0.4975
2018_01_05_S21 01/05/2018 06:45:00 0.8553
2018_01_05_S21 01/05/2018 06:50:00 1.1183
2018_01_05_S21 01/05/2018 06:55:00 0.3595
2018_01_05_S21 01/05/2018 07:00:00 0.3326
2018_01_05_S21 01/05/2018 07:05:00 0.2539
2018_01_05_S21 01/05/2018 07:10:00 0.2386
2018_01_05_S21 01/05/2018 07:15:00 0.0
2018_01_05_S21 01/05/2018 07:20:00 0.0
2018_01_05_S21 01/05/2018 07:25:00 0.0
2018_01_05_S21 01/05/2018 07:30:00 0.0
2018_01_05_S21 01/05/2018 07:35:00 0.0
2018_01_05_S21 01/05/2018 07:40:00 0.0
2018_01_05_S21 01/05/2018 07:45:00 0.0
2018_01_05_S21 01/05/2018 07:50:00 0.0
2018_01_05_S21 01/05/2018 07:55:00 0.0
2018_01_05_S21 01/05/2018 08:00:00 0.0
2018_01_05_S21 01/05/2018 08:05:00 0.0
2018_01_05_S21 01/05/2018 08:10:00 0.0
2018_01_05_S21 01/05/2018 08:15:00 0.0016
2018_01_05_S21 01/05/2018 08:20:00 0.0
2018_01_05_S21 01/05/2018 08:25:00 0.0
2018_01_05_S21 01/05/2018 08:30:00 0.0291
2018_01_05_S21 01/05/2018 08:35:00 0.1105
2018_01_05_S21 01/05/2018 08:40:00 0.4751
2018_01_05_S21 01/05/2018 08:45:00 0.7568
2018_01_05_S21 01/05/2018 08:50:00 0.5529
2018_01_05_S21 01/05/2018 08:55:00 2.059
2018_01_05_S21 01/05/2018 09:00:00 0.536
2018_01_05_S21 01/05/2018 09:05:00 0.5839
2018_01_05_S21 01/05/2018 09:10:00 0.8802
2018_01_05_S21 01/05/2018 09:15:00 0.2066
2018_01_05_S21 01/05/2018 09:20:00 0.0343
2018_01_05_S21 01/05/2018 09:25:00 0.0
2018_01_05_S21 01/05/2018 09:30:00 0.0
2018_01_05_S21 01/05/2018 09:35:00 0.0561
2018_01_05_S21 01/05/2018 09:40:00 1.8772
2018_01_05_S21 01/05/2018 09:45:00 0.6913
2018_01_05_S21 01/05/2018 09:50:00 0.8086
2018_01_05_S21 01/05/2018 09:55:00 5.8808
2018_01_05_S21 01/05/2018 10:00:00 0.0095
2018_01_05_S21 01/05/2018 10:05:00 0.1523
2018_01_05_S21 01/05/2018 10:10:00 0.0007
2018_01_05_S21 01/05/2018 10:15:00 0.0
2018_01_05_S21 01/05/2018 10:20:00 0.0
2018_01_05_S21 01/05/2018 10:25:00 0.009
2018_01_05_S21 01/05/2018 10:30:00 1.1858
2018_01_05_S21 01/05/2018 10:35:00 0.0143
2018_01_05_S21 01/05/2018 10:40:00 0.1735
2018_01_05_S21 01/05/2018 10:45:00 0.4932
2018_01_05_S21 01/05/2018 10:50:00 0.1057
2018_01_05_S21 01/05/2018 10:55:00 0.0
2018_01_05_S21 01/05/2018 11:00:00 0.0116
2018_01_05_S21 01/05/2018 11:05:00 0.081
2018_01_05_S21 01/05/2018 11:10:00 0.2004
2018_01_05_S21 01/05/2018 11:15:00 0.3139
2018_01_05_S21 01/05/2018 11:20:00 0.1235
2018_01_05_S21 01/05/2018 11:25:00 0.1308
2018_01_05_S21 01/05/2018 11:30:00 0.1542
2018_01_05_S21 01/05/2018 11:35:00 0.2062
2018_01_05_S21 01/05/2018 11:40:00 0.2875
2018_01_05_S21 01/05/2018 11:45:00 0.0442
2018_01_05_S21 01/05/2018 11:50:00 0.0047
2018_01_05_S21 01/05/2018 11:55:00 0.0
2018_01_05_S21 01/05/2018 12:00:00 0.1014
2018_01_05_S21 01/05/2018 12:05:00 0.193
2018_01_05_S21 01/05/2018 12:10:00 0.4241
2018_01_05_S21 01/05/2018 12:15:00 1.3255
2018_01_05_S21 01/05/2018 12:20:00 0.3239
2018_01_05_S21 01/05/2018 12:25:00 0.6232
2018_01_05_S21 01/05/2018 12:30:00 2.2034
2018_01_05_S21 01/05/2018 12:35:00 0.5575
2018_01_05_S21 01/05/2018 12:40:00 1.9132
2018_01_05_S21 01/05/2018 12:45:00 4.9397
2018_01_05_S21 01/05/2018 12:50:00 0.5776
2018_01_05_S21 01/05/2018 12:55:00 0.1361
2018_01_05_S21 01/05/2018 13:00:00 0.0633
2018_01_05_S21 01/05/2018 13:05:00 0.1085
2018_01_05_S21 01/05/2018 13:10:00 0.0044
2018_01_05_S21 01/05/2018 13:15:00 0.0
2018_01_05_S21 01/05/2018 13:20:00 0.0
2018_01_05_S21 01/05/2018 13:25:00 0.0094
2018_01_05_S21 01/05/2018 13:30:00 0.0339
2018_01_05_S21 01/05/2018 13:35:00 0.0124
2018_01_05_S21 01/05/2018 13:40:00 0.0119
2018_01_05_S21 01/05/2018 13:45:00 0.2744
2018_01_05_S21 01/05/2018 13:50:00 0.4155
2018_01_05_S21 01/05/2018 13:55:00 0.987
2018_01_05_S21 01/05/2018 14:00:00 0.3894
2018_01_05_S21 01/05/2018 14:05:00 0.4368
2018_01_05_S21 01/05/2018 14:10:00 0.2244
2018_01_05_S21 01/05/2018 14:15:00 0.6626
2018_01_05_S21 01/05/2018 14:20:00 0.0
2018_01_05_S21 01/05/2018 14:25:00 0.0
2018_01_05_S21 01/05/2018 14:30:00 0.0
2018_01_05_S21 01/05/2018 14:35:00 0.0123
2018_01_05_S21 01/05/2018 14:40:00 0.047
2018_01_05_S21 01/05/2018 14:45:00 0.196
2018_01_05_S21 01/05/2018 14:50:00 0.3711
2018_01_05_S21 01/05/2018 14:55:00 0.0076
2018_01_05_S21 01/05/2018 15:00:00 0.0009
2018_01_05_S21 01/05/2018 15:05:00 0.0
2018_01_05_S21 01/05/2018 15:10:00 0.0194
2018_01_05_S21 01/05/2018 15:15:00 0.0716
2018_01_05_S21 01/05/2018 15:20:00 1.1855
2018_01_05_S21 01/05/2018 15:25:00 0.001
2018_01_05_S21 01/05/2018 15:30:00 0.0
2018_01_05_S21 01/05/2018 15:35:00 0.0098
2018_01_05_S21 01/05/2018 15:40:00 0.1099
2018_01_05_S21 01/05/2018 15:45:00 0.0
2018_01_05_S21 01/05/2018 15:50:00 0.0
2018_01_05_S21 01/05/2018 15:55:00 0.0
2018_01_05_S21 01/05/2018 16:00:00 0.0
2018_01_05_S21 01/05/2018 16:05:00 0.0
2018_01_05_S21 01/05/2018 16:10:00 0.0
2018_01_05_S21 01/05/2018 16:15:00 0.0
2018_01_05_S21 01/05/2018 16:20:00 0.0
2018_01_05_S21 01/05/2018 16:25:00 0.0
2018_01_05_S21 01/05/2018 16:30:00 0.0
2018_01_05_S21 01/05/2018 16:35:00 0.0
2018_01_05_S21 01/05/2018 16:40:00 0.0
2018_01_05_S21 01/05/2018 16:45:00 0.0
2018_01_05_S21 01/05/2018 16:50:00 0.0
2018_01_05_S21 01/05/2018 16:55:00 0.0
2018_01_05_S21 01/05/2018 17:00:00 0.0
2018_01_05_S21 01/05/2018 17:05:00 0.0
2018_01_05_S21 01/05/2018 17:10:00 0.0
2018_01_05_S21 01/05/2018 17:15:00 0.0
2018_01_05_S21 01/05/2018 17:20:00 0.0
2018_01_05_S21 01/05/2018 17:25:00 0.0
2018_01_05_S21 01/05/2018 17:30:00 0.0
2018_01_05_S21 01/05/2018 17:35:00 0.0
2018_01_05_S21 01/05/2018 17:40:00 0.0
2018_01_05_S21 01/05/2018 17:45:00 0.0
2018_01_05_S21 01/05/2018 17:50:00 0.0
2018_01_05_S21 01/05/2018 17:55:00 0.0128
2018_01_05_S21 01/05/2018 18:00:00 0.0335
2018_01_05_S21 01/05/2018 18:05:00 0.0
2018_01_05_S21 01/05/2018 18:10:00 0.0
2018_01_05_S21 01/05/2018 18:15:00 0.0009
2018_01_05_S21 01/05/2018 18:20:00 0.0718
2018_01_05_S21 01/05/2018 18:25:00 0.0
2018_01_05_S21 01/05/2018 18:30:00 0.0
2018_01_05_S21 01/05/2018 18:35:00 0.0
2018_01_05_S21 01/05/2018 18:40:00 0.0
2018_01_05_S21 01/05/2018 18:45:00 0.0
2018_01_05_S21 01/05/2018 18:50:00 0.0
2018_01_05_S21 01/05/2018 18:55:00 0.0
2018_01_05_S21 01/05/2018 19:00:00 0.0
2018_01_05_S21 01/05/2018 19:05:00 0.0
2018_01_05_S21 01/05/2018 19:10:00 0.0
2018_01_05_S21 01/05/2018 19:15:00 0.0
2018_01_05_S21 01/05/2018 19:20:00 0.0
2018_01_05_S21 01/05/2018 19:25:00 0.0
2018_01_05_S21 01/05/2018 19:30:00 0.0
2018_01_05_S21 01/05/2018 19:35:00 0.0
2018_01_05_S21 01/05/2018 19:40:00 0.0
2018_01_05_S21 01/05/2018 19:45:00 0.0071
2018_01_05_S21 01/05/2018 19:50:00 0.0793
2018_01_05_S21 01/05/2018 19:55:00 0.0231
2018_01_05_S21 01/05/2018 20:00:00 0.0115
2018_01_05_S21 01/05/2018 20:05:00 0.0043
2018_01_05_S21 01/05/2018 20:10:00 0.0
2018_01_05_S21 01/05/2018 20:15:00 0.0
2018_01_05_S21 01/05/2018 20:20:00 0.0
2018_01_05_S21 01/05/2018 20:25:00 0.0
2018_01_05_S21 01/05/2018 20:30:00 0.0
2018_01_05_S21 01/05/2018 20:35:00 0.0
2018_01_05_S21 01/05/2018 20:40:00 0.0
2018_01_05_S21 01/05/2018 20:45:00 0.0
2018_01_05_S21 01/05/2018 20:50:00 0.0011
2018_01_05_S21 01/05/2018 20:55:00 0.0075
2018_01_05_S21 01/05/2018 21:00:00 0.0
2018_01_05_S21 01/05/2018 21:05:00 0.0
2018_01_05_S21 01/05/2018 21:10:00 0.0
2018_01_05_S21 01/05/2018 21:15:00 0.0
2018_01_05_S21 01/05/2018 21:20:00 0.0
2018_01_05_S21 01/05/2018 21:25:00 0.0
2018_01_05_S21 01/05/2018 21:30:00 0.0
2018_01_05_S21 01/05/2018 21:35:00 0.0
2018_01_05_S21 01/05/2018 21:40:00 0.0
2018_01_05_S21 01/05/2018 21:45:00 0.0
2018_01_05_S21 01/05/2018 21:50:00 0.0
2018_01_05_S21 01/05/2018 21:55:00 0.0
2018_01_05_S21 01/05/2018 22:00:00 0.0
2018_01_05_S21 01/05/2018 22:05:00 0.0006
2018_01_05_S21 01/05/2018 22:10:00 0.0
2018_01_05_S21 01/05/2018 22:15:00 0.0
2018_01_05_S21 01/05/2018 22:20:00 0.0
2018_01_05_S21 01/05/2018 22:25:00 0.0472
2018_01_05_S21 01/05/2018 22:30:00 0.0067
2018_01_05_S21 01/05/2018 22:35:00 0.0048
2018_01_05_S21 01/05/2018 22:40:00 0.0104
2018_01_05_S21 01/05/2018 22:45:00 0.0
2018_01_05_S21 01/05/2018 22:50:00 0.0
2018_01_05_S21 01/05/2018 22:55:00 0.0
2018_01_05_S21 01/05/2018 23:00:00 0.0
2018_01_05_S21 01/05/2018 23:05:00 0.0
2018_01_05_S21 01/05/2018 23:10:00 0.0
2018_01_05_S21 01/05/2018 23:15:00 0.0
2018_01_05_S21 01/05/2018 23:20:00 0.0
2018_01_05_S21 01/05/2018 23:25:00 0.0
2018_01_05_S21 01/05/2018 23:30:00 0.0
2018_01_05_S21 01/05/2018 23:35:00 0.0
2018_01_05_S21 01/05/2018 23:40:00 0.0
2018_01_05_S21 01/05/2018 23:45:00 0.0596
2018_01_05_S21 01/05/2018 23:50:00 0.0652
2018_01_05_S21 01/05/2018 23:55:00 0.0095
2018_01_05_S21 01/06/2018 00:00:00 0.005
2018_01_05_S21 01/06/2018 00:05:00 0.2034
2018_01_05_S21 01/06/2018 00:10:00 0.0011
2018_01_05_S21 01/06/2018 00:15:00 0.598
2018_01_05_S21 01/06/2018 00:20:00 0.0138
2018_01_05_S21 01/06/2018 00:25:00 0.0
2018_01_05_S21 01/06/2018 00:30:00 0.0
2018_01_05_S21 01/06/2018 00:35:00 0.0
2018_01_05_S21 01/06/2018 00:40:00 0.0
2018_01_05_S21 01/06/2018 00:45:00 0.0
2018_01_05_S21 01/06/2018 00:50:00 0.0
2018_01_05_S21 01/06/2018 00:55:00 0.0
2018_01_05_S21 01/06/2018 01:00:00 0.0006
2018_01_05_S21 01/06/2018 01:05:00 0.0
2018_01_05_S21 01/06/2018 01:10:00 0.0074
2018_01_05_S21 01/06/2018 01:15:00 0.0
2018_01_05_S21 01/06/2018 01:20:00 0.0
2018_01_05_S21 01/06/2018 01:25:00 0.0
2018_01_05_S21 01/06/2018 01:30:00 0.0
2018_01_05_S21 01/06/2018 01:35:00 0.0
2018_01_05_S21 01/06/2018 01:40:00 0.0
2018_01_05_S21 01/06/2018 01:45:00 0.0
2018_01_05_S21 01/06/2018 01:50:00 0.0
2018_01_05_S21 01/06/2018 01:55:00 0.0
2018_01_05_S21 01/06/2018 02:00:00 0.0
2018_01_05_S21 01/06/2018 02:05:00 0.0
2018_01_05_S21 01/06/2018 02:10:00 0.0
2018_01_05_S21 01/06/2018 02:15:00 0.0
2018_01_05_S21 01/06/2018 02:20:00 0.0
2018_01_05_S21 01/06/2018 02:25:00 0.0
2018_01_05_S21 01/06/2018 02:30:00 0.0
2018_01_05_S21 01/06/2018 02:35:00 0.0
2018_01_05_S21 01/06/2018 02:40:00 0.0
2018_01_05_S21 01/06/2018 02:45:00 0.0106
2018_01_05_S21 01/06/2018 02:50:00 0.0006
2018_01_05_S21 01/06/2018 02:55:00 0.0
2018_01_05_S21 01/06/2018 03:00:00 0.0
2018_01_05_S21 01/06/2018 03:05:00 0.0
2018_01_05_S21 01/06/2018 03:10:00 0.0
2018_01_05_S21 01/06/2018 03:15:00 0.0
2018_01_05_S21 01/06/2018 03:20:00 0.0
2018_01_05_S21 01/06/2018 03:25:00 0.002
2018_01_05_S21 01/06/2018 03:30:00 0.0
2018_01_05_S21 01/06/2018 03:35:00 0.0
2018_01_05_S21 01/06/2018 03:40:00 0.0192
2018_01_05_S21 01/06/2018 03:45:00 0.0754
2018_01_05_S21 01/06/2018 03:50:00 0.0
2018_01_05_S21 01/06/2018 03:55:00 0.0
2018_01_05_S21 01/06/2018 04:00:00 0.0
2018_01_05_S21 01/06/2018 04:05:00 0.0
2018_01_05_S21 01/06/2018 04:10:00 0.0
2018_01_05_S21 01/06/2018 04:15:00 0.0
2018_01_05_S21 01/06/2018 04:20:00 0.0008
2018_01_05_S21 01/06/2018 04:25:00 0.0025
2018_01_05_S21 01/06/2018 04:30:00 0.0
2018_01_05_S21 01/06/2018 04:35:00 0.0
2018_01_05_S21 01/06/2018 04:40:00 0.0
2018_01_05_S21 01/06/2018 04:45:00 0.0
2018_01_05_S21 01/06/2018 04:50:00 0.0
2018_01_05_S21 01/06/2018 04:55:00 0.0
2018_01_05_S21 01/06/2018 05:00:00 0.0
2018_01_05_S21 01/06/2018 05:05:00 0.0
2018_01_05_S21 01/06/2018 05:10:00 0.0
2018_01_05_S21 01/06/2018 05:15:00 0.0
2018_01_05_S21 01/06/2018 05:20:00 0.0
2018_01_05_S21 01/06/2018 05:25:00 0.0
2018_01_05_S21 01/06/2018 05:30:00 0.0164
2018_01_05_S21 01/06/2018 05:35:00 0.6155
2018_01_05_S21 01/06/2018 05:40:00 0.1778
2018_01_05_S21 01/06/2018 05:45:00 0.0
2018_01_05_S21 01/06/2018 05:50:00 0.0
2018_01_05_S21 01/06/2018 05:55:00 0.0001
2018_01_05_S21 01/06/2018 06:00:00 0.0
2018_01_05_S21 01/06/2018 06:05:00 0.0
2018_01_05_S21 01/06/2018 06:10:00 0.0842
2018_01_05_S21 01/06/2018 06:15:00 0.0069
2018_01_05_S21 01/06/2018 06:20:00 0.0086
2018_01_05_S21 01/06/2018 06:25:00 0.0101
2018_01_05_S21 01/06/2018 06:30:00 0.0058
2018_01_05_S21 01/06/2018 06:35:00 0.0
2018_01_05_S21 01/06/2018 06:40:00 0.0
2018_01_05_S21 01/06/2018 06:45:00 0.0
2018_01_05_S21 01/06/2018 06:50:00 0.0295
2018_01_05_S21 01/06/2018 06:55:00 0.0145
2018_01_05_S21 01/06/2018 07:00:00 0.0562
2018_01_05_S21 01/06/2018 07:05:00 0.004
2018_01_05_S21 01/06/2018 07:10:00 0.0043
2018_01_05_S21 01/06/2018 07:15:00 0.0
2018_01_05_S21 01/06/2018 07:20:00 0.0
2018_01_05_S21 01/06/2018 07:25:00 0.0
2018_01_05_S21 01/06/2018 07:30:00 0.0
2018_01_05_S21 01/06/2018 07:35:00 0.0
2018_01_05_S21 01/06/2018 07:40:00 0.0046
2018_01_05_S21 01/06/2018 07:45:00 0.025
2018_01_05_S21 01/06/2018 07:50:00 0.0225
2018_01_05_S21 01/06/2018 07:55:00 0.0296
2018_01_05_S21 01/06/2018 08:00:00 0.0

2018_01_05_S22 01/04/2018 10:25:00 0.1562
2018_01_05_S22 01/04/2018 10:30:00 0.01
2018_01_05_S22 01/04/2018 10:35:00 0.0
2018_01_05_S22 01/04/2018 10:40:00 0.0114
2018_01_05_S22 01/04/2018 10:45:00 0.036
2018_01_05_S22 01/04/2018 10:50:00 1.2002
2018_01_05_S22 01/04/2018 10:55:00 0.0
2018_01_05_S22 01/04/2018 11:00:00 0.0
2018_01_05_S22 01/04/2018 11:05:00 0.2666
2018_01_05_S22 01/04/2018 11:10:00 0.0274
2018_01_05_S22 01/04/2018 11:15:00 0.4305
2018_01_05_S22 01/04/2018 11:20:00 0.3081
2018_01_05_S22 01/04/2018 11:25:00 0.1235
2018_01_05_S22 01/04/2018 11:30:00 0.0611
2018_01_05_S22 01/04/2018 11:35:00 0.0
2018_01_05_S22 01/04/2018 11:40:00 0.0
2018_01_05_S22 01/04/2018 11:45:00 0.0
2018_01_05_S22 01/04/2018 11:50:00 0.0
2018_01_05_S22 01/04/2018 11:55:00 0.0
2018_01_05_S22 01/04/2018 12:00:00 0.0
2018_01_05_S22 01/04/2018 12:05:00 0.0
2018_01_05_S22 01/04/2018 12:10:00 0.0
2018_01_05_S22 01/04/2018 12:15:00 0.0
2018_01_05_S22 01/04/2018 12:20:00 0.0
2018_01_05_S22 01/04/2018 12:25:00 0.0
2018_01_05_S22 01/04/2018 12:30:00 0.1341
2018_01_05_S22 01/04/2018 12:35:00 0.0
2018_01_05_S22 01/04/2018 12:40:00 0.0
2018_01_05_S22 01/04/2018 12:45:00 0.0148
2018_01_05_S22 01/04/2018 12:50:00 0.0
2018_01_05_S22 01/04/2018 12:55:00 0.0
2018_01_05_S22 01/04/2018 13:00:00 0.0
2018_01_05_S22 01/04/2018 13:05:00 0.0
2018_01_05_S22 01/04/2018 13:10:00 0.0
2018_01_05_S22 01/04/2018 13:15:00 0.0
2018_01_05_S22 01/04/2018 13:20:00 0.0
2018_01_05_S22 01/04/2018 13:25:00 0.0
2018_01_05_S22 01/04/2018 13:30:00 0.0
2018_01_05_S22 01/04/2018 13:35:00 0.0
2018_01_05_S22 01/04/2018 13:40:00 0.0
2018_01_05_S22 01/04/2018 13:45:00 0.0
2018_01_05_S22 01/04/2018 13:50:00 0.0
2018_01_05_S22 01/04/2018 13:55:00 0.0
2018_01_05_S22 01/04/2018 14:00:00 0.0041
2018_01_05_S22 01/04/2018 14:05:00 0.0
2018_01_05_S22 01/04/2018 14:10:00 0.0
2018_01_05_S22 01/04/2018 14:15:00 0.0051
2018_01_05_S22 01/04/2018 14:20:00 0.0002
2018_01_05_S22 01/04/2018 14:25:00 0.0056
2018_01_05_S22 01/04/2018 14:30:00 0.0019
2018_01_05_S22 01/04/2018 14:35:00 0.0118
2018_01_05_S22 01/04/2018 14:40:00 0.1042
2018_01_05_S22 01/04/2018 14:45:00 0.0
2018_01_05_S22 01/04/2018 14:50:00 0.0
2018_01_05_S22 01/04/2018 14:55:00 0.0
2018_01_05_S22 01/04/2018 15:00:00 0.0
2018_01_05_S22 01/04/2018 15:05:00 0.0
2018_01_05_S22 01/04/2018 15:10:00 0.0
2018_01_05_S22 01/04/2018 15:15:00 0.0
2018_01_05_S22 01/04/2018 15:20:00 0.0
2018_01_05_S22 01/04/2018 15:25:00 0.0
2018_01_05_S22 01/04/2018 15:30:00 0.0
2018_01_05_S22 01/04/2018 15:35:00 1.6166
2018_01_05_S22 01/04/2018 15:40:00 0.0072
2018_01_05_S22 01/04/2018 15:45:00 0.0
2018_01_05_S22 01/04/2018 15:50:00 0.0
2018_01_05_S22 01/04/2018 15:55:00 0.0209
2018_01_05_S22 01/04/2018 16:00:00 0.0323
2018_01_05_S22 01/04/2018 16:05:00 0.0835
2018_01_05_S22 01/04/2018 16:10:00 0.043
2018_01_05_S22 01/04/2018 16:15:00 0.0184
2018_01_05_S22 01/04/2018 16:20:00 0.3764
2018_01_05_S22 01/04/2018 16:25:00 0.0616
2018_01_05_S22 01/04/2018 16:30:00 0.0
2018_01_05_S22 01/04/2018 16:35:00 0.0
2018_01_05_S22 01/04/2018 16:40:00 0.0
2018_01_05_S22 01/04/2018 16:45:00 0.0
2018_01_05_S22 01/04/2018 16:50:00 0.0
2018_01_05_S22 01/04/2018 16:55:00 0.0
2018_01_05_S22 01/04/2018 17:00:00 0.0
2018_01_05_S22 01/04/2018 17:05:00 0.0
2018_01_05_S22 01/04/2018 17:10:00 0.0912
2018_01_05_S22 01/04/2018 17:15:00 0.069
2018_01_05_S22 01/04/2018 17:20:00 0.0
2018_01_05_S22 01/04/2018 17:25:00 0.0
2018_01_05_S22 01/04/2018 17:30:00 0.0509
2018_01_05_S22 01/04/2018 17:35:00 0.4582
2018_01_05_S22 01/04/2018 17:40:00 0.1838
2018_01_05_S22 01/04/2018 17:45:00 0.3081
2018_01_05_S22 01/04/2018 17:50:00 0.1481
2018_01_05_S22 01/04/2018 17:55:00 0.1677
2018_01_05_S22 01/04/2018 18:00:00 0.2043
2018_01_05_S22 01/04/2018 18:05:00 0.2224
2018_01_05_S22 01/04/2018 18:10:00 0.1736
2018_01_05_S22 01/04/2018 18:15:00 0.0815
2018_01_05_S22 01/04/2018 18:20:00 0.0694
2018_01_05_S22 01/04/2018 18:25:00 0.0
2018_01_05_S22 01/04/2018 18:30:00 0.0
2018_01_05_S22 01/04/2018 18:35:00 0.0
2018_01_05_S22 01/04/2018 18:40:00 0.0
2018_01_05_S22 01/04/2018 18:45:00 0.0
2018_01_05_S22 01/04/2018 18:50:00 0.0
2018_01_05_S22 01/04/2018 18:55:00 0.0
2018_01_05_S22 01/04/2018 19:00:00 0.0
2018_01_05_S22 01/04/2018 19:05:00 0.0
2018_01_05_S22 01/04/2018 19:10:00 0.0
2018_01_05_S22 01/04/2018 19:15:00 0.0
2018_01_05_S22 01/04/2018 19:20:00 0.0
2018_01_05_S22 01/04/2018 19:25:00 0.0
2018_01_05_S22 01/04/2018 19:30:00 0.0
2018_01_05_S22 01/04/2018 19:35:00 0.0
2018_01_05_S22 01/04/2018 19:40:00 0.0
2018_01_05_S22 01/04/2018 19:45:00 0.0
2018_01_05_S22 01/04/2018 19:50:00 0.0
2018_01_05_S22 01/04/2018 19:55:00 0.0
2018_01_05_S22 01/04/2018 20:00:00 0.0
2018_01_05_S22 01/04/2018 20:05:00 0.0
2018_01_05_S22 01/04/2018 20:10:00 0.0
2018_01_05_S22 01/04/2018 20:15:00 0.0
2018_01_05_S22 01/04/2018 20:20:00 0.0
2018_01_05_S22 01/04/2018 20:25:00 0.0
2018_01_05_S22 01/04/2018 20:30:00 0.0027
2018_01_05_S22 01/04/2018 20:35:00 0.0302
2018_01_05_S22 01/04/2018 20:40:00 0.0
2018_01_05_S22 01/04/2018 20:45:00 0.0
2018_01_05_S22 01/04/2018 20:50:00 0.0
2018_01_05_S22 01/04/2018 20:55:00 0.0
2018_01_05_S22 01/04/2018 21:00:00 0.0
2018_01_05_S22 01/04/2018 21:05:00 0.0
2018_01_05_S22 01/04/2018 21:10:00 0.0
2018_01_05_S22 01/04/2018 21:15:00 0.0
2018_01_05_S22 01/04/2018 21:20:00 0.0
2018_01_05_S22 01/04/2018 21:25:00 0.0014
2018_01_05_S22 01/04/2018 21:30:00 0.0022
2018_01_05_S22 01/04/2018 21:35:00 0.0154
2018_01_05_S22 01/04/2018 21:40:00 0.0264
2018_01_05_S22 01/04/2018 21:45:00 0.009
2018_01_05_S22 01/04/2018 21:50:00 0.0
2018_01_05_S22 01/04/2018 21:55:00 0.0
2018_01_05_S22 01/04/2018 22:00:00 0.0
2018_01_05_S22 01/04/2018 22:05:00 0.0
2018_01_05_S22 01/04/2018 22:10:00 0.0
2018_01_05_S22 01/04/2018 22:15:00 0.0
2018_01_05_S22 01/04/2018 22:20:00 0.0
2018_01_05_S22 01/04/2018 22:25:00 0.0
2018_01_05_S22 01/04/2018 22:30:00 0.0
2018_01_05_S22 01/04/2018 22:35:00 0.0
2018_01_05_S22 01/04/2018 22:40:00 0.0
2018_01_05_S22 01/04/2018 22:45:00 0.0
2018_01_05_S22 01/04/2018 22:50:00 0.0
2018_01_05_S22 01/04/2018 22:55:00 0.0
2018_01_05_S22 01/04/2018 23:00:00 0.0
2018_01_05_S22 01/04/2018 23:05:00 0.0
2018_01_05_S22 01/04/2018 23:10:00 0.0
2018_01_05_S22 01/04/2018 23:15:00 0.0
2018_01_05_S22 01/04/2018 23:20:00 0.0
2018_01_05_S22 01/04/2018 23:25:00 0.0
2018_01_05_S22 01/04/2018 23:30:00 0.0
2018_01_05_S22 01/04/2018 23:35:00 0.0
2018_01_05_S22 01/04/2018 23:40:00 0.0
2018_01_05_S22 01/04/2018 23:45:00 0.0
2018_01_05_S22 01/04/2018 23:50:00 0.0
2018_01_05_S22 01/04/2018 23:55:00 0.0
2018_01_05_S22 01/05/2018 00:00:00 0.0
2018_01_05_S22 01/05/2018 00:05:00 0.0
2018_01_05_S22 01/05/2018 00:10:00 0.0
2018_01_05_S22 01/05/2018 00:15:00 0.0
2018_01_05_S22 01/05/2018 00:20:00 0.0
2018_01_05_S22 01/05/2018 00:25:00 0.0
2018_01_05_S22 01/05/2018 00:30:00 0.0
2018_01_05_S22 01/05/2018 00:35:00 0.0
2018_01_05_S22 01/05/2018 00:40:00 0.0
2018_01_05_S22 01/05/2018 00:45:00 0.0
2018_01_05_S22 01/05/2018 00:50:00 0.0227
2018_01_05_S22 01/05/2018 00:55:00 0.0608
2018_01_05_S22 01/05/2018 01:00:00 0.0176
2018_01_05_S22 01/05/2018 01:05:00 0.0798
2018_01_05_S22 01/05/2018 01:10:00 0.0516
2018_01_05_S22 01/05/2018 01:15:00 0.0119
2018_01_05_S22 01/05/2018 01:20:00 0.0169
2018_01_05_S22 01/05/2018 01:25:00 0.0608
2018_01_05_S22 01/05/2018 01:30:00 0.0074
2018_01_05_S22 01/05/2018 01:35:00 0.0527
2018_01_05_S22 01/05/2018 01:40:00 0.0
2018_01_05_S22 01/05/2018 01:45:00 0.0011
2018_01_05_S22 01/05/2018 01:50:00 0.0703
2018_01_05_S22 01/05/2018 01:55:00 0.0189
2018_01_05_S22 01/05/2018 02:00:00 0.0086
2018_01_05_S22 01/05/2018 02:05:00 0.0434
2018_01_05_S22 01/05/2018 02:10:00 0.0197
2018_01_05_S22 01/05/2018 02:15:00 0.0196
2018_01_05_S22 01/05/2018 02:20:00 0.0211
2018_01_05_S22 01/05/2018 02:25:00 0.0
2018_01_05_S22 01/05/2018 02:30:00 0.0
2018_01_05_S22 01/05/2018 02:35:00 0.0
2018_01_05_S22 01/05/2018 02:40:00 0.0
2018_01_05_S22 01/05/2018 02:45:00 0.0
2018_01_05_S22 01/05/2018 02:50:00 0.0
2018_01_05_S22 01/05/2018 02:55:00 0.0
2018_01_05_S22 01/05/2018 03:00:00 0.0
2018_01_05_S22 01/05/2018 03:05:00 0.1796
2018_01_05_S22 01/05/2018 03:10:00 0.2457
2018_01_05_S22 01/05/2018 03:15:00 0.2429
2018_01_05_S22 01/05/2018 03:20:00 0.4772
2018_01_05_S22 01/05/2018 03:25:00 0.5475
2018_01_05_S22 01/05/2018 03:30:00 0.2291
2018_01_05_S22 01/05/2018 03:35:00 0.1545
2018_01_05_S22 01/05/2018 03:40:00 0.0055
2018_01_05_S22 01/05/2018 03:45:00 0.0034
2018_01_05_S22 01/05/2018 03:50:00 0.0478
2018_01_05_S22 01/05/2018 03:55:00 0.0161
2018_01_05_S22 01/05/2018 04:00:00 0.0912
2018_01_05_S22 01/05/2018 04:05:00 0.0002
2018_01_05_S22 01/05/2018 04:10:00 0.0006
2018_01_05_S22 01/05/2018 04:15:00 0.0121
2018_01_05_S22 01/05/2018 04:20:00 0.0062
2018_01_05_S22 01/05/2018 04:25:00 0.0487
2018_01_05_S22 01/05/2018 04:30:00 0.0316
2018_01_05_S22 01/05/2018 04:35:00 0.026
2018_01_05_S22 01/05/2018 04:40:00 0.0251
2018_01_05_S22 01/05/2018 04:45:00 0.1343
2018_01_05_S22 01/05/2018 04:50:00 0.0545
2018_01_05_S22 01/05/2018 04:55:00 0.0065
2018_01_05_S22 01/05/2018 05:00:00 0.0379
2018_01_05_S22 01/05/2018 05:05:00 0.0006
2018_01_05_S22 01/05/2018 05:10:00 0.0174
2018_01_05_S22 01/05/2018 05:15:00 0.0
2018_01_05_S22 01/05/2018 05:20:00 0.0063
2018_01_05_S22 01/05/2018 05:25:00 0.0
2018_01_05_S22 01/05/2018 05:30:00 0.0011
2018_01_05_S22 01/05/2018 05:35:00 0.0
2018_01_05_S22 01/05/2018 05:40:00 0.0
2018_01_05_S22 01/05/2018 05:45:00 0.0
2018_01_05_S22 01/05/2018 05:50:00 0.0
2018_01_05_S22 01/05/2018 05:55:00 0.0052
2018_01_05_S22 01/05/2018 06:00:00 0.187
2018_01_05_S22 01/05/2018 06:05:00 0.1188
2018_01_05_S22 01/05/2018 06:10:00 0.0152
2018_01_05_S22 01/05/2018 06:15:00 0.0074
2018_01_05_S22 01/05/2018 06:20:00 0.2393
2018_01_05_S22 01/05/2018 06:25:00 5.5539
2018_01_05_S22 01/05/2018 06:30:00 2.0925
2018_01_05_S22 01/05/2018 06:35:00 2.6756
2018_01_05_S22 01/05/2018 06:40:00 1.1005
2018_01_05_S22 01/05/2018 06:45:00 1.9143
2018_01_05_S22 01/05/2018 06:50:00 0.9092
2018_01_05_S22 01/05/2018 06:55:00 0.5703
2018_01_05_S22 01/05/2018 07:00:00 0.2645
2018_01_05_S22 01/05/2018 07:05:00 0.3047
2018_01_05_S22 01/05/2018 07:10:00 0.4278
2018_01_05_S22 01/05/2018 07:15:00 0.0
2018_01_05_S22 01/05/2018 07:20:00 0.0
2018_01_05_S22 01/05/2018 07:25:00 0.0
2018_01_05_S22 01/05/2018 07:30:00 0.0
2018_01_05_S22 01/05/2018 07:35:00 0.0
2018_01_05_S22 01/05/2018 07:40:00 0.0
2018_01_05_S22 01/05/2018 07:45:00 0.0
2018_01_05_S22 01/05/2018 07:50:00 0.0
2018_01_05_S22 01/05/2018 07:55:00 0.0
2018_01_05_S22 01/05/2018 08:00:00 0.0
2018_01_05_S22 01/05/2018 08:05:00 0.0
2018_01_05_S22 01/05/2018 08:10:00 0.0012
2018_01_05_S22 01/05/2018 08:15:00 0.0
2018_01_05_S22 01/05/2018 08:20:00 0.0023
2018_01_05_S22 01/05/2018 08:25:00 0.0
2018_01_05_S22 01/05/2018 08:30:00 0.0123
2018_01_05_S22 01/05/2018 08:35:00 0.0151
2018_01_05_S22 01/05/2018 08:40:00 0.327
2018_01_05_S22 01/05/2018 08:45:00 0.6166
2018_01_05_S22 01/05/2018 08:50:00 0.4228
2018_01_05_S22 01/05/2018 08:55:00 1.7017
2018_01_05_S22 01/05/2018 09:00:00 0.5326
2018_01_05_S22 01/05/2018 09:05:00 0.9703
2018_01_05_S22 01/05/2018 09:10:00 0.8104
2018_01_05_S22 01/05/2018 09:15:00 0.3088
2018_01_05_S22 01/05/2018 09:20:00 0.0933
2018_01_05_S22 01/05/2018 09:25:00 0.0
2018_01_05_S22 01/05/2018 09:30:00 0.0
2018_01_05_S22 01/05/2018 09:35:00 0.0769
2018_01_05_S22 01/05/2018 09:40:00 1.8367
2018_01_05_S22 01/05/2018 09:45:00 1.7713
2018_01_05_S22 01/05/2018 09:50:00 1.1365
2018_01_05_S22 01/05/2018 09:55:00 5.5877
2018_01_05_S22 01/05/2018 10:00:00 0.0015
2018_01_05_S22 01/05/2018 10:05:00 0.0573
2018_01_05_S22 01/05/2018 10:10:00 0.0073
2018_01_05_S22 01/05/2018 10:15:00 0.0
2018_01_05_S22 01/05/2018 10:20:00 0.0472
2018_01_05_S22 01/05/2018 10:25:00 0.0
2018_01_05_S22 01/05/2018 10:30:00 1.7002
2018_01_05_S22 01/05/2018 10:35:00 0.016
2018_01_05_S22 01/05/2018 10:40:00 0.1582
2018_01_05_S22 01/05/2018 10:45:00 1.7231
2018_01_05_S22 01/05/2018 10:50:00 0.1604
2018_01_05_S22 01/05/2018 10:55:00 0.0
2018_01_05_S22 01/05/2018 11:00:00 0.0043
2018_01_05_S22 01/05/2018 11:05:00 0.0432
2018_01_05_S22 01/05/2018 11:10:00 0.2448
2018_01_05_S22 01/05/2018 11:15:00 0.2335
2018_01_05_S22 01/05/2018 11:20:00 0.1712
2018_01_05_S22 01/05/2018 11:25:00 0.1454
2018_01_05_S22 01/05/2018 11:30:00 0.1738
2018_01_05_S22 01/05/2018 11:35:00 0.2849
2018_01_05_S22 01/05/2018 11:40:00 0.3526
2018_01_05_S22 01/05/2018 11:45:00 0.098
2018_01_05_S22 01/05/2018 11:50:00 0.0047
2018_01_05_S22 01/05/2018 11:55:00 0.0
2018_01_05_S22 01/05/2018 12:00:00 0.1235
2018_01_05_S22 01/05/2018 12:05:00 0.1402
2018_01_05_S22 01/05/2018 12:10:00 0.4692
2018_01_05_S22 01/05/2018 12:15:00 1.2035
2018_01_05_S22 01/05/2018 12:20:00 0.3519
2018_01_05_S22 01/05/2018 12:25:00 0.9129
2018_01_05_S22 01/05/2018 12:30:00 2.472
2018_01_05_S22 01/05/2018 12:35:00 0.5599
2018_01_05_S22 01/05/2018 12:40:00 2.2806
2018_01_05_S22 01/05/2018 12:45:00 5.0656
2018_01_05_S22 01/05/2018 12:50:00 1.0602
2018_01_05_S22 01/05/2018 12:55:00 0.4163
2018_01_05_S22 01/05/2018 13:00:00 0.0204
2018_01_05_S22 01/05/2018 13:05:00 0.2634
2018_01_05_S22 01/05/2018 13:10:00 0.0019
2018_01_05_S22 01/05/2018 13:15:00 0.0
2018_01_05_S22 01/05/2018 13:20:00 0.0016
2018_01_05_S22 01/05/2018 13:25:00 0.0082
2018_01_05_S22 01/05/2018 13:30:00 0.0961
2018_01_05_S22 01/05/2018 13:35:00 0.0324
2018_01_05_S22 01/05/2018 13:40:00 0.041
2018_01_05_S22 01/05/2018 13:45:00 0.3015
2018_01_05_S22 01/05/2018 13:50:00 0.3511
2018_01_05_S22 01/05/2018 13:55:00 0.6857
2018_01_05_S22 01/05/2018 14:00:00 0.3537
2018_01_05_S22 01/05/2018 14:05:00 0.1054
2018_01_05_S22 01/05/2018 14:10:00 0.1427
2018_01_05_S22 01/05/2018 14:15:00 0.3563
2018_01_05_S22 01/05/2018 14:20:00 0.0
2018_01_05_S22 01/05/2018 14:25:00 0.0
2018_01_05_S22 01/05/2018 14:30:00 0.0
2018_01_05_S22 01/05/2018 14:35:00 0.0
2018_01_05_S22 01/05/2018 14:40:00 0.0389
2018_01_05_S22 01/05/2018 14:45:00 0.3059
2018_01_05_S22 01/05/2018 14:50:00 2.139
2018_01_05_S22 01/05/2018 14:55:00 0.0521
2018_01_05_S22 01/05/2018 15:00:00 0.004
2018_01_05_S22 01/05/2018 15:05:00 0.003
2018_01_05_S22 01/05/2018 15:10:00 0.0546
2018_01_05_S22 01/05/2018 15:15:00 0.0198
2018_01_05_S22 01/05/2018 15:20:00 1.7257
2018_01_05_S22 01/05/2018 15:25:00 0.0101
2018_01_05_S22 01/05/2018 15:30:00 0.0
2018_01_05_S22 01/05/2018 15:35:00 0.0101
2018_01_05_S22 01/05/2018 15:40:00 0.188
2018_01_05_S22 01/05/2018 15:45:00 0.0035
2018_01_05_S22 01/05/2018 15:50:00 0.0
2018_01_05_S22 01/05/2018 15:55:00 0.0
2018_01_05_S22 01/05/2018 16:00:00 0.0
2018_01_05_S22 01/05/2018 16:05:00 0.0
2018_01_05_S22 01/05/2018 16:10:00 0.0
2018_01_05_S22 01/05/2018 16:15:00 0.0
2018_01_05_S22 01/05/2018 16:20:00 0.0
2018_01_05_S22 01/05/2018 16:25:00 0.0
2018_01_05_S22 01/05/2018 16:30:00 0.0
2018_01_05_S22 01/05/2018 16:35:00 0.0
2018_01_05_S22 01/05/2018 16:40:00 0.0
2018_01_05_S22 01/05/2018 16:45:00 0.0
2018_01_05_S22 01/05/2018 16:50:00 0.0
2018_01_05_S22 01/05/2018 16:55:00 0.0
2018_01_05_S22 01/05/2018 17:00:00 0.0
2018_01_05_S22 01/05/2018 17:05:00 0.0
2018_01_05_S22 01/05/2018 17:10:00 0.0
2018_01_05_S22 01/05/2018 17:15:00 0.0
2018_01_05_S22 01/05/2018 17:20:00 0.0
2018_01_05_S22 01/05/2018 17:25:00 0.0
2018_01_05_S22 01/05/2018 17:30:00 0.0
2018_01_05_S22 01/05/2018 17:35:00 0.0
2018_01_05_S22 01/05/2018 17:40:00 0.0
2018_01_05_S22 01/05/2018 17:45:00 0.0
2018_01_05_S22 01/05/2018 17:50:00 0.0
2018_01_05_S22 01/05/2018 17:55:00 0.0167
2018_01_05_S22 01/05/2018 18:00:00 0.023
2018_01_05_S22 01/05/2018 18:05:00 0.0
2018_01_05_S22 01/05/2018 18:10:00 0.0
2018_01_05_S22 01/05/2018 18:15:00 0.0
2018_01_05_S22 01/05/2018 18:20:00 0.1047
2018_01_05_S22 01/05/2018 18:25:00 0.0055
2018_01_05_S22 01/05/2018 18:30:00 0.0
2018_01_05_S22 01/05/2018 18:35:00 0.0
2018_01_05_S22 01/05/2018 18:40:00 0.0
2018_01_05_S22 01/05/2018 18:45:00 0.0
2018_01_05_S22 01/05/2018 18:50:00 0.0
2018_01_05_S22 01/05/2018 18:55:00 0.0
2018_01_05_S22 01/05/2018 19:00:00 0.0
2018_01_05_S22 01/05/2018 19:05:00 0.0
2018_01_05_S22 01/05/2018 19:10:00 0.0
2018_01_05_S22 01/05/2018 19:15:00 0.0
2018_01_05_S22 01/05/2018 19:20:00 0.0
2018_01_05_S22 01/05/2018 19:25:00 0.0
2018_01_05_S22 01/05/2018 19:30:00 0.002
2018_01_05_S22 01/05/2018 19:35:00 0.0013
2018_01_05_S22 01/05/2018 19:40:00 0.0
2018_01_05_S22 01/05/2018 19:45:00 0.0067
2018_01_05_S22 01/05/2018 19:50:00 0.1052
2018_01_05_S22 01/05/2018 19:55:00 0.0472
2018_01_05_S22 01/05/2018 20:00:00 0.0173
2018_01_05_S22 01/05/2018 20:05:00 0.007
2018_01_05_S22 01/05/2018 20:10:00 0.0
2018_01_05_S22 01/05/2018 20:15:00 0.0
2018_01_05_S22 01/05/2018 20:20:00 0.0
2018_01_05_S22 01/05/2018 20:25:00 0.0
2018_01_05_S22 01/05/2018 20:30:00 0.0
2018_01_05_S22 01/05/2018 20:35:00 0.0
2018_01_05_S22 01/05/2018 20:40:00 0.0
2018_01_05_S22 01/05/2018 20:45:00 0.0
2018_01_05_S22 01/05/2018 20:50:00 0.0
2018_01_05_S22 01/05/2018 20:55:00 0.0223
2018_01_05_S22 01/05/2018 21:00:00 0.0
2018_01_05_S22 01/05/2018 21:05:00 0.0
2018_01_05_S22 01/05/2018 21:10:00 0.0
2018_01_05_S22 01/05/2018 21:15:00 0.0
2018_01_05_S22 01/05/2018 21:20:00 0.0
2018_01_05_S22 01/05/2018 21:25:00 0.0
2018_01_05_S22 01/05/2018 21:30:00 0.0
2018_01_05_S22 01/05/2018 21:35:00 0.0
2018_01_05_S22 01/05/2018 21:40:00 0.0
2018_01_05_S22 01/05/2018 21:45:00 0.0
2018_01_05_S22 01/05/2018 21:50:00 0.0
2018_01_05_S22 01/05/2018 21:55:00 0.0
2018_01_05_S22 01/05/2018 22:00:00 0.0
2018_01_05_S22 01/05/2018 22:05:00 0.0022
2018_01_05_S22 01/05/2018 22:10:00 0.0
2018_01_05_S22 01/05/2018 22:15:00 0.0
2018_01_05_S22 01/05/2018 22:20:00 0.0
2018_01_05_S22 01/05/2018 22:25:00 0.0812
2018_01_05_S22 01/05/2018 22:30:00 0.0061
2018_01_05_S22 01/05/2018 22:35:00 0.0298
2018_01_05_S22 01/05/2018 22:40:00 0.0025
2018_01_05_S22 01/05/2018 22:45:00 0.0001
2018_01_05_S22 01/05/2018 22:50:00 0.0011
2018_01_05_S22 01/05/2018 22:55:00 0.0
2018_01_05_S22 01/05/2018 23:00:00 0.0
2018_01_05_S22 01/05/2018 23:05:00 0.0
2018_01_05_S22 01/05/2018 23:10:00 0.0
2018_01_05_S22 01/05/2018 23:15:00 0.0
2018_01_05_S22 01/05/2018 23:20:00 0.0
2018_01_05_S22 01/05/2018 23:25:00 0.0
2018_01_05_S22 01/05/2018 23:30:00 0.0
2018_01_05_S22 01/05/2018 23:35:00 0.0
2018_01_05_S22 01/05/2018 23:40:00 0.0
2018_01_05_S22 01/05/2018 23:45:00 0.084
2018_01_05_S22 01/05/2018 23:50:00 0.1241
2018_01_05_S22 01/05/2018 23:55:00 0.0075
2018_01_05_S22 01/06/2018 00:00:00 0.005
2018_01_05_S22 01/06/2018 00:05:00 0.0573
2018_01_05_S22 01/06/2018 00:10:00 0.0
2018_01_05_S22 01/06/2018 00:15:00 0.2098
2018_01_05_S22 01/06/2018 00:20:00 0.0403
2018_01_05_S22 01/06/2018 00:25:00 0.0
2018_01_05_S22 01/06/2018 00:30:00 0.0
2018_01_05_S22 01/06/2018 00:35:00 0.0
2018_01_05_S22 01/06/2018 00:40:00 0.0
2018_01_05_S22 01/06/2018 00:45:00 0.0
2018_01_05_S22 01/06/2018 00:50:00 0.0
2018_01_05_S22 01/06/2018 00:55:00 0.0
2018_01_05_S22 01/06/2018 01:00:00 0.0
2018_01_05_S22 01/06/2018 01:05:00 0.0026
2018_01_05_S22 01/06/2018 01:10:00 0.0012
2018_01_05_S22 01/06/2018 01:15:00 0.0
2018_01_05_S22 01/06/2018 01:20:00 0.0
2018_01_05_S22 01/06/2018 01:25:00 0.0
2018_01_05_S22 01/06/2018 01:30:00 0.0
2018_01_05_S22 01/06/2018 01:35:00 0.0
2018_01_05_S22 01/06/2018 01:40:00 0.0
2018_01_05_S22 01/06/2018 01:45:00 0.0
2018_01_05_S22 01/06/2018 01:50:00 0.0
2018_01_05_S22 01/06/2018 01:55:00 0.0
2018_01_05_S22 01/06/2018 02:00:00 0.0
2018_01_05_S22 01/06/2018 02:05:00 0.0
2018_01_05_S22 01/06/2018 02:10:00 0.0
2018_01_05_S22 01/06/2018 02:15:00 0.0
2018_01_05_S22 01/06/2018 02:20:00 0.0
2018_01_05_S22 01/06/2018 02:25:00 0.0
2018_01_05_S22 01/06/2018 02:30:00 0.0
2018_01_05_S22 01/06/2018 02:35:00 0.0
2018_01_05_S22 01/06/2018 02:40:00 0.0
2018_01_05_S22 01/06/2018 02:45:00 0.0038
2018_01_05_S22 01/06/2018 02:50:00 0.0025
2018_01_05_S22 01/06/2018 02:55:00 0.0
2018_01_05_S22 01/06/2018 03:00:00 0.0
2018_01_05_S22 01/06/2018 03:05:00 0.0
2018_01_05_S22 01/06/2018 03:10:00 0.0
2018_01_05_S22 01/06/2018 03:15:00 0.0
2018_01_05_S22 01/06/2018 03:20:00 0.0
2018_01_05_S22 01/06/2018 03:25:00 0.0
2018_01_05_S22 01/06/2018 03:30:00 0.0
2018_01_05_S22 01/06/2018 03:35:00 0.0
2018_01_05_S22 01/06/2018 03:40:00 0.0052
2018_01_05_S22 01/06/2018 03:45:00 0.1247
2018_01_05_S22 01/06/2018 03:50:00 0.0
2018_01_05_S22 01/06/2018 03:55:00 0.0
2018_01_05_S22 01/06/2018 04:00:00 0.0
2018_01_05_S22 01/06/2018 04:05:00 0.0
2018_01_05_S22 01/06/2018 04:10:00 0.0
2018_01_05_S22 01/06/2018 04:15:00 0.0
2018_01_05_S22 01/06/2018 04:20:00 0.0
2018_01_05_S22 01/06/2018 04:25:00 0.0022
2018_01_05_S22 01/06/2018 04:30:00 0.0
2018_01_05_S22 01/06/2018 04:35:00 0.0
2018_01_05_S22 01/06/2018 04:40:00 0.0
2018_01_05_S22 01/06/2018 04:45:00 0.0
2018_01_05_S22 01/06/2018 04:50:00 0.0
2018_01_05_S22 01/06/2018 04:55:00 0.0
2018_01_05_S22 01/06/2018 05:00:00 0.0
2018_01_05_S22 01/06/2018 05:05:00 0.0
2018_01_05_S22 01/06/2018 05:10:00 0.0
2018_01_05_S22 01/06/2018 05:15:00 0.0
2018_01_05_S22 01/06/2018 05:20:00 0.0
2018_01_05_S22 01/06/2018 05:25:00 0.0
2018_01_05_S22 01/06/2018 05:30:00 0.0037
2018_01_05_S22 01/06/2018 05:35:00 0.199
2018_01_05_S22 01/06/2018 05:40:00 0.5963
2018_01_05_S22 01/06/2018 05:45:00 0.0022
2018_01_05_S22 01/06/2018 05:50:00 0.0
2018_01_05_S22 01/06/2018 05:55:00 0.0011
2018_01_05_S22 01/06/2018 06:00:00 0.0
2018_01_05_S22 01/06/2018 06:05:00 0.0
2018_01_05_S22 01/06/2018 06:10:00 0.0571
2018_01_05_S22 01/06/2018 06:15:00 0.0094
2018_01_05_S22 01/06/2018 06:20:00 0.0071
2018_01_05_S22 01/06/2018 06:25:00 0.0099
2018_01_05_S22 01/06/2018 06:30:00 0.012
2018_01_05_S22 01/06/2018 06:35:00 0.0
2018_01_05_S22 01/06/2018 06:40:00 0.0
2018_01_05_S22 01/06/2018 06:45:00 0.0014
2018_01_05_S22 01/06/2018 06:50:00 0.0279
2018_01_05_S22 01/06/2018 06:55:00 0.0131
2018_01_05_S22 01/06/2018 07:00:00 0.0447
2018_01_05_S22 01/06/2018 07:05:00 0.0
2018_01_05_S22 01/06/2018 07:10:00 0.0
2018_01_05_S22 01/06/2018 07:15:00 0.0
2018_01_05_S22 01/06/2018 07:20:00 0.0
2018_01_05_S22 01/06/2018 07:25:00 0.0
2018_01_05_S22 01/06/2018 07:30:00 0.0
2018_01_05_S22 01/06/2018 07:35:00 0.0
2018_01_05_S22 01/06/2018 07:40:00 0.0
2018_01_05_S22 01/06/2018 07:45:00 0.0105
2018_01_05_S22 01/06/2018 07:50:00 0.0176
2018_01_05_S22 01/06/2018 07:55:00 0.0356
2018_01_05_S22 01/06/2018 08:00:00 0.0009

2018_01_05_S23 01/04/2018 10:25:00 0.0809
2018_01_05_S23 01/04/2018 10:30:00 0.0327
2018_01_05_S23 01/04/2018 10:35:00 0.0241
2018_01_05_S23 01/04/2018 10:40:00 0.0232
2018_01_05_S23 01/04/2018 10:45:00 0.1743
2018_01_05_S23 01/04/2018 10:50:00 1.2567
2018_01_05_S23 01/04/2018 10:55:00 0.0
2018_01_05_S23 01/04/2018 11:00:00 0.0
2018_01_05_S23 01/04/2018 11:05:00 0.8741
2018_01_05_S23 01/04/2018 11:10:00 0.0684
2018_01_05_S23 01/04/2018 11:15:00 2.9955
2018_01_05_S23 01/04/2018 11:20:00 0.1493
2018_01_05_S23 01/04/2018 11:25:00 0.2688
2018_01_05_S23 01/04/2018 11:30:00 0.0404
2018_01_05_S23 01/04/2018 11:35:00 0.0
2018_01_05_S23 01/04/2018 11:40:00 0.0
2018_01_05_S23 01/04/2018 11:45:00 0.0
2018_01_05_S23 01/04/2018 11:50:00 0.0
2018_01_05_S23 01/04/2018 11:55:00 0.0
2018_01_05_S23 01/04/2018 12:00:00 0.0
2018_01_05_S23 01/04/2018 12:05:00 0.0
2018_01_05_S23 01/04/2018 12:10:00 0.0
2018_01_05_S23 01/04/2018 12:15:00 0.0
2018_01_05_S23 01/04/2018 12:20:00 0.0
2018_01_05_S23 01/04/2018 12:25:00 0.0
2018_01_05_S23 01/04/2018 12:30:00 0.0455
2018_01_05_S23 01/04/2018 12:35:00 0.0
2018_01_05_S23 01/04/2018 12:40:00 0.0
2018_01_05_S23 01/04/2018 12:45:00 0.0
2018_01_05_S23 01/04/2018 12:50:00 0.0
2018_01_05_S23 01/04/2018 12:55:00 0.0
2018_01_05_S23 01/04/2018 13:00:00 0.0
2018_01_05_S23 01/04/2018 13:05:00 0.0
2018_01_05_S23 01/04/2018 13:10:00 0.0
2018_01_05_S23 01/04/2018 13:15:00 0.0009
2018_01_05_S23 01/04/2018 13:20:00 0.0
2018_01_05_S23 01/04/2018 13:25:00 0.0
2018_01_05_S23 01/04/2018 13:30:00 0.0
2018_01_05_S23 01/04/2018 13:35:00 0.0
2018_01_05_S23 01/04/2018 13:40:00 0.0
2018_01_05_S23 01/04/2018 13:45:00 0.0
2018_01_05_S23 01/04/2018 13:50:00 0.0
2018_01_05_S23 01/04/2018 13:55:00 0.0
2018_01_05_S23 01/04/2018 14:00:00 0.0085
2018_01_05_S23 01/04/2018 14:05:00 0.0001
2018_01_05_S23 01/04/2018 14:10:00 0.0002
2018_01_05_S23 01/04/2018 14:15:00 0.0051
2018_01_05_S23 01/04/2018 14:20:00 0.0021
2018_01_05_S23 01/04/2018 14:25:00 0.0119
2018_01_05_S23 01/04/2018 14:30:00 0.0071
2018_01_05_S23 01/04/2018 14:35:00 0.0229
2018_01_05_S23 01/04/2018 14:40:00 0.1012
2018_01_05_S23 01/04/2018 14:45:00 0.0
2018_01_05_S23 01/04/2018 14:50:00 0.0
2018_01_05_S23 01/04/2018 14:55:00 0.0
2018_01_05_S23 01/04/2018 15:00:00 0.0
2018_01_05_S23 01/04/2018 15:05:00 0.0
2018_01_05_S23 01/04/2018 15:10:00 0.0
2018_01_05_S23 01/04/2018 15:15:00 0.0
2018_01_05_S23 01/04/2018 15:20:00 0.0
2018_01_05_S23 01/04/2018 15:25:00 0.0
2018_01_05_S23 01/04/2018 15:30:00 0.0005
2018_01_05_S23 01/04/2018 15:35:00 0.5112
2018_01_05_S23 01/04/2018 15:40:00 0.0
2018_01_05_S23 01/04/2018 15:45:00 0.0
2018_01_05_S23 01/04/2018 15:50:00 0.0
2018_01_05_S23 01/04/2018 15:55:00 0.0138
2018_01_05_S23 01/04/2018 16:00:00 0.0474
2018_01_05_S23 01/04/2018 16:05:00 0.1538
2018_01_05_S23 01/04/2018 16:10:00 0.0111
2018_01_05_S23 01/04/2018 16:15:00 0.0092
2018_01_05_S23 01/04/2018 16:20:00 0.6287
2018_01_05_S23 01/04/2018 16:25:00 0.0542
2018_01_05_S23 01/04/2018 16:30:00 0.0409
2018_01_05_S23 01/04/2018 16:35:00 0.0
2018_01_05_S23 01/04/2018 16:40:00 0.0
2018_01_05_S23 01/04/2018 16:45:00 0.0
2018_01_05_S23 01/04/2018 16:50:00 0.0
2018_01_05_S23 01/04/2018 16:55:00 0.0
2018_01_05_S23 01/04/2018 17:00:00 0.0
2018_01_05_S23 01/04/2018 17:05:00 0.0
2018_01_05_S23 01/04/2018 17:10:00 0.4118
2018_01_05_S23 01/04/2018 17:15:00 0.0232
2018_01_05_S23 01/04/2018 17:20:00 0.0
2018_01_05_S23 01/04/2018 17:25:00 0.0
2018_01_05_S23 01/04/2018 17:30:00 0.0217
2018_01_05_S23 01/04/2018 17:35:00 1.3227
2018_01_05_S23 01/04/2018 17:40:00 0.2772
2018_01_05_S23 01/04/2018 17:45:00 0.8483
2018_01_05_S23 01/04/2018 17:50:00 0.6584
2018_01_05_S23 01/04/2018 17:55:00 0.2652
2018_01_05_S23 01/04/2018 18:00:00 0.2462
2018_01_05_S23 01/04/2018 18:05:00 0.3512
2018_01_05_S23 01/04/2018 18:10:00 0.1963
2018_01_05_S23 01/04/2018 18:15:00 0.1424
2018_01_05_S23 01/04/2018 18:20:00 0.0111
2018_01_05_S23 01/04/2018 18:25:00 0.0
2018_01_05_S23 01/04/2018 18:30:00 0.0
2018_01_05_S23 01/04/2018 18:35:00 0.0
2018_01_05_S23 01/04/2018 18:40:00 0.0
2018_01_05_S23 01/04/2018 18:45:00 0.0
2018_01_05_S23 01/04/2018 18:50:00 0.0
2018_01_05_S23 01/04/2018 18:55:00 0.0
2018_01_05_S23 01/04/2018 19:00:00 0.0
2018_01_05_S23 01/04/2018 19:05:00 0.0
2018_01_05_S23 01/04/2018 19:10:00 0.0
2018_01_05_S23 01/04/2018 19:15:00 0.0
2018_01_05_S23 01/04/2018 19:20:00 0.0
2018_01_05_S23 01/04/2018 19:25:00 0.0
2018_01_05_S23 01/04/2018 19:30:00 0.0
2018_01_05_S23 01/04/2018 19:35:00 0.0
2018_01_05_S23 01/04/2018 19:40:00 0.0013
2018_01_05_S23 01/04/2018 19:45:00 0.0
2018_01_05_S23 01/04/2018 19:50:00 0.0
2018_01_05_S23 01/04/2018 19:55:00 0.0
2018_01_05_S23 01/04/2018 20:00:00 0.0
2018_01_05_S23 01/04/2018 20:05:00 0.0
2018_01_05_S23 01/04/2018 20:10:00 0.0
2018_01_05_S23 01/04/2018 20:15:00 0.0
2018_01_05_S23 01/04/2018 20:20:00 0.0
2018_01_05_S23 01/04/2018 20:25:00 0.0
2018_01_05_S23 01/04/2018 20:30:00 0.005
2018_01_05_S23 01/04/2018 20:35:00 0.0
2018_01_05_S23 01/04/2018 20:40:00 0.0
2018_01_05_S23 01/04/2018 20:45:00 0.0
2018_01_05_S23 01/04/2018 20:50:00 0.0
2018_01_05_S23 01/04/2018 20:55:00 0.0
2018_01_05_S23 01/04/2018 21:00:00 0.0
2018_01_05_S23 01/04/2018 21:05:00 0.0
2018_01_05_S23 01/04/2018 21:10:00 0.0
2018_01_05_S23 01/04/2018 21:15:00 0.0
2018_01_05_S23 01/04/2018 21:20:00 0.0
2018_01_05_S23 01/04/2018 21:25:00 0.0195
2018_01_05_S23 01/04/2018 21:30:00 0.0225
2018_01_05_S23 01/04/2018 21:35:00 0.0144
2018_01_05_S23 01/04/2018 21:40:00 0.0246
2018_01_05_S23 01/04/2018 21:45:00 0.0076
2018_01_05_S23 01/04/2018 21:50:00 0.0
2018_01_05_S23 01/04/2018 21:55:00 0.0
2018_01_05_S23 01/04/2018 22:00:00 0.0
2018_01_05_S23 01/04/2018 22:05:00 0.0
2018_01_05_S23 01/04/2018 22:10:00 0.0
2018_01_05_S23 01/04/2018 22:15:00 0.0
2018_01_05_S23 01/04/2018 22:20:00 0.0
2018_01_05_S23 01/04/2018 22:25:00 0.0
2018_01_05_S23 01/04/2018 22:30:00 0.0
2018_01_05_S23 01/04/2018 22:35:00 0.0
2018_01_05_S23 01/04/2018 22:40:00 0.0
2018_01_05_S23 01/04/2018 22:45:00 0.0
2018_01_05_S23 01/04/2018 22:50:00 0.0
2018_01_05_S23 01/04/2018 22:55:00 0.0
2018_01_05_S23 01/04/2018 23:00:00 0.0
2018_01_05_S23 01/04/2018 23:05:00 0.0
2018_01_05_S23 01/04/2018 23:10:00 0.0
2018_01_05_S23 01/04/2018 23:15:00 0.0
2018_01_05_S23 01/04/2018 23:20:00 0.0
2018_01_05_S23 01/04/2018 23:25:00 0.0
2018_01_05_S23 01/04/2018 23:30:00 0.0
2018_01_05_S23 01/04/2018 23:35:00 0.0
2018_01_05_S23 01/04/2018 23:40:00 0.0
2018_01_05_S23 01/04/2018 23:45:00 0.0
2018_01_05_S23 01/04/2018 23:50:00 0.0
2018_01_05_S23 01/04/2018 23:55:00 0.0
2018_01_05_S23 01/05/2018 00:00:00 0.0
2018_01_05_S23 01/05/2018 00:05:00 0.0
2018_01_05_S23 01/05/2018 00:10:00 0.0
2018_01_05_S23 01/05/2018 00:15:00 0.0
2018_01_05_S23 01/05/2018 00:20:00 0.0
2018_01_05_S23 01/05/2018 00:25:00 0.0
2018_01_05_S23 01/05/2018 00:30:00 0.0
2018_01_05_S23 01/05/2018 00:35:00 0.0
2018_01_05_S23 01/05/2018 00:40:00 0.0
2018_01_05_S23 01/05/2018 00:45:00 0.0052
2018_01_05_S23 01/05/2018 00:50:00 0.129
2018_01_05_S23 01/05/2018 00:55:00 0.2021
2018_01_05_S23 01/05/2018 01:00:00 0.0073
2018_01_05_S23 01/05/2018 01:05:00 0.201
2018_01_05_S23 01/05/2018 01:10:00 0.048
2018_01_05_S23 01/05/2018 01:15:00 0.0112
2018_01_05_S23 01/05/2018 01:20:00 0.0594
2018_01_05_S23 01/05/2018 01:25:00 0.1893
2018_01_05_S23 01/05/2018 01:30:00 0.0134
2018_01_05_S23 01/05/2018 01:35:00 0.0753
2018_01_05_S23 01/05/2018 01:40:00 0.0
2018_01_05_S23 01/05/2018 01:45:00 0.0254
2018_01_05_S23 01/05/2018 01:50:00 0.0636
2018_01_05_S23 01/05/2018 01:55:00 0.0147
2018_01_05_S23 01/05/2018 02:00:00 0.0176
2018_01_05_S23 01/05/2018 02:05:00 0.0296
2018_01_05_S23 01/05/2018 02:10:00 0.0036
2018_01_05_S23 01/05/2018 02:15:00 0.0267
2018_01_05_S23 01/05/2018 02:20:00 0.0194
2018_01_05_S23 01/05/2018 02:25:00 0.0
2018_01_05_S23 01/05/2018 02:30:00 0.0
2018_01_05_S23 01/05/2018 02:35:00 0.0
2018_01_05_S23 01/05/2018 02:40:00 0.0
2018_01_05_S23 01/05/2018 02:45:00 0.0
2018_01_05_S23 01/05/2018 02:50:00 0.0
2018_01_05_S23 01/05/2018 02:55:00 0.0
2018_01_05_S23 01/05/2018 03:00:00 0.0
2018_01_05_S23 01/05/2018 03:05:00 0.1996
2018_01_05_S23 01/05/2018 03:10:00 0.4549
2018_01_05_S23 01/05/2018 03:15:00 0.2527
2018_01_05_S23 01/05/2018 03:20:00 0.5604
2018_01_05_S23 01/05/2018 03:25:00 0.5905
2018_01_05_S23 01/05/2018 03:30:00 0.3459
2018_01_05_S23 01/05/2018 03:35:00 0.1207
2018_01_05_S23 01/05/2018 03:40:00 0.0014
2018_01_05_S23 01/05/2018 03:45:00 0.0
2018_01_05_S23 01/05/2018 03:50:00 0.0515
2018_01_05_S23 01/05/2018 03:55:00 0.01
2018_01_05_S23 01/05/2018 04:00:00 0.0854
2018_01_05_S23 01/05/2018 04:05:00 0.0013
2018_01_05_S23 01/05/2018 04:10:00 0.0038
2018_01_05_S23 01/05/2018 04:15:00 0.0026
2018_01_05_S23 01/05/2018 04:20:00 0.0133
2018_01_05_S23 01/05/2018 04:25:00 0.0575
2018_01_05_S23 01/05/2018 04:30:00 0.0337
2018_01_05_S23 01/05/2018 04:35:00 0.0141
2018_01_05_S23 01/05/2018 04:40:00 0.0124
2018_01_05_S23 01/05/2018 04:45:00 0.1798
2018_01_05_S23 01/05/2018 04:50:00 0.0304
2018_01_05_S23 01/05/2018 04:55:00 0.0
2018_01_05_S23 01/05/2018 05:00:00 0.0203
2018_01_05_S23 01/05/2018 05:05:00 0.0031
2018_01_05_S23 01/05/2018 05:10:00 0.0073
2018_01_05_S23 01/05/2018 05:15:00 0.0
2018_01_05_S23 01/05/2018 05:20:00 0.0161
2018_01_05_S23 01/05/2018 05:25:00 0.0
2018_01_05_S23 01/05/2018 05:30:00 0.0003
2018_01_05_S23 01/05/2018 05:35:00 0.0
2018_01_05_S23 01/05/2018 05:40:00 0.0
2018_01_05_S23 01/05/2018 05:45:00 0.0035
2018_01_05_S23 01/05/2018 05:50:00 0.0
2018_01_05_S23 01/05/2018 05:55:00 0.0079
2018_01_05_S23 01/05/2018 06:00:00 0.1565
2018_01_05_S23 01/05/2018 06:05:00 0.2326
2018_01_05_S23 01/05/2018 06:10:00 0.0088
2018_01_05_S23 01/05/2018 06:15:00 0.0014
2018_01_05_S23 01/05/2018 06:20:00 0.9658
2018_01_05_S23 01/05/2018 06:25:00 2.6586
2018_01_05_S23 01/05/2018 06:30:00 2.1889
2018_01_05_S23 01/05/2018 06:35:00 1.311
2018_01_05_S23 01/05/2018 06:40:00 0.6051
2018_01_05_S23 01/05/2018 06:45:00 0.5821
2018_01_05_S23 01/05/2018 06:50:00 1.0208
2018_01_05_S23 01/05/2018 06:55:00 0.2896
2018_01_05_S23 01/05/2018 07:00:00 0.4089
2018_01_05_S23 01/05/2018 07:05:00 0.247
2018_01_05_S23 01/05/2018 07:10:00 0.0799
2018_01_05_S23 01/05/2018 07:15:00 0.0
2018_01_05_S23 01/05/2018 07:20:00 0.0
2018_01_05_S23 01/05/2018 07:25:00 0.0
2018_01_05_S23 01/05/2018 07:30:00 0.0
2018_01_05_S23 01/05/2018 07:35:00 0.0
2018_01_05_S23 01/05/2018 07:40:00 0.0
2018_01_05_S23 01/05/2018 07:45:00 0.0
2018_01_05_S23 01/05/2018 07:50:00 0.0
2018_01_05_S23 01/05/2018 07:55:00 0.0
2018_01_05_S23 01/05/2018 08:00:00 0.0016
2018_01_05_S23 01/05/2018 08:05:00 0.0
2018_01_05_S23 01/05/2018 08:10:00 0.0
2018_01_05_S23 01/05/2018 08:15:00 0.0116
2018_01_05_S23 01/05/2018 08:20:00 0.0
2018_01_05_S23 01/05/2018 08:25:00 0.0016
2018_01_05_S23 01/05/2018 08:30:00 0.0586
2018_01_05_S23 01/05/2018 08:35:00 0.1456
2018_01_05_S23 01/05/2018 08:40:00 0.5058
2018_01_05_S23 01/05/2018 08:45:00 1.6861
2018_01_05_S23 01/05/2018 08:50:00 0.7047
2018_01_05_S23 01/05/2018 08:55:00 1.8251
2018_01_05_S23 01/05/2018 09:00:00 0.7232
2018_01_05_S23 01/05/2018 09:05:00 0.8498
2018_01_05_S23 01/05/2018 09:10:00 0.8562
2018_01_05_S23 01/05/2018 09:15:00 0.3816
2018_01_05_S23 01/05/2018 09:20:00 0.0538
2018_01_05_S23 01/05/2018 09:25:00 0.0
2018_01_05_S23 01/05/2018 09:30:00 0.0
2018_01_05_S23 01/05/2018 09:35:00 0.0637
2018_01_05_S23 01/05/2018 09:40:00 2.8825
2018_01_05_S23 01/05/2018 09:45:00 0.1497
2018_01_05_S23 01/05/2018 09:50:00 0.694
2018_01_05_S23 01/05/2018 09:55:00 9.244
2018_01_05_S23 01/05/2018 10:00:00 0.0511
2018_01_05_S23 01/05/2018 10:05:00 0.1638
2018_01_05_S23 01/05/2018 10:10:00 0.0057
2018_01_05_S23 01/05/2018 10:15:00 0.0007
2018_01_05_S23 01/05/2018 10:20:00 0.0
2018_01_05_S23 01/05/2018 10:25:00 0.0069
2018_01_05_S23 01/05/2018 10:30:00 0.585
2018_01_05_S23 01/05/2018 10:35:00 0.0178
2018_01_05_S23 01/05/2018 10:40:00 0.1194
2018_01_05_S23 01/05/2018 10:45:00 0.2928
2018_01_05_S23 01/05/2018 10:50:00 0.1421
2018_01_05_S23 01/05/2018 10:55:00 0.0
2018_01_05_S23 01/05/2018 11:00:00 0.0259
2018_01_05_S23 01/05/2018 11:05:00 0.1723
2018_01_05_S23 01/05/2018 11:10:00 0.2295
2018_01_05_S23 01/05/2018 11:15:00 0.3799
2018_01_05_S23 01/05/2018 11:20:00 0.0952
2018_01_05_S23 01/05/2018 11:25:00 0.1543
2018_01_05_S23 01/05/2018 11:30:00 0.1393
2018_01_05_S23 01/05/2018 11:35:00 0.1972
2018_01_05_S23 01/05/2018 11:40:00 0.2939
2018_01_05_S23 01/05/2018 11:45:00 0.0601
2018_01_05_S23 01/05/2018 11:50:00 0.0019
2018_01_05_S23 01/05/2018 11:55:00 0.0002
2018_01_05_S23 01/05/2018 12:00:00 0.1353
2018_01_05_S23 01/05/2018 12:05:00 0.1522
2018_01_05_S23 01/05/2018 12:10:00 0.4953
2018_01_05_S23 01/05/2018 12:15:00 1.2038
2018_01_05_S23 01/05/2018 12:20:00 0.4656
2018_01_05_S23 01/05/2018 12:25:00 0.7976
2018_01_05_S23 01/05/2018 12:30:00 2.2047
2018_01_05_S23 01/05/2018 12:35:00 0.4637
2018_01_05_S23 01/05/2018 12:40:00 1.062
2018_01_05_S23 01/05/2018 12:45:00 3.2026
2018_01_05_S23 01/05/2018 12:50:00 0.417
2018_01_05_S23 01/05/2018 12:55:00 0.0427
2018_01_05_S23 01/05/2018 13:00:00 0.0306
2018_01_05_S23 01/05/2018 13:05:00 0.0517
2018_01_05_S23 01/05/2018 13:10:00 0.0014
2018_01_05_S23 01/05/2018 13:15:00 0.0
2018_01_05_S23 01/05/2018 13:20:00 0.0029
2018_01_05_S23 01/05/2018 13:25:00 0.0148
2018_01_05_S23 01/05/2018 13:30:00 0.0171
2018_01_05_S23 01/05/2018 13:35:00 0.012
2018_01_05_S23 01/05/2018 13:40:00 0.0059
2018_01_05_S23 01/05/2018 13:45:00 0.5094
2018_01_05_S23 01/05/2018 13:50:00 0.5933
2018_01_05_S23 01/05/2018 13:55:00 1.8696
2018_01_05_S23 01/05/2018 14:00:00 1.0331
2018_01_05_S23 01/05/2018 14:05:00 0.7869
2018_01_05_S23 01/05/2018 14:10:00 0.0484
2018_01_05_S23 01/05/2018 14:15:00 0.752
2018_01_05_S23 01/05/2018 14:20:00 0.0
2018_01_05_S23 01/05/2018 14:25:00 0.0
2018_01_05_S23 01/05/2018 14:30:00 0.0004
2018_01_05_S23 01/05/2018 14:35:00 0.0033
2018_01_05_S23 01/05/2018 14:40:00 0.0804
2018_01_05_S23 01/05/2018 14:45:00 0.2406
2018_01_05_S23 01/05/2018 14:50:00 0.014
2018_01_05_S23 01/05/2018 14:55:00 0.0008
2018_01_05_S23 01/05/2018 15:00:00 0.0007
2018_01_05_S23 01/05/2018 15:05:00 0.0
2018_01_05_S23 01/05/2018 15:10:00 0.0059
2018_01_05_S23 01/05/2018 15:15:00 0.0538
2018_01_05_S23 01/05/2018 15:20:00 1.4778
2018_01_05_S23 01/05/2018 15:25:00 0.0005
2018_01_05_S23 01/05/2018 15:30:00 0.0
2018_01_05_S23 01/05/2018 15:35:00 0.0136
2018_01_05_S23 01/05/2018 15:40:00 0.2019
2018_01_05_S23 01/05/2018 15:45:00 0.0
2018_01_05_S23 01/05/2018 15:50:00 0.0
2018_01_05_S23 01/05/2018 15:55:00 0.0
2018_01_05_S23 01/05/2018 16:00:00 0.0
2018_01_05_S23 01/05/2018 16:05:00 0.0
2018_01_05_S23 01/05/2018 16:10:00 0.0
2018_01_05_S23 01/05/2018 16:15:00 0.0
2018_01_05_S23 01/05/2018 16:20:00 0.0
2018_01_05_S23 01/05/2018 16:25:00 0.0
2018_01_05_S23 01/05/2018 16:30:00 0.0
2018_01_05_S23 01/05/2018 16:35:00 0.0
2018_01_05_S23 01/05/2018 16:40:00 0.0
2018_01_05_S23 01/05/2018 16:45:00 0.0
2018_01_05_S23 01/05/2018 16:50:00 0.0
2018_01_05_S23 01/05/2018 16:55:00 0.0
2018_01_05_S23 01/05/2018 17:00:00 0.0
2018_01_05_S23 01/05/2018 17:05:00 0.0
2018_01_05_S23 01/05/2018 17:10:00 0.0
2018_01_05_S23 01/05/2018 17:15:00 0.0
2018_01_05_S23 01/05/2018 17:20:00 0.0
2018_01_05_S23 01/05/2018 17:25:00 0.0
2018_01_05_S23 01/05/2018 17:30:00 0.0
2018_01_05_S23 01/05/2018 17:35:00 0.0
2018_01_05_S23 01/05/2018 17:40:00 0.0
2018_01_05_S23 01/05/2018 17:45:00 0.0
2018_01_05_S23 01/05/2018 17:50:00 0.0
2018_01_05_S23 01/05/2018 17:55:00 0.0112
2018_01_05_S23 01/05/2018 18:00:00 0.011
2018_01_05_S23 01/05/2018 18:05:00 0.0
2018_01_05_S23 01/05/2018 18:10:00 0.0
2018_01_05_S23 01/05/2018 18:15:00 0.0052
2018_01_05_S23 01/05/2018 18:20:00 0.0275
2018_01_05_S23 01/05/2018 18:25:00 0.0
2018_01_05_S23 01/05/2018 18:30:00 0.0
2018_01_05_S23 01/05/2018 18:35:00 0.0
2018_01_05_S23 01/05/2018 18:40:00 0.0
2018_01_05_S23 01/05/2018 18:45:00 0.0
2018_01_05_S23 01/05/2018 18:50:00 0.0
2018_01_05_S23 01/05/2018 18:55:00 0.0
2018_01_05_S23 01/05/2018 19:00:00 0.0
2018_01_05_S23 01/05/2018 19:05:00 0.0
2018_01_05_S23 01/05/2018 19:10:00 0.0
2018_01_05_S23 01/05/2018 19:15:00 0.0
2018_01_05_S23 01/05/2018 19:20:00 0.0
2018_01_05_S23 01/05/2018 19:25:00 0.0
2018_01_05_S23 01/05/2018 19:30:00 0.0
2018_01_05_S23 01/05/2018 19:35:00 0.0
2018_01_05_S23 01/05/2018 19:40:00 0.0
2018_01_05_S23 01/05/2018 19:45:00 0.0086
2018_01_05_S23 01/05/2018 19:50:00 0.0642
2018_01_05_S23 01/05/2018 19:55:00 0.0094
2018_01_05_S23 01/05/2018 20:00:00 0.0087
2018_01_05_S23 01/05/2018 20:05:00 0.0024
2018_01_05_S23 01/05/2018 20:10:00 0.0
2018_01_05_S23 01/05/2018 20:15:00 0.0
2018_01_05_S23 01/05/2018 20:20:00 0.0
2018_01_05_S23 01/05/2018 20:25:00 0.0
2018_01_05_S23 01/05/2018 20:30:00 0.0
2018_01_05_S23 01/05/2018 20:35:00 0.0
2018_01_05_S23 01/05/2018 20:40:00 0.0
2018_01_05_S23 01/05/2018 20:45:00 0.0
2018_01_05_S23 01/05/2018 20:50:00 0.0055
2018_01_05_S23 01/05/2018 20:55:00 0.0215
2018_01_05_S23 01/05/2018 21:00:00 0.0
2018_01_05_S23 01/05/2018 21:05:00 0.0
2018_01_05_S23 01/05/2018 21:10:00 0.0
2018_01_05_S23 01/05/2018 21:15:00 0.0
2018_01_05_S23 01/05/2018 21:20:00 0.0
2018_01_05_S23 01/05/2018 21:25:00 0.0
2018_01_05_S23 01/05/2018 21:30:00 0.0
2018_01_05_S23 01/05/2018 21:35:00 0.0
2018_01_05_S23 01/05/2018 21:40:00 0.0
2018_01_05_S23 01/05/2018 21:45:00 0.0
2018_01_05_S23 01/05/2018 21:50:00 0.0
2018_01_05_S23 01/05/2018 21:55:00 0.0
2018_01_05_S23 01/05/2018 22:00:00 0.0
2018_01_05_S23 01/05/2018 22:05:00 0.0
2018_01_05_S23 01/05/2018 22:10:00 0.0
2018_01_05_S23 01/05/2018 22:15:00 0.0
2018_01_05_S23 01/05/2018 22:20:00 0.0
2018_01_05_S23 01/05/2018 22:25:00 0.0349
2018_01_05_S23 01/05/2018 22:30:00 0.0
2018_01_05_S23 01/05/2018 22:35:00 0.0494
2018_01_05_S23 01/05/2018 22:40:00 0.0069
2018_01_05_S23 01/05/2018 22:45:00 0.0
2018_01_05_S23 01/05/2018 22:50:00 0.0
2018_01_05_S23 01/05/2018 22:55:00 0.0
2018_01_05_S23 01/05/2018 23:00:00 0.0
2018_01_05_S23 01/05/2018 23:05:00 0.0
2018_01_05_S23 01/05/2018 23:10:00 0.0
2018_01_05_S23 01/05/2018 23:15:00 0.0
2018_01_05_S23 01/05/2018 23:20:00 0.0
2018_01_05_S23 01/05/2018 23:25:00 0.0
2018_01_05_S23 01/05/2018 23:30:00 0.0
2018_01_05_S23 01/05/2018 23:35:00 0.0
2018_01_05_S23 01/05/2018 23:40:00 0.0
2018_01_05_S23 01/05/2018 23:45:00 0.1411
2018_01_05_S23 01/05/2018 23:50:00 0.0481
2018_01_05_S23 01/05/2018 23:55:00 0.0275
2018_01_05_S23 01/06/2018 00:00:00 0.0127
2018_01_05_S23 01/06/2018 00:05:00 0.2416
2018_01_05_S23 01/06/2018 00:10:00 0.0012
2018_01_05_S23 01/06/2018 00:15:00 0.3793
2018_01_05_S23 01/06/2018 00:20:00 0.0107
2018_01_05_S23 01/06/2018 00:25:00 0.0
2018_01_05_S23 01/06/2018 00:30:00 0.0
2018_01_05_S23 01/06/2018 00:35:00 0.0
2018_01_05_S23 01/06/2018 00:40:00 0.0
2018_01_05_S23 01/06/2018 00:45:00 0.0
2018_01_05_S23 01/06/2018 00:50:00 0.0
2018_01_05_S23 01/06/2018 00:55:00 0.0
2018_01_05_S23 01/06/2018 01:00:00 0.0
2018_01_05_S23 01/06/2018 01:05:00 0.0049
2018_01_05_S23 01/06/2018 01:10:00 0.0042
2018_01_05_S23 01/06/2018 01:15:00 0.0
2018_01_05_S23 01/06/2018 01:20:00 0.0
2018_01_05_S23 01/06/2018 01:25:00 0.0
2018_01_05_S23 01/06/2018 01:30:00 0.0
2018_01_05_S23 01/06/2018 01:35:00 0.0
2018_01_05_S23 01/06/2018 01:40:00 0.0
2018_01_05_S23 01/06/2018 01:45:00 0.0
2018_01_05_S23 01/06/2018 01:50:00 0.0
2018_01_05_S23 01/06/2018 01:55:00 0.0
2018_01_05_S23 01/06/2018 02:00:00 0.0
2018_01_05_S23 01/06/2018 02:05:00 0.0
2018_01_05_S23 01/06/2018 02:10:00 0.0
2018_01_05_S23 01/06/2018 02:15:00 0.0
2018_01_05_S23 01/06/2018 02:20:00 0.0
2018_01_05_S23 01/06/2018 02:25:00 0.0
2018_01_05_S23 01/06/2018 02:30:00 0.0
2018_01_05_S23 01/06/2018 02:35:00 0.0
2018_01_05_S23 01/06/2018 02:40:00 0.0046
2018_01_05_S23 01/06/2018 02:45:00 0.0792
2018_01_05_S23 01/06/2018 02:50:00 0.0069
2018_01_05_S23 01/06/2018 02:55:00 0.0
2018_01_05_S23 01/06/2018 03:00:00 0.0
2018_01_05_S23 01/06/2018 03:05:00 0.0
2018_01_05_S23 01/06/2018 03:10:00 0.0
2018_01_05_S23 01/06/2018 03:15:00 0.0
2018_01_05_S23 01/06/2018 03:20:00 0.0
2018_01_05_S23 01/06/2018 03:25:00 0.0003
2018_01_05_S23 01/06/2018 03:30:00 0.0
2018_01_05_S23 01/06/2018 03:35:00 0.0
2018_01_05_S23 01/06/2018 03:40:00 0.0
2018_01_05_S23 01/06/2018 03:45:00 0.0006
2018_01_05_S23 01/06/2018 03:50:00 0.0
2018_01_05_S23 01/06/2018 03:55:00 0.0
2018_01_05_S23 01/06/2018 04:00:00 0.0
2018_01_05_S23 01/06/2018 04:05:00 0.0
2018_01_05_S23 01/06/2018 04:10:00 0.0
2018_01_05_S23 01/06/2018 04:15:00 0.0
2018_01_05_S23 01/06/2018 04:20:00 0.0
2018_01_05_S23 01/06/2018 04:25:00 0.0
2018_01_05_S23 01/06/2018 04:30:00 0.0
2018_01_05_S23 01/06/2018 04:35:00 0.0
2018_01_05_S23 01/06/2018 04:40:00 0.0
2018_01_05_S23 01/06/2018 04:45:00 0.0
2018_01_05_S23 01/06/2018 04:50:00 0.0
2018_01_05_S23 01/06/2018 04:55:00 0.0
2018_01_05_S23 01/06/2018 05:00:00 0.0
2018_01_05_S23 01/06/2018 05:05:00 0.0
2018_01_05_S23 01/06/2018 05:10:00 0.0
2018_01_05_S23 01/06/2018 05:15:00 0.0
2018_01_05_S23 01/06/2018 05:20:00 0.0
2018_01_05_S23 01/06/2018 05:25:00 0.0
2018_01_05_S23 01/06/2018 05:30:00 0.0136
2018_01_05_S23 01/06/2018 05:35:00 1.4553
2018_01_05_S23 01/06/2018 05:40:00 0.0344
2018_01_05_S23 01/06/2018 05:45:00 0.0
2018_01_05_S23 01/06/2018 05:50:00 0.0022
2018_01_05_S23 01/06/2018 05:55:00 0.0114
2018_01_05_S23 01/06/2018 06:00:00 0.0
2018_01_05_S23 01/06/2018 06:05:00 0.0017
2018_01_05_S23 01/06/2018 06:10:00 0.0248
2018_01_05_S23 01/06/2018 06:15:00 0.002
2018_01_05_S23 01/06/2018 06:20:00 0.0145
2018_01_05_S23 01/06/2018 06:25:00 0.0041
2018_01_05_S23 01/06/2018 06:30:00 0.0
2018_01_05_S23 01/06/2018 06:35:00 0.0
2018_01_05_S23 01/06/2018 06:40:00 0.0
2018_01_05_S23 01/06/2018 06:45:00 0.0074
2018_01_05_S23 01/06/2018 06:50:00 0.0376
2018_01_05_S23 01/06/2018 06:55:00 0.0394
2018_01_05_S23 01/06/2018 07:00:00 0.0051
2018_01_05_S23 01/06/2018 07:05:00 0.0008
2018_01_05_S23 01/06/2018 07:10:00 0.0007
2018_01_05_S23 01/06/2018 07:15:00 0.0
2018_01_05_S23 01/06/2018 07:20:00 0.0
2018_01_05_S23 01/06/2018 07:25:00 0.0
2018_01_05_S23 01/06/2018 07:30:00 0.0
2018_01_05_S23 01/06/2018 07:35:00 0.0
2018_01_05_S23 01/06/2018 07:40:00 0.0122
2018_01_05_S23 01/06/2018 07:45:00 0.0572
2018_01_05_S23 01/06/2018 07:50:00 0.0924
2018_01_05_S23 01/06/2018 07:55:00 0.0135
2018_01_05_S23 01/06/2018 08:00:00 0.0

2018_01_05_S24 01/04/2018 10:25:00 0.0277
2018_01_05_S24 01/04/2018 10:30:00 0.03
2018_01_05_S24 01/04/2018 10:35:00 0.0719
2018_01_05_S24 01/04/2018 10:40:00 0.0202
2018_01_05_S24 01/04/2018 10:45:00 0.0987
2018_01_05_S24 01/04/2018 10:50:00 0.1681
2018_01_05_S24 01/04/2018 10:55:00 0.0
2018_01_05_S24 01/04/2018 11:00:00 0.0
2018_01_05_S24 01/04/2018 11:05:00 0.9087
2018_01_05_S24 01/04/2018 11:10:00 0.1311
2018_01_05_S24 01/04/2018 11:15:00 6.5071
2018_01_05_S24 01/04/2018 11:20:00 0.3484
2018_01_05_S24 01/04/2018 11:25:00 0.3594
2018_01_05_S24 01/04/2018 11:30:00 0.0
2018_01_05_S24 01/04/2018 11:35:00 0.0
2018_01_05_S24 01/04/2018 11:40:00 0.0
2018_01_05_S24 01/04/2018 11:45:00 0.0
2018_01_05_S24 01/04/2018 11:50:00 0.0
2018_01_05_S24 01/04/2018 11:55:00 0.0
2018_01_05_S24 01/04/2018 12:00:00 0.0
2018_01_05_S24 01/04/2018 12:05:00 0.0
2018_01_05_S24 01/04/2018 12:10:00 0.0
2018_01_05_S24 01/04/2018 12:15:00 0.0
2018_01_05_S24 01/04/2018 12:20:00 0.0
2018_01_05_S24 01/04/2018 12:25:00 0.0
2018_01_05_S24 01/04/2018 12:30:00 0.0203
2018_01_05_S24 01/04/2018 12:35:00 0.0
2018_01_05_S24 01/04/2018 12:40:00 0.0
2018_01_05_S24 01/04/2018 12:45:00 0.0
2018_01_05_S24 01/04/2018 12:50:00 0.0
2018_01_05_S24 01/04/2018 12:55:00 0.0
2018_01_05_S24 01/04/2018 13:00:00 0.0
2018_01_05_S24 01/04/2018 13:05:00 0.0
2018_01_05_S24 01/04/2018 13:10:00 0.0
2018_01_05_S24 01/04/2018 13:15:00 0.0101
2018_01_05_S24 01/04/2018 13:20:00 0.0
2018_01_05_S24 01/04/2018 13:25:00 0.0
2018_01_05_S24 01/04/2018 13:30:00 0.0
2018_01_05_S24 01/04/2018 13:35:00 0.0
2018_01_05_S24 01/04/2018 13:40:00 0.0
2018_01_05_S24 01/04/2018 13:45:00 0.0
2018_01_05_S24 01/04/2018 13:50:00 0.0
2018_01_05_S24 01/04/2018 13:55:00 0.0
2018_01_05_S24 01/04/2018 14:00:00 0.0067
2018_01_05_S24 01/04/2018 14:05:00 0.0
2018_01_05_S24 01/04/2018 14:10:00 0.0027
2018_01_05_S24 01/04/2018 14:15:00 0.0037
2018_01_05_S24 01/04/2018 14:20:00 0.0026
2018_01_05_S24 01/04/2018 14:25:00 0.0088
2018_01_05_S24 01/04/2018 14:30:00 0.0067
2018_01_05_S24 01/04/2018 14:35:00 0.0172
2018_01_05_S24 01/04/2018 14:40:00 0.0101
2018_01_05_S24 01/04/2018 14:45:00 0.0
2018_01_05_S24 01/04/2018 14:50:00 0.0
2018_01_05_S24 01/04/2018 14:55:00 0.0
2018_01_05_S24 01/04/2018 15:00:00 0.0
2018_01_05_S24 01/04/2018 15:05:00 0.0
2018_01_05_S24 01/04/2018 15:10:00 0.0
2018_01_05_S24 01/04/2018 15:15:00 0.0
2018_01_05_S24 01/04/2018 15:20:00 0.0
2018_01_05_S24 01/04/2018 15:25:00 0.0
2018_01_05_S24 01/04/2018 15:30:00 0.0
2018_01_05_S24 01/04/2018 15:35:00 0.1363
2018_01_05_S24 01/04/2018 15:40:00 0.0
2018_01_05_S24 01/04/2018 15:45:00 0.0
2018_01_05_S24 01/04/2018 15:50:00 0.0
2018_01_05_S24 01/04/2018 15:55:00 0.0128
2018_01_05_S24 01/04/2018 16:00:00 0.0592
2018_01_05_S24 01/04/2018 16:05:00 0.1843
2018_01_05_S24 01/04/2018 16:10:00 0.0049
2018_01_05_S24 01/04/2018 16:15:00 0.02
2018_01_05_S24 01/04/2018 16:20:00 0.5435
2018_01_05_S24 01/04/2018 16:25:00 0.0167
2018_01_05_S24 01/04/2018 16:30:00 0.1108
2018_01_05_S24 01/04/2018 16:35:00 0.0
2018_01_05_S24 01/04/2018 16:40:00 0.0
2018_01_05_S24 01/04/2018 16:45:00 0.0
2018_01_05_S24 01/04/2018 16:50:00 0.0
2018_01_05_S24 01/04/2018 16:55:00 0.0
2018_01_05_S24 01/04/2018 17:00:00 0.0
2018_01_05_S24 01/04/2018 17:05:00 0.0
2018_01_05_S24 01/04/2018 17:10:00 0.4748
2018_01_05_S24 01/04/2018 17:15:00 0.0
2018_01_05_S24 01/04/2018 17:20:00 0.0
2018_01_05_S24 01/04/2018 17:25:00 0.0
2018_01_05_S24 01/04/2018 17:30:00 0.0057
2018_01_05_S24 01/04/2018 17:35:00 0.7401
2018_01_05_S24 01/04/2018 17:40:00 0.423
2018_01_05_S24 01/04/2018 17:45:00 0.6956
2018_01_05_S24 01/04/2018 17:50:00 0.9102
2018_01_05_S24 01/04/2018 17:55:00 0.1843
2018_01_05_S24 01/04/2018 18:00:00 0.3059
2018_01_05_S24 01/04/2018 18:05:00 0.3627
2018_01_05_S24 01/04/2018 18:10:00 0.2232
2018_01_05_S24 01/04/2018 18:15:00 0.1831
2018_01_05_S24 01/04/2018 18:20:00 0.0051
2018_01_05_S24 01/04/2018 18:25:00 0.0
2018_01_05_S24 01/04/2018 18:30:00 0.0
2018_01_05_S24 01/04/2018 18:35:00 0.0
2018_01_05_S24 01/04/2018 18:40:00 0.0
2018_01_05_S24 01/04/2018 18:45:00 0.0
2018_01_05_S24 01/04/2018 18:50:00 0.0
2018_01_05_S24 01/04/2018 18:55:00 0.0
2018_01_05_S24 01/04/2018 19:00:00 0.0
2018_01_05_S24 01/04/2018 19:05:00 0.0
2018_01_05_S24 01/04/2018 19:10:00 0.0
2018_01_05_S24 01/04/2018 19:15:00 0.0
2018_01_05_S24 01/04/2018 19:20:00 0.0
2018_01_05_S24 01/04/2018 19:25:00 0.0
2018_01_05_S24 01/04/2018 19:30:00 0.0
2018_01_05_S24 01/04/2018 19:35:00 0.0
2018_01_05_S24 01/04/2018 19:40:00 0.0144
2018_01_05_S24 01/04/2018 19:45:00 0.0
2018_01_05_S24 01/04/2018 19:50:00 0.0
2018_01_05_S24 01/04/2018 19:55:00 0.0
2018_01_05_S24 01/04/2018 20:00:00 0.0
2018_01_05_S24 01/04/2018 20:05:00 0.0
2018_01_05_S24 01/04/2018 20:10:00 0.0
2018_01_05_S24 01/04/2018 20:15:00 0.0
2018_01_05_S24 01/04/2018 20:20:00 0.0
2018_01_05_S24 01/04/2018 20:25:00 0.0
2018_01_05_S24 01/04/2018 20:30:00 0.0
2018_01_05_S24 01/04/2018 20:35:00 0.0
2018_01_05_S24 01/04/2018 20:40:00 0.0
2018_01_05_S24 01/04/2018 20:45:00 0.0
2018_01_05_S24 01/04/2018 20:50:00 0.0
2018_01_05_S24 01/04/2018 20:55:00 0.0
2018_01_05_S24 01/04/2018 21:00:00 0.0
2018_01_05_S24 01/04/2018 21:05:00 0.0
2018_01_05_S24 01/04/2018 21:10:00 0.0
2018_01_05_S24 01/04/2018 21:15:00 0.0
2018_01_05_S24 01/04/2018 21:20:00 0.0
2018_01_05_S24 01/04/2018 21:25:00 0.0279
2018_01_05_S24 01/04/2018 21:30:00 0.1377
2018_01_05_S24 01/04/2018 21:35:00 0.0032
2018_01_05_S24 01/04/2018 21:40:00 0.0071
2018_01_05_S24 01/04/2018 21:45:00 0.0054
2018_01_05_S24 01/04/2018 21:50:00 0.0
2018_01_05_S24 01/04/2018 21:55:00 0.0
2018_01_05_S24 01/04/2018 22:00:00 0.0
2018_01_05_S24 01/04/2018 22:05:00 0.0
2018_01_05_S24 01/04/2018 22:10:00 0.0
2018_01_05_S24 01/04/2018 22:15:00 0.0
2018_01_05_S24 01/04/2018 22:20:00 0.0
2018_01_05_S24 01/04/2018 22:25:00 0.0
2018_01_05_S24 01/04/2018 22:30:00 0.0
2018_01_05_S24 01/04/2018 22:35:00 0.0
2018_01_05_S24 01/04/2018 22:40:00 0.0
2018_01_05_S24 01/04/2018 22:45:00 0.0
2018_01_05_S24 01/04/2018 22:50:00 0.0
2018_01_05_S24 01/04/2018 22:55:00 0.0
2018_01_05_S24 01/04/2018 23:00:00 0.0
2018_01_05_S24 01/04/2018 23:05:00 0.0
2018_01_05_S24 01/04/2018 23:10:00 0.0
2018_01_05_S24 01/04/2018 23:15:00 0.0
2018_01_05_S24 01/04/2018 23:20:00 0.0
2018_01_05_S24 01/04/2018 23:25:00 0.0
2018_01_05_S24 01/04/2018 23:30:00 0.0
2018_01_05_S24 01/04/2018 23:35:00 0.0
2018_01_05_S24 01/04/2018 23:40:00 0.0
2018_01_05_S24 01/04/2018 23:45:00 0.0
2018_01_05_S24 01/04/2018 23:50:00 0.0
2018_01_05_S24 01/04/2018 23:55:00 0.0
2018_01_05_S24 01/05/2018 00:00:00 0.0
2018_01_05_S24 01/05/2018 00:05:00 0.0
2018_01_05_S24 01/05/2018 00:10:00 0.0
2018_01_05_S24 01/05/2018 00:15:00 0.0
2018_01_05_S24 01/05/2018 00:20:00 0.0
2018_01_05_S24 01/05/2018 00:25:00 0.0
2018_01_05_S24 01/05/2018 00:30:00 0.0
2018_01_05_S24 01/05/2018 00:35:00 0.0
2018_01_05_S24 01/05/2018 00:40:00 0.0
2018_01_05_S24 01/05/2018 00:45:00 0.0022
2018_01_05_S24 01/05/2018 00:50:00 0.1417
2018_01_05_S24 01/05/2018 00:55:00 0.2866
2018_01_05_S24 01/05/2018 01:00:00 0.0
2018_01_05_S24 01/05/2018 01:05:00 0.3262
2018_01_05_S24 01/05/2018 01:10:00 0.0387
2018_01_05_S24 01/05/2018 01:15:00 0.0107
2018_01_05_S24 01/05/2018 01:20:00 0.1328
2018_01_05_S24 01/05/2018 01:25:00 0.1344
2018_01_05_S24 01/05/2018 01:30:00 0.0102
2018_01_05_S24 01/05/2018 01:35:00 0.0621
2018_01_05_S24 01/05/2018 01:40:00 0.0
2018_01_05_S24 01/05/2018 01:45:00 0.0699
2018_01_05_S24 01/05/2018 01:50:00 0.069
2018_01_05_S24 01/05/2018 01:55:00 0.0094
2018_01_05_S24 01/05/2018 02:00:00 0.0116
2018_01_05_S24 01/05/2018 02:05:00 0.0167
2018_01_05_S24 01/05/2018 02:10:00 0.0116
2018_01_05_S24 01/05/2018 02:15:00 0.0113
2018_01_05_S24 01/05/2018 02:20:00 0.0109
2018_01_05_S24 01/05/2018 02:25:00 0.0
2018_01_05_S24 01/05/2018 02:30:00 0.0
2018_01_05_S24 01/05/2018 02:35:00 0.0
2018_01_05_S24 01/05/2018 02:40:00 0.0
2018_01_05_S24 01/05/2018 02:45:00 0.0
2018_01_05_S24 01/05/2018 02:50:00 0.0
2018_01_05_S24 01/05/2018 02:55:00 0.0
2018_01_05_S24 01/05/2018 03:00:00 0.0
2018_01_05_S24 01/05/2018 03:05:00 0.2259
2018_01_05_S24 01/05/2018 03:10:00 0.6686
2018_01_05_S24 01/05/2018 03:15:00 0.3018
2018_01_05_S24 01/05/2018 03:20:00 0.7537
2018_01_05_S24 01/05/2018 03:25:00 0.3949
2018_01_05_S24 01/05/2018 03:30:00 0.4361
2018_01_05_S24 01/05/2018 03:35:00 0.0927
2018_01_05_S24 01/05/2018 03:40:00 0.0
2018_01_05_S24 01/05/2018 03:45:00 0.001
2018_01_05_S24 01/05/2018 03:50:00 0.0607
2018_01_05_S24 01/05/2018 03:55:00 0.0119
2018_01_05_S24 01/05/2018 04:00:00 0.0622
2018_01_05_S24 01/05/2018 04:05:00 0.0
2018_01_05_S24 01/05/2018 04:10:00 0.005
2018_01_05_S24 01/05/2018 04:15:00 0.0
2018_01_05_S24 01/05/2018 04:20:00 0.0201
2018_01_05_S24 01/05/2018 04:25:00 0.0878
2018_01_05_S24 01/05/2018 04:30:00 0.0371
2018_01_05_S24 01/05/2018 04:35:00 0.036
2018_01_05_S24 01/05/2018 04:40:00 0.0118
2018_01_05_S24 01/05/2018 04:45:00 0.2123
2018_01_05_S24 01/05/2018 04:50:00 0.023
2018_01_05_S24 01/05/2018 04:55:00 0.0
2018_01_05_S24 01/05/2018 05:00:00 0.0502
2018_01_05_S24 01/05/2018 05:05:00 0.0033
2018_01_05_S24 01/05/2018 05:10:00 0.0022
2018_01_05_S24 01/05/2018 05:15:00 0.0
2018_01_05_S24 01/05/2018 05:20:00 0.0246
2018_01_05_S24 01/05/2018 05:25:00 0.0
2018_01_05_S24 01/05/2018 05:30:00 0.0
2018_01_05_S24 01/05/2018 05:35:00 0.0
2018_01_05_S24 01/05/2018 05:40:00 0.0
2018_01_05_S24 01/05/2018 05:45:00 0.0067
2018_01_05_S24 01/05/2018 05:50:00 0.0
2018_01_05_S24 01/05/2018 05:55:00 0.0042
2018_01_05_S24 01/05/2018 06:00:00 0.1812
2018_01_05_S24 01/05/2018 06:05:00 0.2505
2018_01_05_S24 01/05/2018 06:10:00 0.0053
2018_01_05_S24 01/05/2018 06:15:00 0.0106
2018_01_05_S24 01/05/2018 06:20:00 1.3372
2018_01_05_S24 01/05/2018 06:25:00 1.8394
2018_01_05_S24 01/05/2018 06:30:00 1.3867
2018_01_05_S24 01/05/2018 06:35:00 1.1744
2018_01_05_S24 01/05/2018 06:40:00 0.435
2018_01_05_S24 01/05/2018 06:45:00 0.4789
2018_01_05_S24 01/05/2018 06:50:00 1.4547
2018_01_05_S24 01/05/2018 06:55:00 0.1914
2018_01_05_S24 01/05/2018 07:00:00 0.4447
2018_01_05_S24 01/05/2018 07:05:00 0.1915
2018_01_05_S24 01/05/2018 07:10:00 0.0418
2018_01_05_S24 01/05/2018 07:15:00 0.0
2018_01_05_S24 01/05/2018 07:20:00 0.0
2018_01_05_S24 01/05/2018 07:25:00 0.0
2018_01_05_S24 01/05/2018 07:30:00 0.0
2018_01_05_S24 01/05/2018 07:35:00 0.0
2018_01_05_S24 01/05/2018 07:40:00 0.0
2018_01_05_S24 01/05/2018 07:45:00 0.0
2018_01_05_S24 01/05/2018 07:50:00 0.0
2018_01_05_S24 01/05/2018 07:55:00 0.0
2018_01_05_S24 01/05/2018 08:00:00 0.0119
2018_01_05_S24 01/05/2018 08:05:00 0.0
2018_01_05_S24 01/05/2018 08:10:00 0.0
2018_01_05_S24 01/05/2018 08:15:00 0.0582
2018_01_05_S24 01/05/2018 08:20:00 0.0
2018_01_05_S24 01/05/2018 08:25:00 0.0109
2018_01_05_S24 01/05/2018 08:30:00 0.1426
2018_01_05_S24 01/05/2018 08:35:00 0.4837
2018_01_05_S24 01/05/2018 08:40:00 0.6931
2018_01_05_S24 01/05/2018 08:45:00 2.1048
2018_01_05_S24 01/05/2018 08:50:00 0.6925
2018_01_05_S24 01/05/2018 08:55:00 1.9475
2018_01_05_S24 01/05/2018 09:00:00 0.6258
2018_01_05_S24 01/05/2018 09:05:00 1.0888
2018_01_05_S24 01/05/2018 09:10:00 0.9359
2018_01_05_S24 01/05/2018 09:15:00 0.2049
2018_01_05_S24 01/05/2018 09:20:00 0.0207
2018_01_05_S24 01/05/2018 09:25:00 0.0
2018_01_05_S24 01/05/2018 09:30:00 0.0
2018_01_05_S24 01/05/2018 09:35:00 0.0299
2018_01_05_S24 01/05/2018 09:40:00 3.1621
2018_01_05_S24 01/05/2018 09:45:00 0.057
2018_01_05_S24 01/05/2018 09:50:00 0.6775
2018_01_05_S24 01/05/2018 09:55:00 8.805
2018_01_05_S24 01/05/2018 10:00:00 0.2649
2018_01_05_S24 01/05/2018 10:05:00 0.4771
2018_01_05_S24 01/05/2018 10:10:00 0.0
2018_01_05_S24 01/05/2018 10:15:00 0.0026
2018_01_05_S24 01/05/2018 10:20:00 0.0
2018_01_05_S24 01/05/2018 10:25:00 0.0357
2018_01_05_S24 01/05/2018 10:30:00 0.6412
2018_01_05_S24 01/05/2018 10:35:00 0.018
2018_01_05_S24 01/05/2018 10:40:00 0.1798
2018_01_05_S24 01/05/2018 10:45:00 0.7067
2018_01_05_S24 01/05/2018 10:50:00 0.1235
2018_01_05_S24 01/05/2018 10:55:00 0.0
2018_01_05_S24 01/05/2018 11:00:00 0.0386
2018_01_05_S24 01/05/2018 11:05:00 0.1914
2018_01_05_S24 01/05/2018 11:10:00 0.1635
2018_01_05_S24 01/05/2018 11:15:00 0.4985
2018_01_05_S24 01/05/2018 11:20:00 0.102
2018_01_05_S24 01/05/2018 11:25:00 0.1198
2018_01_05_S24 01/05/2018 11:30:00 0.1296
2018_01_05_S24 01/05/2018 11:35:00 0.1884
2018_01_05_S24 01/05/2018 11:40:00 0.2886
2018_01_05_S24 01/05/2018 11:45:00 0.0284
2018_01_05_S24 01/05/2018 11:50:00 0.0
2018_01_05_S24 01/05/2018 11:55:00 0.0029
2018_01_05_S24 01/05/2018 12:00:00 0.1063
2018_01_05_S24 01/05/2018 12:05:00 0.1785
2018_01_05_S24 01/05/2018 12:10:00 0.6204
2018_01_05_S24 01/05/2018 12:15:00 1.1232
2018_01_05_S24 01/05/2018 12:20:00 0.4609
2018_01_05_S24 01/05/2018 12:25:00 0.4968
2018_01_05_S24 01/05/2018 12:30:00 1.1948
2018_01_05_S24 01/05/2018 12:35:00 0.6198
2018_01_05_S24 01/05/2018 12:40:00 0.6755
2018_01_05_S24 01/05/2018 12:45:00 2.9166
2018_01_05_S24 01/05/2018 12:50:00 0.0351
2018_01_05_S24 01/05/2018 12:55:00 0.0285
2018_01_05_S24 01/05/2018 13:00:00 0.0284
2018_01_05_S24 01/05/2018 13:05:00 0.1273
2018_01_05_S24 01/05/2018 13:10:00 0.0
2018_01_05_S24 01/05/2018 13:15:00 0.0
2018_01_05_S24 01/05/2018 13:20:00 0.0049
2018_01_05_S24 01/05/2018 13:25:00 0.0149
2018_01_05_S24 01/05/2018 13:30:00 0.0155
2018_01_05_S24 01/05/2018 13:35:00 0.0049
2018_01_05_S24 01/05/2018 13:40:00 0.0075
2018_01_05_S24 01/05/2018 13:45:00 0.5629
2018_01_05_S24 01/05/2018 13:50:00 0.3509
2018_01_05_S24 01/05/2018 13:55:00 2.5353
2018_01_05_S24 01/05/2018 14:00:00 1.4815
2018_01_05_S24 01/05/2018 14:05:00 1.0525
2018_01_05_S24 01/05/2018 14:10:00 0.0825
2018_01_05_S24 01/05/2018 14:15:00 0.9588
2018_01_05_S24 01/05/2018 14:20:00 0.0
2018_01_05_S24 01/05/2018 14:25:00 0.0
2018_01_05_S24 01/05/2018 14:30:00 0.0
2018_01_05_S24 01/05/2018 14:35:00 0.0217
2018_01_05_S24 01/05/2018 14:40:00 0.1078
2018_01_05_S24 01/05/2018 14:45:00 0.2578
2018_01_05_S24 01/05/2018 14:50:00 0.0077
2018_01_05_S24 01/05/2018 14:55:00 0.0
2018_01_05_S24 01/05/2018 15:00:00 0.0
2018_01_05_S24 01/05/2018 15:05:00 0.0
2018_01_05_S24 01/05/2018 15:10:00 0.0054
2018_01_05_S24 01/05/2018 15:15:00 0.0815
2018_01_05_S24 01/05/2018 15:20:00 1.4597
2018_01_05_S24 01/05/2018 15:25:00 0.0
2018_01_05_S24 01/05/2018 15:30:00 0.0
2018_01_05_S24 01/05/2018 15:35:00 0.0749
2018_01_05_S24 01/05/2018 15:40:00 0.1516
2018_01_05_S24 01/05/2018 15:45:00 0.0
2018_01_05_S24 01/05/2018 15:50:00 0.0
2018_01_05_S24 01/05/2018 15:55:00 0.0
2018_01_05_S24 01/05/2018 16:00:00 0.0
2018_01_05_S24 01/05/2018 16:05:00 0.0
2018_01_05_S24 01/05/2018 16:10:00 0.0
2018_01_05_S24 01/05/2018 16:15:00 0.0
2018_01_05_S24 01/05/2018 16:20:00 0.0
2018_01_05_S24 01/05/2018 16:25:00 0.0
2018_01_05_S24 01/05/2018 16:30:00 0.0
2018_01_05_S24 01/05/2018 16:35:00 0.0
2018_01_05_S24 01/05/2018 16:40:00 0.0
2018_01_05_S24 01/05/2018 16:45:00 0.0
2018_01_05_S24 01/05/2018 16:50:00 0.0
2018_01_05_S24 01/05/2018 16:55:00 0.0
2018_01_05_S24 01/05/2018 17:00:00 0.0
2018_01_05_S24 01/05/2018 17:05:00 0.0
2018_01_05_S24 01/05/2018 17:10:00 0.0
2018_01_05_S24 01/05/2018 17:15:00 0.0
2018_01_05_S24 01/05/2018 17:20:00 0.0
2018_01_05_S24 01/05/2018 17:25:00 0.0
2018_01_05_S24 01/05/2018 17:30:00 0.0
2018_01_05_S24 01/05/2018 17:35:00 0.0
2018_01_05_S24 01/05/2018 17:40:00 0.0
2018_01_05_S24 01/05/2018 17:45:00 0.0
2018_01_05_S24 01/05/2018 17:50:00 0.0
2018_01_05_S24 01/05/2018 17:55:00 0.0188
2018_01_05_S24 01/05/2018 18:00:00 0.0064
2018_01_05_S24 01/05/2018 18:05:00 0.0
2018_01_05_S24 01/05/2018 18:10:00 0.0
2018_01_05_S24 01/05/2018 18:15:00 0.0037
2018_01_05_S24 01/05/2018 18:20:00 0.0201
2018_01_05_S24 01/05/2018 18:25:00 0.0
2018_01_05_S24 01/05/2018 18:30:00 0.0
2018_01_05_S24 01/05/2018 18:35:00 0.0
2018_01_05_S24 01/05/2018 18:40:00 0.0
2018_01_05_S24 01/05/2018 18:45:00 0.0
2018_01_05_S24 01/05/2018 18:50:00 0.0
2018_01_05_S24 01/05/2018 18:55:00 0.0
2018_01_05_S24 01/05/2018 19:00:00 0.0
2018_01_05_S24 01/05/2018 19:05:00 0.0
2018_01_05_S24 01/05/2018 19:10:00 0.0
2018_01_05_S24 01/05/2018 19:15:00 0.0
2018_01_05_S24 01/05/2018 19:20:00 0.0
2018_01_05_S24 01/05/2018 19:25:00 0.0
2018_01_05_S24 01/05/2018 19:30:00 0.0
2018_01_05_S24 01/05/2018 19:35:00 0.0
2018_01_05_S24 01/05/2018 19:40:00 0.0
2018_01_05_S24 01/05/2018 19:45:00 0.0342
2018_01_05_S24 01/05/2018 19:50:00 0.0526
2018_01_05_S24 01/05/2018 19:55:00 0.0
2018_01_05_S24 01/05/2018 20:00:00 0.0057
2018_01_05_S24 01/05/2018 20:05:00 0.0
2018_01_05_S24 01/05/2018 20:10:00 0.0
2018_01_05_S24 01/05/2018 20:15:00 0.0
2018_01_05_S24 01/05/2018 20:20:00 0.0
2018_01_05_S24 01/05/2018 20:25:00 0.0
2018_01_05_S24 01/05/2018 20:30:00 0.0
2018_01_05_S24 01/05/2018 20:35:00 0.0
2018_01_05_S24 01/05/2018 20:40:00 0.0
2018_01_05_S24 01/05/2018 20:45:00 0.0
2018_01_05_S24 01/05/2018 20:50:00 0.1708
2018_01_05_S24 01/05/2018 20:55:00 0.0
2018_01_05_S24 01/05/2018 21:00:00 0.0
2018_01_05_S24 01/05/2018 21:05:00 0.0
2018_01_05_S24 01/05/2018 21:10:00 0.0
2018_01_05_S24 01/05/2018 21:15:00 0.0
2018_01_05_S24 01/05/2018 21:20:00 0.0
2018_01_05_S24 01/05/2018 21:25:00 0.0
2018_01_05_S24 01/05/2018 21:30:00 0.0
2018_01_05_S24 01/05/2018 21:35:00 0.0
2018_01_05_S24 01/05/2018 21:40:00 0.0
2018_01_05_S24 01/05/2018 21:45:00 0.0
2018_01_05_S24 01/05/2018 21:50:00 0.0
2018_01_05_S24 01/05/2018 21:55:00 0.0
2018_01_05_S24 01/05/2018 22:00:00 0.0
2018_01_05_S24 01/05/2018 22:05:00 0.0
2018_01_05_S24 01/05/2018 22:10:00 0.0
2018_01_05_S24 01/05/2018 22:15:00 0.0
2018_01_05_S24 01/05/2018 22:20:00 0.0
2018_01_05_S24 01/05/2018 22:25:00 0.0224
2018_01_05_S24 01/05/2018 22:30:00 0.0
2018_01_05_S24 01/05/2018 22:35:00 0.0773
2018_01_05_S24 01/05/2018 22:40:00 0.0227
2018_01_05_S24 01/05/2018 22:45:00 0.0
2018_01_05_S24 01/05/2018 22:50:00 0.0
2018_01_05_S24 01/05/2018 22:55:00 0.0
2018_01_05_S24 01/05/2018 23:00:00 0.0
2018_01_05_S24 01/05/2018 23:05:00 0.0
2018_01_05_S24 01/05/2018 23:10:00 0.0
2018_01_05_S24 01/05/2018 23:15:00 0.0
2018_01_05_S24 01/05/2018 23:20:00 0.0
2018_01_05_S24 01/05/2018 23:25:00 0.0
2018_01_05_S24 01/05/2018 23:30:00 0.0
2018_01_05_S24 01/05/2018 23:35:00 0.0
2018_01_05_S24 01/05/2018 23:40:00 0.0
2018_01_05_S24 01/05/2018 23:45:00 0.1115
2018_01_05_S24 01/05/2018 23:50:00 0.0177
2018_01_05_S24 01/05/2018 23:55:00 0.0277
2018_01_05_S24 01/06/2018 00:00:00 0.0049
2018_01_05_S24 01/06/2018 00:05:00 0.5417
2018_01_05_S24 01/06/2018 00:10:00 0.0044
2018_01_05_S24 01/06/2018 00:15:00 0.7964
2018_01_05_S24 01/06/2018 00:20:00 0.0
2018_01_05_S24 01/06/2018 00:25:00 0.0
2018_01_05_S24 01/06/2018 00:30:00 0.0
2018_01_05_S24 01/06/2018 00:35:00 0.0
2018_01_05_S24 01/06/2018 00:40:00 0.0
2018_01_05_S24 01/06/2018 00:45:00 0.0
2018_01_05_S24 01/06/2018 00:50:00 0.0
2018_01_05_S24 01/06/2018 00:55:00 0.0
2018_01_05_S24 01/06/2018 01:00:00 0.0
2018_01_05_S24 01/06/2018 01:05:00 0.0041
2018_01_05_S24 01/06/2018 01:10:00 0.0041
2018_01_05_S24 01/06/2018 01:15:00 0.0
2018_01_05_S24 01/06/2018 01:20:00 0.0
2018_01_05_S24 01/06/2018 01:25:00 0.0
2018_01_05_S24 01/06/2018 01:30:00 0.0
2018_01_05_S24 01/06/2018 01:35:00 0.0
2018_01_05_S24 01/06/2018 01:40:00 0.0
2018_01_05_S24 01/06/2018 01:45:00 0.0
2018_01_05_S24 01/06/2018 01:50:00 0.0
2018_01_05_S24 01/06/2018 01:55:00 0.0
2018_01_05_S24 01/06/2018 02:00:00 0.0
2018_01_05_S24 01/06/2018 02:05:00 0.0
2018_01_05_S24 01/06/2018 02:10:00 0.0
2018_01_05_S24 01/06/2018 02:15:00 0.0
2018_01_05_S24 01/06/2018 02:20:00 0.0
2018_01_05_S24 01/06/2018 02:25:00 0.0
2018_01_05_S24 01/06/2018 02:30:00 0.0
2018_01_05_S24 01/06/2018 02:35:00 0.0
2018_01_05_S24 01/06/2018 02:40:00 0.0034
2018_01_05_S24 01/06/2018 02:45:00 0.078
2018_01_05_S24 01/06/2018 02:50:00 0.002
2018_01_05_S24 01/06/2018 02:55:00 0.0
2018_01_05_S24 01/06/2018 03:00:00 0.0
2018_01_05_S24 01/06/2018 03:05:00 0.0
2018_01_05_S24 01/06/2018 03:10:00 0.0
2018_01_05_S24 01/06/2018 03:15:00 0.0
2018_01_05_S24 01/06/2018 03:20:00 0.0
2018_01_05_S24 01/06/2018 03:25:00 0.0
2018_01_05_S24 01/06/2018 03:30:00 0.0
2018_01_05_S24 01/06/2018 03:35:00 0.0
2018_01_05_S24 01/06/2018 03:40:00 0.0
2018_01_05_S24 01/06/2018 03:45:00 0.0
2018_01_05_S24 01/06/2018 03:50:00 0.0
2018_01_05_S24 01/06/2018 03:55:00 0.0
2018_01_05_S24 01/06/2018 04:00:00 0.0
2018_01_05_S24 01/06/2018 04:05:00 0.0
2018_01_05_S24 01/06/2018 04:10:00 0.0
2018_01_05_S24 01/06/2018 04:15:00 0.0
2018_01_05_S24 01/06/2018 04:20:00 0.0
2018_01_05_S24 01/06/2018 04:25:00 0.0
2018_01_05_S24 01/06/2018 04:30:00 0.0
2018_01_05_S24 01/06/2018 04:35:00 0.0
2018_01_05_S24 01/06/2018 04:40:00 0.0
2018_01_05_S24 01/06/2018 04:45:00 0.0
2018_01_05_S24 01/06/2018 04:50:00 0.0
2018_01_05_S24 01/06/2018 04:55:00 0.0
2018_01_05_S24 01/06/2018 05:00:00 0.0
2018_01_05_S24 01/06/2018 05:05:00 0.0
2018_01_05_S24 01/06/2018 05:10:00 0.0
2018_01_05_S24 01/06/2018 05:15:00 0.0
2018_01_05_S24 01/06/2018 05:20:00 0.0
2018_01_05_S24 01/06/2018 05:25:00 0.0
2018_01_05_S24 01/06/2018 05:30:00 0.0179
2018_01_05_S24 01/06/2018 05:35:00 1.3327
2018_01_05_S24 01/06/2018 05:40:00 0.0
2018_01_05_S24 01/06/2018 05:45:00 0.0
2018_01_05_S24 01/06/2018 05:50:00 0.0
2018_01_05_S24 01/06/2018 05:55:00 0.0126
2018_01_05_S24 01/06/2018 06:00:00 0.0
2018_01_05_S24 01/06/2018 06:05:00 0.0201
2018_01_05_S24 01/06/2018 06:10:00 0.0101
2018_01_05_S24 01/06/2018 06:15:00 0.0069
2018_01_05_S24 01/06/2018 06:20:00 0.0127
2018_01_05_S24 01/06/2018 06:25:00 0.0071
2018_01_05_S24 01/06/2018 06:30:00 0.0
2018_01_05_S24 01/06/2018 06:35:00 0.0
2018_01_05_S24 01/06/2018 06:40:00 0.0009
2018_01_05_S24 01/06/2018 06:45:00 0.025
2018_01_05_S24 01/06/2018 06:50:00 0.0309
2018_01_05_S24 01/06/2018 06:55:00 0.0561
2018_01_05_S24 01/06/2018 07:00:00 0.0043
2018_01_05_S24 01/06/2018 07:05:00 0.0072
2018_01_05_S24 01/06/2018 07:10:00 0.0024
2018_01_05_S24 01/06/2018 07:15:00 0.0
2018_01_05_S24 01/06/2018 07:20:00 0.0
2018_01_05_S24 01/06/2018 07:25:00 0.0
2018_01_05_S24 01/06/2018 07:30:00 0.0
2018_01_05_S24 01/06/2018 07:35:00 0.0
2018_01_05_S24 01/06/2018 07:40:00 0.0066
2018_01_05_S24 01/06/2018 07:45:00 0.0684
2018_01_05_S24 01/06/2018 07:50:00 0.1554
2018_01_05_S24 01/06/2018 07:55:00 0.0095
2018_01_05_S24 01/06/2018 08:00:00 0.0

2018_01_05_S25 01/04/2018 10:25:00 0.0389
2018_01_05_S25 01/04/2018 10:30:00 0.05
2018_01_05_S25 01/04/2018 10:35:00 0.0243
2018_01_05_S25 01/04/2018 10:40:00 0.0145
2018_01_05_S25 01/04/2018 10:45:00 0.1336
2018_01_05_S25 01/04/2018 10:50:00 0.1282
2018_01_05_S25 01/04/2018 10:55:00 0.0
2018_01_05_S25 01/04/2018 11:00:00 0.0
2018_01_05_S25 01/04/2018 11:05:00 1.7301
2018_01_05_S25 01/04/2018 11:10:00 0.1577
2018_01_05_S25 01/04/2018 11:15:00 6.9626
2018_01_05_S25 01/04/2018 11:20:00 0.1966
2018_01_05_S25 01/04/2018 11:25:00 0.2619
2018_01_05_S25 01/04/2018 11:30:00 0.0
2018_01_05_S25 01/04/2018 11:35:00 0.0
2018_01_05_S25 01/04/2018 11:40:00 0.0
2018_01_05_S25 01/04/2018 11:45:00 0.0
2018_01_05_S25 01/04/2018 11:50:00 0.0
2018_01_05_S25 01/04/2018 11:55:00 0.0
2018_01_05_S25 01/04/2018 12:00:00 0.0
2018_01_05_S25 01/04/2018 12:05:00 0.0
2018_01_05_S25 01/04/2018 12:10:00 0.0
2018_01_05_S25 01/04/2018 12:15:00 0.0
2018_01_05_S25 01/04/2018 12:20:00 0.0
2018_01_05_S25 01/04/2018 12:25:00 0.0
2018_01_05_S25 01/04/2018 12:30:00 0.0204
2018_01_05_S25 01/04/2018 12:35:00 0.0
2018_01_05_S25 01/04/2018 12:40:00 0.0
2018_01_05_S25 01/04/2018 12:45:00 0.0027
2018_01_05_S25 01/04/2018 12:50:00 0.0
2018_01_05_S25 01/04/2018 12:55:00 0.0
2018_01_05_S25 01/04/2018 13:00:00 0.0
2018_01_05_S25 01/04/2018 13:05:00 0.0
2018_01_05_S25 01/04/2018 13:10:00 0.0
2018_01_05_S25 01/04/2018 13:15:00 0.011
2018_01_05_S25 01/04/2018 13:20:00 0.0
2018_01_05_S25 01/04/2018 13:25:00 0.0
2018_01_05_S25 01/04/2018 13:30:00 0.0
2018_01_05_S25 01/04/2018 13:35:00 0.0
2018_01_05_S25 01/04/2018 13:40:00 0.0
2018_01_05_S25 01/04/2018 13:45:00 0.0
2018_01_05_S25 01/04/2018 13:50:00 0.0
2018_01_05_S25 01/04/2018 13:55:00 0.0
2018_01_05_S25 01/04/2018 14:00:00 0.0064
2018_01_05_S25 01/04/2018 14:05:00 0.0
2018_01_05_S25 01/04/2018 14:10:00 0.0002
2018_01_05_S25 01/04/2018 14:15:00 0.0019
2018_01_05_S25 01/04/2018 14:20:00 0.0002
2018_01_05_S25 01/04/2018 14:25:00 0.0076
2018_01_05_S25 01/04/2018 14:30:00 0.0061
2018_01_05_S25 01/04/2018 14:35:00 0.0147
2018_01_05_S25 01/04/2018 14:40:00 0.0092
2018_01_05_S25 01/04/2018 14:45:00 0.0
2018_01_05_S25 01/04/2018 14:50:00 0.0
2018_01_05_S25 01/04/2018 14:55:00 0.0
2018_01_05_S25 01/04/2018 15:00:00 0.0
2018_01_05_S25 01/04/2018 15:05:00 0.0
2018_01_05_S25 01/04/2018 15:10:00 0.0
2018_01_05_S25 01/04/2018 15:15:00 0.0
2018_01_05_S25 01/04/2018 15:20:00 0.0
2018_01_05_S25 01/04/2018 15:25:00 0.0
2018_01_05_S25 01/04/2018 15:30:00 0.0026
2018_01_05_S25 01/04/2018 15:35:00 0.1807
2018_01_05_S25 01/04/2018 15:40:00 0.0
2018_01_05_S25 01/04/2018 15:45:00 0.0
2018_01_05_S25 01/04/2018 15:50:00 0.0
2018_01_05_S25 01/04/2018 15:55:00 0.0338
2018_01_05_S25 01/04/2018 16:00:00 0.0581
2018_01_05_S25 01/04/2018 16:05:00 0.1452
2018_01_05_S25 01/04/2018 16:10:00 0.0025
2018_01_05_S25 01/04/2018 16:15:00 0.0206
2018_01_05_S25 01/04/2018 16:20:00 0.4152
2018_01_05_S25 01/04/2018 16:25:00 0.0129
2018_01_05_S25 01/04/2018 16:30:00 0.121
2018_01_05_S25 01/04/2018 16:35:00 0.0
2018_01_05_S25 01/04/2018 16:40:00 0.0
2018_01_05_S25 01/04/2018 16:45:00 0.0
2018_01_05_S25 01/04/2018 16:50:00 0.0
2018_01_05_S25 01/04/2018 16:55:00 0.0
2018_01_05_S25 01/04/2018 17:00:00 0.0
2018_01_05_S25 01/04/2018 17:05:00 0.0
2018_01_05_S25 01/04/2018 17:10:00 0.3554
2018_01_05_S25 01/04/2018 17:15:00 0.0
2018_01_05_S25 01/04/2018 17:20:00 0.0
2018_01_05_S25 01/04/2018 17:25:00 0.0
2018_01_05_S25 01/04/2018 17:30:00 0.0082
2018_01_05_S25 01/04/2018 17:35:00 0.84
2018_01_05_S25 01/04/2018 17:40:00 0.3357
2018_01_05_S25 01/04/2018 17:45:00 0.4694
2018_01_05_S25 01/04/2018 17:50:00 0.7575
2018_01_05_S25 01/04/2018 17:55:00 0.1449
2018_01_05_S25 01/04/2018 18:00:00 0.3076
2018_01_05_S25 01/04/2018 18:05:00 0.3309
2018_01_05_S25 01/04/2018 18:10:00 0.1889
2018_01_05_S25 01/04/2018 18:15:00 0.1111
2018_01_05_S25 01/04/2018 18:20:00 0.0002
2018_01_05_S25 01/04/2018 18:25:00 0.0
2018_01_05_S25 01/04/2018 18:30:00 0.0
2018_01_05_S25 01/04/2018 18:35:00 0.0
2018_01_05_S25 01/04/2018 18:40:00 0.0
2018_01_05_S25 01/04/2018 18:45:00 0.0
2018_01_05_S25 01/04/2018 18:50:00 0.0
2018_01_05_S25 01/04/2018 18:55:00 0.0
2018_01_05_S25 01/04/2018 19:00:00 0.0
2018_01_05_S25 01/04/2018 19:05:00 0.0
2018_01_05_S25 01/04/2018 19:10:00 0.0
2018_01_05_S25 01/04/2018 19:15:00 0.0
2018_01_05_S25 01/04/2018 19:20:00 0.0
2018_01_05_S25 01/04/2018 19:25:00 0.0
2018_01_05_S25 01/04/2018 19:30:00 0.0
2018_01_05_S25 01/04/2018 19:35:00 0.0
2018_01_05_S25 01/04/2018 19:40:00 0.0004
2018_01_05_S25 01/04/2018 19:45:00 0.0
2018_01_05_S25 01/04/2018 19:50:00 0.0
2018_01_05_S25 01/04/2018 19:55:00 0.0
2018_01_05_S25 01/04/2018 20:00:00 0.0
2018_01_05_S25 01/04/2018 20:05:00 0.0
2018_01_05_S25 01/04/2018 20:10:00 0.0
2018_01_05_S25 01/04/2018 20:15:00 0.0
2018_01_05_S25 01/04/2018 20:20:00 0.0
2018_01_05_S25 01/04/2018 20:25:00 0.0
2018_01_05_S25 01/04/2018 20:30:00 0.0
2018_01_05_S25 01/04/2018 20:35:00 0.0
2018_01_05_S25 01/04/2018 20:40:00 0.0
2018_01_05_S25 01/04/2018 20:45:00 0.0
2018_01_05_S25 01/04/2018 20:50:00 0.0
2018_01_05_S25 01/04/2018 20:55:00 0.0
2018_01_05_S25 01/04/2018 21:00:00 0.0
2018_01_05_S25 01/04/2018 21:05:00 0.0
2018_01_05_S25 01/04/2018 21:10:00 0.0
2018_01_05_S25 01/04/2018 21:15:00 0.0
2018_01_05_S25 01/04/2018 21:20:00 0.0
2018_01_05_S25 01/04/2018 21:25:00 0.0128
2018_01_05_S25 01/04/2018 21:30:00 0.2072
2018_01_05_S25 01/04/2018 21:35:00 0.003
2018_01_05_S25 01/04/2018 21:40:00 0.0087
2018_01_05_S25 01/04/2018 21:45:00 0.0022
2018_01_05_S25 01/04/2018 21:50:00 0.0
2018_01_05_S25 01/04/2018 21:55:00 0.0
2018_01_05_S25 01/04/2018 22:00:00 0.0
2018_01_05_S25 01/04/2018 22:05:00 0.0
2018_01_05_S25 01/04/2018 22:10:00 0.0
2018_01_05_S25 01/04/2018 22:15:00 0.0
2018_01_05_S25 01/04/2018 22:20:00 0.0
2018_01_05_S25 01/04/2018 22:25:00 0.0
2018_01_05_S25 01/04/2018 22:30:00 0.0
2018_01_05_S25 01/04/2018 22:35:00 0.0
2018_01_05_S25 01/04/2018 22:40:00 0.0
2018_01_05_S25 01/04/2018 22:45:00 0.0
2018_01_05_S25 01/04/2018 22:50:00 0.0
2018_01_05_S25 01/04/2018 22:55:00 0.0
2018_01_05_S25 01/04/2018 23:00:00 0.0
2018_01_05_S25 01/04/2018 23:05:00 0.0
2018_01_05_S25 01/04/2018 23:10:00 0.0
2018_01_05_S25 01/04/2018 23:15:00 0.0
2018_01_05_S25 01/04/2018 23:20:00 0.0
2018_01_05_S25 01/04/2018 23:25:00 0.0
2018_01_05_S25 01/04/2018 23:30:00 0.0
2018_01_05_S25 01/04/2018 23:35:00 0.0
2018_01_05_S25 01/04/2018 23:40:00 0.0
2018_01_05_S25 01/04/2018 23:45:00 0.0
2018_01_05_S25 01/04/2018 23:50:00 0.0
2018_01_05_S25 01/04/2018 23:55:00 0.0
2018_01_05_S25 01/05/2018 00:00:00 0.0
2018_01_05_S25 01/05/2018 00:05:00 0.0
2018_01_05_S25 01/05/2018 00:10:00 0.0
2018_01_05_S25 01/05/2018 00:15:00 0.0
2018_01_05_S25 01/05/2018 00:20:00 0.0
2018_01_05_S25 01/05/2018 00:25:00 0.0
2018_01_05_S25 01/05/2018 00:30:00 0.0
2018_01_05_S25 01/05/2018 00:35:00 0.0
2018_01_05_S25 01/05/2018 00:40:00 0.0
2018_01_05_S25 01/05/2018 00:45:00 0.0
2018_01_05_S25 01/05/2018 00:50:00 0.1562
2018_01_05_S25 01/05/2018 00:55:00 0.3562
2018_01_05_S25 01/05/2018 01:00:00 0.0
2018_01_05_S25 01/05/2018 01:05:00 0.2552
2018_01_05_S25 01/05/2018 01:10:00 0.0409
2018_01_05_S25 01/05/2018 01:15:00 0.0121
2018_01_05_S25 01/05/2018 01:20:00 0.1257
2018_01_05_S25 01/05/2018 01:25:00 0.1421
2018_01_05_S25 01/05/2018 01:30:00 0.0077
2018_01_05_S25 01/05/2018 01:35:00 0.0839
2018_01_05_S25 01/05/2018 01:40:00 0.0
2018_01_05_S25 01/05/2018 01:45:00 0.0684
2018_01_05_S25 01/05/2018 01:50:00 0.0504
2018_01_05_S25 01/05/2018 01:55:00 0.0096
2018_01_05_S25 01/05/2018 02:00:00 0.0107
2018_01_05_S25 01/05/2018 02:05:00 0.0154
2018_01_05_S25 01/05/2018 02:10:00 0.0071
2018_01_05_S25 01/05/2018 02:15:00 0.015
2018_01_05_S25 01/05/2018 02:20:00 0.0083
2018_01_05_S25 01/05/2018 02:25:00 0.0
2018_01_05_S25 01/05/2018 02:30:00 0.0
2018_01_05_S25 01/05/2018 02:35:00 0.0
2018_01_05_S25 01/05/2018 02:40:00 0.0
2018_01_05_S25 01/05/2018 02:45:00 0.0
2018_01_05_S25 01/05/2018 02:50:00 0.0
2018_01_05_S25 01/05/2018 02:55:00 0.0
2018_01_05_S25 01/05/2018 03:00:00 0.0
2018_01_05_S25 01/05/2018 03:05:00 0.2731
2018_01_05_S25 01/05/2018 03:10:00 0.678
2018_01_05_S25 01/05/2018 03:15:00 0.3484
2018_01_05_S25 01/05/2018 03:20:00 1.0289
2018_01_05_S25 01/05/2018 03:25:00 0.3888
2018_01_05_S25 01/05/2018 03:30:00 0.5067
2018_01_05_S25 01/05/2018 03:35:00 0.0768
2018_01_05_S25 01/05/2018 03:40:00 0.0
2018_01_05_S25 01/05/2018 03:45:00 0.0057
2018_01_05_S25 01/05/2018 03:50:00 0.0598
2018_01_05_S25 01/05/2018 03:55:00 0.0189
2018_01_05_S25 01/05/2018 04:00:00 0.0633
2018_01_05_S25 01/05/2018 04:05:00 0.0
2018_01_05_S25 01/05/2018 04:10:00 0.0051
2018_01_05_S25 01/05/2018 04:15:00 0.0
2018_01_05_S25 01/05/2018 04:20:00 0.0188
2018_01_05_S25 01/05/2018 04:25:00 0.1075
2018_01_05_S25 01/05/2018 04:30:00 0.0351
2018_01_05_S25 01/05/2018 04:35:00 0.0187
2018_01_05_S25 01/05/2018 04:40:00 0.0128
2018_01_05_S25 01/05/2018 04:45:00 0.2874
2018_01_05_S25 01/05/2018 04:50:00 0.0252
2018_01_05_S25 01/05/2018 04:55:00 0.0
2018_01_05_S25 01/05/2018 05:00:00 0.0628
2018_01_05_S25 01/05/2018 05:05:00 0.0052
2018_01_05_S25 01/05/2018 05:10:00 0.0
2018_01_05_S25 01/05/2018 05:15:00 0.0
2018_01_05_S25 01/05/2018 05:20:00 0.0242
2018_01_05_S25 01/05/2018 05:25:00 0.0
2018_01_05_S25 01/05/2018 05:30:00 0.0024
2018_01_05_S25 01/05/2018 05:35:00 0.0
2018_01_05_S25 01/05/2018 05:40:00 0.0
2018_01_05_S25 01/05/2018 05:45:00 0.0062
2018_01_05_S25 01/05/2018 05:50:00 0.0
2018_01_05_S25 01/05/2018 05:55:00 0.0095
2018_01_05_S25 01/05/2018 06:00:00 0.1787
2018_01_05_S25 01/05/2018 06:05:00 0.2763
2018_01_05_S25 01/05/2018 06:10:00 0.0064
2018_01_05_S25 01/05/2018 06:15:00 0.0188
2018_01_05_S25 01/05/2018 06:20:00 2.0241
2018_01_05_S25 01/05/2018 06:25:00 1.8717
2018_01_05_S25 01/05/2018 06:30:00 1.4167
2018_01_05_S25 01/05/2018 06:35:00 1.1924
2018_01_05_S25 01/05/2018 06:40:00 0.4303
2018_01_05_S25 01/05/2018 06:45:00 0.5815
2018_01_05_S25 01/05/2018 06:50:00 1.3921
2018_01_05_S25 01/05/2018 06:55:00 0.2128
2018_01_05_S25 01/05/2018 07:00:00 0.4496
2018_01_05_S25 01/05/2018 07:05:00 0.1972
2018_01_05_S25 01/05/2018 07:10:00 0.04
2018_01_05_S25 01/05/2018 07:15:00 0.0
2018_01_05_S25 01/05/2018 07:20:00 0.0
2018_01_05_S25 01/05/2018 07:25:00 0.0
2018_01_05_S25 01/05/2018 07:30:00 0.0
2018_01_05_S25 01/05/2018 07:35:00 0.0
2018_01_05_S25 01/05/2018 07:40:00 0.0
2018_01_05_S25 01/05/2018 07:45:00 0.0
2018_01_05_S25 01/05/2018 07:50:00 0.0
2018_01_05_S25 01/05/2018 07:55:00 0.0
2018_01_05_S25 01/05/2018 08:00:00 0.0145
2018_01_05_S25 01/05/2018 08:05:00 0.0
2018_01_05_S25 01/05/2018 08:10:00 0.0
2018_01_05_S25 01/05/2018 08:15:00 0.0519
2018_01_05_S25 01/05/2018 08:20:00 0.0
2018_01_05_S25 01/05/2018 08:25:00 0.0071
2018_01_05_S25 01/05/2018 08:30:00 0.1237
2018_01_05_S25 01/05/2018 08:35:00 0.4462
2018_01_05_S25 01/05/2018 08:40:00 0.5654
2018_01_05_S25 01/05/2018 08:45:00 1.8293
2018_01_05_S25 01/05/2018 08:50:00 0.5836
2018_01_05_S25 01/05/2018 08:55:00 2.1022
2018_01_05_S25 01/05/2018 09:00:00 0.5796
2018_01_05_S25 01/05/2018 09:05:00 0.9087
2018_01_05_S25 01/05/2018 09:10:00 0.684
2018_01_05_S25 01/05/2018 09:15:00 0.1476
2018_01_05_S25 01/05/2018 09:20:00 0.0141
2018_01_05_S25 01/05/2018 09:25:00 0.0
2018_01_05_S25 01/05/2018 09:30:00 0.0
2018_01_05_S25 01/05/2018 09:35:00 0.0264
2018_01_05_S25 01/05/2018 09:40:00 2.9891
2018_01_05_S25 01/05/2018 09:45:00 0.0578
2018_01_05_S25 01/05/2018 09:50:00 0.617
2018_01_05_S25 01/05/2018 09:55:00 8.0814
2018_01_05_S25 01/05/2018 10:00:00 0.1027
2018_01_05_S25 01/05/2018 10:05:00 0.6224
2018_01_05_S25 01/05/2018 10:10:00 0.0
2018_01_05_S25 01/05/2018 10:15:00 0.0029
2018_01_05_S25 01/05/2018 10:20:00 0.0
2018_01_05_S25 01/05/2018 10:25:00 0.0443
2018_01_05_S25 01/05/2018 10:30:00 0.6211
2018_01_05_S25 01/05/2018 10:35:00 0.0171
2018_01_05_S25 01/05/2018 10:40:00 0.2928
2018_01_05_S25 01/05/2018 10:45:00 1.0931
2018_01_05_S25 01/05/2018 10:50:00 0.0862
2018_01_05_S25 01/05/2018 10:55:00 0.0
2018_01_05_S25 01/05/2018 11:00:00 0.0318
2018_01_05_S25 01/05/2018 11:05:00 0.1796
2018_01_05_S25 01/05/2018 11:10:00 0.1363
2018_01_05_S25 01/05/2018 11:15:00 0.5031
2018_01_05_S25 01/05/2018 11:20:00 0.1121
2018_01_05_S25 01/05/2018 11:25:00 0.1
2018_01_05_S25 01/05/2018 11:30:00 0.1242
2018_01_05_S25 01/05/2018 11:35:00 0.1505
2018_01_05_S25 01/05/2018 11:40:00 0.1883
2018_01_05_S25 01/05/2018 11:45:00 0.027
2018_01_05_S25 01/05/2018 11:50:00 0.0
2018_01_05_S25 01/05/2018 11:55:00 0.0002
2018_01_05_S25 01/05/2018 12:00:00 0.1087
2018_01_05_S25 01/05/2018 12:05:00 0.262
2018_01_05_S25 01/05/2018 12:10:00 0.7594
2018_01_05_S25 01/05/2018 12:15:00 0.9547
2018_01_05_S25 01/05/2018 12:20:00 0.3582
2018_01_05_S25 01/05/2018 12:25:00 0.3018
2018_01_05_S25 01/05/2018 12:30:00 1.6964
2018_01_05_S25 01/05/2018 12:35:00 0.5745
2018_01_05_S25 01/05/2018 12:40:00 0.7869
2018_01_05_S25 01/05/2018 12:45:00 3.6989
2018_01_05_S25 01/05/2018 12:50:00 0.0354
2018_01_05_S25 01/05/2018 12:55:00 0.0454
2018_01_05_S25 01/05/2018 13:00:00 0.0412
2018_01_05_S25 01/05/2018 13:05:00 0.132
2018_01_05_S25 01/05/2018 13:10:00 0.0
2018_01_05_S25 01/05/2018 13:15:00 0.0
2018_01_05_S25 01/05/2018 13:20:00 0.0003
2018_01_05_S25 01/05/2018 13:25:00 0.0109
2018_01_05_S25 01/05/2018 13:30:00 0.0153
2018_01_05_S25 01/05/2018 13:35:00 0.0026
2018_01_05_S25 01/05/2018 13:40:00 0.012
2018_01_05_S25 01/05/2018 13:45:00 0.3818
2018_01_05_S25 01/05/2018 13:50:00 0.3522
2018_01_05_S25 01/05/2018 13:55:00 3.0857
2018_01_05_S25 01/05/2018 14:00:00 0.9425
2018_01_05_S25 01/05/2018 14:05:00 0.6499
2018_01_05_S25 01/05/2018 14:10:00 0.2297
2018_01_05_S25 01/05/2018 14:15:00 1.3764
2018_01_05_S25 01/05/2018 14:20:00 0.0
2018_01_05_S25 01/05/2018 14:25:00 0.0
2018_01_05_S25 01/05/2018 14:30:00 0.0
2018_01_05_S25 01/05/2018 14:35:00 0.0487
2018_01_05_S25 01/05/2018 14:40:00 0.1031
2018_01_05_S25 01/05/2018 14:45:00 0.2274
2018_01_05_S25 01/05/2018 14:50:00 0.0065
2018_01_05_S25 01/05/2018 14:55:00 0.0
2018_01_05_S25 01/05/2018 15:00:00 0.0
2018_01_05_S25 01/05/2018 15:05:00 0.0
2018_01_05_S25 01/05/2018 15:10:00 0.005
2018_01_05_S25 01/05/2018 15:15:00 0.1621
2018_01_05_S25 01/05/2018 15:20:00 0.965
2018_01_05_S25 01/05/2018 15:25:00 0.0
2018_01_05_S25 01/05/2018 15:30:00 0.0
2018_01_05_S25 01/05/2018 15:35:00 0.0775
2018_01_05_S25 01/05/2018 15:40:00 0.1413
2018_01_05_S25 01/05/2018 15:45:00 0.0
2018_01_05_S25 01/05/2018 15:50:00 0.0
2018_01_05_S25 01/05/2018 15:55:00 0.0
2018_01_05_S25 01/05/2018 16:00:00 0.0
2018_01_05_S25 01/05/2018 16:05:00 0.0
2018_01_05_S25 01/05/2018 16:10:00 0.0
2018_01_05_S25 01/05/2018 16:15:00 0.0
2018_01_05_S25 01/05/2018 16:20:00 0.0
2018_01_05_S25 01/05/2018 16:25:00 0.0
2018_01_05_S25 01/05/2018 16:30:00 0.0
2018_01_05_S25 01/05/2018 16:35:00 0.0
2018_01_05_S25 01/05/2018 16:40:00 0.0
2018_01_05_S25 01/05/2018 16:45:00 0.0
2018_01_05_S25 01/05/2018 16:50:00 0.0
2018_01_05_S25 01/05/2018 16:55:00 0.0
2018_01_05_S25 01/05/2018 17:00:00 0.0
2018_01_05_S25 01/05/2018 17:05:00 0.0
2018_01_05_S25 01/05/2018 17:10:00 0.0
2018_01_05_S25 01/05/2018 17:15:00 0.0
2018_01_05_S25 01/05/2018 17:20:00 0.0
2018_01_05_S25 01/05/2018 17:25:00 0.0
2018_01_05_S25 01/05/2018 17:30:00 0.0
2018_01_05_S25 01/05/2018 17:35:00 0.0
2018_01_05_S25 01/05/2018 17:40:00 0.0
2018_01_05_S25 01/05/2018 17:45:00 0.0
2018_01_05_S25 01/05/2018 17:50:00 0.0
2018_01_05_S25 01/05/2018 17:55:00 0.0267
2018_01_05_S25 01/05/2018 18:00:00 0.0063
2018_01_05_S25 01/05/2018 18:05:00 0.0
2018_01_05_S25 01/05/2018 18:10:00 0.0
2018_01_05_S25 01/05/2018 18:15:00 0.0037
2018_01_05_S25 01/05/2018 18:20:00 0.016
2018_01_05_S25 01/05/2018 18:25:00 0.0
2018_01_05_S25 01/05/2018 18:30:00 0.0
2018_01_05_S25 01/05/2018 18:35:00 0.0
2018_01_05_S25 01/05/2018 18:40:00 0.0
2018_01_05_S25 01/05/2018 18:45:00 0.0
2018_01_05_S25 01/05/2018 18:50:00 0.0
2018_01_05_S25 01/05/2018 18:55:00 0.0
2018_01_05_S25 01/05/2018 19:00:00 0.0
2018_01_05_S25 01/05/2018 19:05:00 0.0
2018_01_05_S25 01/05/2018 19:10:00 0.0
2018_01_05_S25 01/05/2018 19:15:00 0.0
2018_01_05_S25 01/05/2018 19:20:00 0.0
2018_01_05_S25 01/05/2018 19:25:00 0.0
2018_01_05_S25 01/05/2018 19:30:00 0.0
2018_01_05_S25 01/05/2018 19:35:00 0.0
2018_01_05_S25 01/05/2018 19:40:00 0.0
2018_01_05_S25 01/05/2018 19:45:00 0.0215
2018_01_05_S25 01/05/2018 19:50:00 0.0525
2018_01_05_S25 01/05/2018 19:55:00 0.0042
2018_01_05_S25 01/05/2018 20:00:00 0.0061
2018_01_05_S25 01/05/2018 20:05:00 0.0
2018_01_05_S25 01/05/2018 20:10:00 0.0
2018_01_05_S25 01/05/2018 20:15:00 0.0
2018_01_05_S25 01/05/2018 20:20:00 0.0
2018_01_05_S25 01/05/2018 20:25:00 0.0
2018_01_05_S25 01/05/2018 20:30:00 0.0
2018_01_05_S25 01/05/2018 20:35:00 0.0
2018_01_05_S25 01/05/2018 20:40:00 0.0
2018_01_05_S25 01/05/2018 20:45:00 0.0
2018_01_05_S25 01/05/2018 20:50:00 0.0867
2018_01_05_S25 01/05/2018 20:55:00 0.0
2018_01_05_S25 01/05/2018 21:00:00 0.0
2018_01_05_S25 01/05/2018 21:05:00 0.0
2018_01_05_S25 01/05/2018 21:10:00 0.0
2018_01_05_S25 01/05/2018 21:15:00 0.0
2018_01_05_S25 01/05/2018 21:20:00 0.0
2018_01_05_S25 01/05/2018 21:25:00 0.0
2018_01_05_S25 01/05/2018 21:30:00 0.0
2018_01_05_S25 01/05/2018 21:35:00 0.0
2018_01_05_S25 01/05/2018 21:40:00 0.0
2018_01_05_S25 01/05/2018 21:45:00 0.0
2018_01_05_S25 01/05/2018 21:50:00 0.0
2018_01_05_S25 01/05/2018 21:55:00 0.0
2018_01_05_S25 01/05/2018 22:00:00 0.0
2018_01_05_S25 01/05/2018 22:05:00 0.0
2018_01_05_S25 01/05/2018 22:10:00 0.0
2018_01_05_S25 01/05/2018 22:15:00 0.0
2018_01_05_S25 01/05/2018 22:20:00 0.0
2018_01_05_S25 01/05/2018 22:25:00 0.0304
2018_01_05_S25 01/05/2018 22:30:00 0.0
2018_01_05_S25 01/05/2018 22:35:00 0.0146
2018_01_05_S25 01/05/2018 22:40:00 0.0078
2018_01_05_S25 01/05/2018 22:45:00 0.0
2018_01_05_S25 01/05/2018 22:50:00 0.0
2018_01_05_S25 01/05/2018 22:55:00 0.0
2018_01_05_S25 01/05/2018 23:00:00 0.0
2018_01_05_S25 01/05/2018 23:05:00 0.0
2018_01_05_S25 01/05/2018 23:10:00 0.0
2018_01_05_S25 01/05/2018 23:15:00 0.0
2018_01_05_S25 01/05/2018 23:20:00 0.0
2018_01_05_S25 01/05/2018 23:25:00 0.0
2018_01_05_S25 01/05/2018 23:30:00 0.0
2018_01_05_S25 01/05/2018 23:35:00 0.0
2018_01_05_S25 01/05/2018 23:40:00 0.0
2018_01_05_S25 01/05/2018 23:45:00 0.097
2018_01_05_S25 01/05/2018 23:50:00 0.0198
2018_01_05_S25 01/05/2018 23:55:00 0.0158
2018_01_05_S25 01/06/2018 00:00:00 0.0059
2018_01_05_S25 01/06/2018 00:05:00 0.3052
2018_01_05_S25 01/06/2018 00:10:00 0.0002
2018_01_05_S25 01/06/2018 00:15:00 0.8221
2018_01_05_S25 01/06/2018 00:20:00 0.0
2018_01_05_S25 01/06/2018 00:25:00 0.0
2018_01_05_S25 01/06/2018 00:30:00 0.0
2018_01_05_S25 01/06/2018 00:35:00 0.0
2018_01_05_S25 01/06/2018 00:40:00 0.0
2018_01_05_S25 01/06/2018 00:45:00 0.0
2018_01_05_S25 01/06/2018 00:50:00 0.0
2018_01_05_S25 01/06/2018 00:55:00 0.0
2018_01_05_S25 01/06/2018 01:00:00 0.0
2018_01_05_S25 01/06/2018 01:05:00 0.0057
2018_01_05_S25 01/06/2018 01:10:00 0.011
2018_01_05_S25 01/06/2018 01:15:00 0.0
2018_01_05_S25 01/06/2018 01:20:00 0.0
2018_01_05_S25 01/06/2018 01:25:00 0.0
2018_01_05_S25 01/06/2018 01:30:00 0.0
2018_01_05_S25 01/06/2018 01:35:00 0.0
2018_01_05_S25 01/06/2018 01:40:00 0.0
2018_01_05_S25 01/06/2018 01:45:00 0.0
2018_01_05_S25 01/06/2018 01:50:00 0.0
2018_01_05_S25 01/06/2018 01:55:00 0.0
2018_01_05_S25 01/06/2018 02:00:00 0.0
2018_01_05_S25 01/06/2018 02:05:00 0.0
2018_01_05_S25 01/06/2018 02:10:00 0.0
2018_01_05_S25 01/06/2018 02:15:00 0.0
2018_01_05_S25 01/06/2018 02:20:00 0.0
2018_01_05_S25 01/06/2018 02:25:00 0.0
2018_01_05_S25 01/06/2018 02:30:00 0.0
2018_01_05_S25 01/06/2018 02:35:00 0.0
2018_01_05_S25 01/06/2018 02:40:00 0.0
2018_01_05_S25 01/06/2018 02:45:00 0.0526
2018_01_05_S25 01/06/2018 02:50:00 0.0
2018_01_05_S25 01/06/2018 02:55:00 0.0
2018_01_05_S25 01/06/2018 03:00:00 0.0
2018_01_05_S25 01/06/2018 03:05:00 0.0
2018_01_05_S25 01/06/2018 03:10:00 0.0
2018_01_05_S25 01/06/2018 03:15:00 0.0
2018_01_05_S25 01/06/2018 03:20:00 0.0
2018_01_05_S25 01/06/2018 03:25:00 0.0
2018_01_05_S25 01/06/2018 03:30:00 0.0
2018_01_05_S25 01/06/2018 03:35:00 0.0
2018_01_05_S25 01/06/2018 03:40:00 0.0096
2018_01_05_S25 01/06/2018 03:45:00 0.0
2018_01_05_S25 01/06/2018 03:50:00 0.0
2018_01_05_S25 01/06/2018 03:55:00 0.0
2018_01_05_S25 01/06/2018 04:00:00 0.0
2018_01_05_S25 01/06/2018 04:05:00 0.0
2018_01_05_S25 01/06/2018 04:10:00 0.0
2018_01_05_S25 01/06/2018 04:15:00 0.0
2018_01_05_S25 01/06/2018 04:20:00 0.0
2018_01_05_S25 01/06/2018 04:25:00 0.0
2018_01_05_S25 01/06/2018 04:30:00 0.0
2018_01_05_S25 01/06/2018 04:35:00 0.0
2018_01_05_S25 01/06/2018 04:40:00 0.0
2018_01_05_S25 01/06/2018 04:45:00 0.0
2018_01_05_S25 01/06/2018 04:50:00 0.0
2018_01_05_S25 01/06/2018 04:55:00 0.0
2018_01_05_S25 01/06/2018 05:00:00 0.0
2018_01_05_S25 01/06/2018 05:05:00 0.0
2018_01_05_S25 01/06/2018 05:10:00 0.0
2018_01_05_S25 01/06/2018 05:15:00 0.0
2018_01_05_S25 01/06/2018 05:20:00 0.0
2018_01_05_S25 01/06/2018 05:25:00 0.0
2018_01_05_S25 01/06/2018 05:30:00 0.0201
2018_01_05_S25 01/06/2018 05:35:00 1.0578
2018_01_05_S25 01/06/2018 05:40:00 0.0
2018_01_05_S25 01/06/2018 05:45:00 0.0
2018_01_05_S25 01/06/2018 05:50:00 0.0
2018_01_05_S25 01/06/2018 05:55:00 0.0055
2018_01_05_S25 01/06/2018 06:00:00 0.0
2018_01_05_S25 01/06/2018 06:05:00 0.0083
2018_01_05_S25 01/06/2018 06:10:00 0.0116
2018_01_05_S25 01/06/2018 06:15:00 0.0041
2018_01_05_S25 01/06/2018 06:20:00 0.0107
2018_01_05_S25 01/06/2018 06:25:00 0.0031
2018_01_05_S25 01/06/2018 06:30:00 0.0
2018_01_05_S25 01/06/2018 06:35:00 0.0
2018_01_05_S25 01/06/2018 06:40:00 0.0002
2018_01_05_S25 01/06/2018 06:45:00 0.0108
2018_01_05_S25 01/06/2018 06:50:00 0.0201
2018_01_05_S25 01/06/2018 06:55:00 0.0409
2018_01_05_S25 01/06/2018 07:00:00 0.0091
2018_01_05_S25 01/06/2018 07:05:00 0.0138
2018_01_05_S25 01/06/2018 07:10:00 0.0052
2018_01_05_S25 01/06/2018 07:15:00 0.0
2018_01_05_S25 01/06/2018 07:20:00 0.0
2018_01_05_S25 01/06/2018 07:25:00 0.0
2018_01_05_S25 01/06/2018 07:30:00 0.0
2018_01_05_S25 01/06/2018 07:35:00 0.0
2018_01_05_S25 01/06/2018 07:40:00 0.0059
2018_01_05_S25 01/06/2018 07:45:00 0.0662
2018_01_05_S25 01/06/2018 07:50:00 0.1418
2018_01_05_S25 01/06/2018 07:55:00 0.0147
2018_01_05_S25 01/06/2018 08:00:00 0.0

2018_01_05_S26 01/04/2018 10:25:00 0.0157
2018_01_05_S26 01/04/2018 10:30:00 0.0302
2018_01_05_S26 01/04/2018 10:35:00 0.064
2018_01_05_S26 01/04/2018 10:40:00 0.0286
2018_01_05_S26 01/04/2018 10:45:00 0.1501
2018_01_05_S26 01/04/2018 10:50:00 0.4263
2018_01_05_S26 01/04/2018 10:55:00 0.0
2018_01_05_S26 01/04/2018 11:00:00 0.0
2018_01_05_S26 01/04/2018 11:05:00 0.4008
2018_01_05_S26 01/04/2018 11:10:00 0.1138
2018_01_05_S26 01/04/2018 11:15:00 3.2866
2018_01_05_S26 01/04/2018 11:20:00 0.5106
2018_01_05_S26 01/04/2018 11:25:00 0.2713
2018_01_05_S26 01/04/2018 11:30:00 0.0082
2018_01_05_S26 01/04/2018 11:35:00 0.0
2018_01_05_S26 01/04/2018 11:40:00 0.0
2018_01_05_S26 01/04/2018 11:45:00 0.0
2018_01_05_S26 01/04/2018 11:50:00 0.0
2018_01_05_S26 01/04/2018 11:55:00 0.0
2018_01_05_S26 01/04/2018 12:00:00 0.0
2018_01_05_S26 01/04/2018 12:05:00 0.0
2018_01_05_S26 01/04/2018 12:10:00 0.0
2018_01_05_S26 01/04/2018 12:15:00 0.0
2018_01_05_S26 01/04/2018 12:20:00 0.0
2018_01_05_S26 01/04/2018 12:25:00 0.0
2018_01_05_S26 01/04/2018 12:30:00 0.0118
2018_01_05_S26 01/04/2018 12:35:00 0.0
2018_01_05_S26 01/04/2018 12:40:00 0.0
2018_01_05_S26 01/04/2018 12:45:00 0.0
2018_01_05_S26 01/04/2018 12:50:00 0.0
2018_01_05_S26 01/04/2018 12:55:00 0.0
2018_01_05_S26 01/04/2018 13:00:00 0.0
2018_01_05_S26 01/04/2018 13:05:00 0.0
2018_01_05_S26 01/04/2018 13:10:00 0.0
2018_01_05_S26 01/04/2018 13:15:00 0.0015
2018_01_05_S26 01/04/2018 13:20:00 0.0
2018_01_05_S26 01/04/2018 13:25:00 0.0
2018_01_05_S26 01/04/2018 13:30:00 0.0
2018_01_05_S26 01/04/2018 13:35:00 0.0
2018_01_05_S26 01/04/2018 13:40:00 0.0
2018_01_05_S26 01/04/2018 13:45:00 0.0
2018_01_05_S26 01/04/2018 13:50:00 0.0
2018_01_05_S26 01/04/2018 13:55:00 0.0
2018_01_05_S26 01/04/2018 14:00:00 0.0088
2018_01_05_S26 01/04/2018 14:05:00 0.0009
2018_01_05_S26 01/04/2018 14:10:00 0.001
2018_01_05_S26 01/04/2018 14:15:00 0.0047
2018_01_05_S26 01/04/2018 14:20:00 0.0074
2018_01_05_S26 01/04/2018 14:25:00 0.0119
2018_01_05_S26 01/04/2018 14:30:00 0.0085
2018_01_05_S26 01/04/2018 14:35:00 0.0147
2018_01_05_S26 01/04/2018 14:40:00 0.0506
2018_01_05_S26 01/04/2018 14:45:00 0.0
2018_01_05_S26 01/04/2018 14:50:00 0.0
2018_01_05_S26 01/04/2018 14:55:00 0.0
2018_01_05_S26 01/04/2018 15:00:00 0.0
2018_01_05_S26 01/04/2018 15:05:00 0.0
2018_01_05_S26 01/04/2018 15:10:00 0.0
2018_01_05_S26 01/04/2018 15:15:00 0.0
2018_01_05_S26 01/04/2018 15:20:00 0.0
2018_01_05_S26 01/04/2018 15:25:00 0.0
2018_01_05_S26 01/04/2018 15:30:00 0.0
2018_01_05_S26 01/04/2018 15:35:00 0.05
2018_01_05_S26 01/04/2018 15:40:00 0.0
2018_01_05_S26 01/04/2018 15:45:00 0.0
2018_01_05_S26 01/04/2018 15:50:00 0.0
2018_01_05_S26 01/04/2018 15:55:00 0.0169
2018_01_05_S26 01/04/2018 16:00:00 0.071
2018_01_05_S26 01/04/2018 16:05:00 0.1725
2018_01_05_S26 01/04/2018 16:10:00 0.0137
2018_01_05_S26 01/04/2018 16:15:00 0.0098
2018_01_05_S26 01/04/2018 16:20:00 0.7142
2018_01_05_S26 01/04/2018 16:25:00 0.0263
2018_01_05_S26 01/04/2018 16:30:00 0.0044
2018_01_05_S26 01/04/2018 16:35:00 0.0
2018_01_05_S26 01/04/2018 16:40:00 0.0
2018_01_05_S26 01/04/2018 16:45:00 0.0
2018_01_05_S26 01/04/2018 16:50:00 0.0
2018_01_05_S26 01/04/2018 16:55:00 0.0
2018_01_05_S26 01/04/2018 17:00:00 0.0
2018_01_05_S26 01/04/2018 17:05:00 0.0
2018_01_05_S26 01/04/2018 17:10:00 0.4674
2018_01_05_S26 01/04/2018 17:15:00 0.0218
2018_01_05_S26 01/04/2018 17:20:00 0.0
2018_01_05_S26 01/04/2018 17:25:00 0.0
2018_01_05_S26 01/04/2018 17:30:00 0.0
2018_01_05_S26 01/04/2018 17:35:00 1.0537
2018_01_05_S26 01/04/2018 17:40:00 0.2864
2018_01_05_S26 01/04/2018 17:45:00 0.9218
2018_01_05_S26 01/04/2018 17:50:00 1.2212
2018_01_05_S26 01/04/2018 17:55:00 0.3378
2018_01_05_S26 01/04/2018 18:00:00 0.341
2018_01_05_S26 01/04/2018 18:05:00 0.3944
2018_01_05_S26 01/04/2018 18:10:00 0.2133
2018_01_05_S26 01/04/2018 18:15:00 0.1869
2018_01_05_S26 01/04/2018 18:20:00 0.0208
2018_01_05_S26 01/04/2018 18:25:00 0.0
2018_01_05_S26 01/04/2018 18:30:00 0.0
2018_01_05_S26 01/04/2018 18:35:00 0.0
2018_01_05_S26 01/04/2018 18:40:00 0.0
2018_01_05_S26 01/04/2018 18:45:00 0.0
2018_01_05_S26 01/04/2018 18:50:00 0.0
2018_01_05_S26 01/04/2018 18:55:00 0.0
2018_01_05_S26 01/04/2018 19:00:00 0.0
2018_01_05_S26 01/04/2018 19:05:00 0.0
2018_01_05_S26 01/04/2018 19:10:00 0.0
2018_01_05_S26 01/04/2018 19:15:00 0.0
2018_01_05_S26 01/04/2018 19:20:00 0.0
2018_01_05_S26 01/04/2018 19:25:00 0.0
2018_01_05_S26 01/04/2018 19:30:00 0.0
2018_01_05_S26 01/04/2018 19:35:00 0.0
2018_01_05_S26 01/04/2018 19:40:00 0.007
2018_01_05_S26 01/04/2018 19:45:00 0.0
2018_01_05_S26 01/04/2018 19:50:00 0.0
2018_01_05_S26 01/04/2018 19:55:00 0.0
2018_01_05_S26 01/04/2018 20:00:00 0.0
2018_01_05_S26 01/04/2018 20:05:00 0.0
2018_01_05_S26 01/04/2018 20:10:00 0.0
2018_01_05_S26 01/04/2018 20:15:00 0.0
2018_01_05_S26 01/04/2018 20:20:00 0.0
2018_01_05_S26 01/04/2018 20:25:00 0.0
2018_01_05_S26 01/04/2018 20:30:00 0.005
2018_01_05_S26 01/04/2018 20:35:00 0.0
2018_01_05_S26 01/04/2018 20:40:00 0.0
2018_01_05_S26 01/04/2018 20:45:00 0.0
2018_01_05_S26 01/04/2018 20:50:00 0.0
2018_01_05_S26 01/04/2018 20:55:00 0.0
2018_01_05_S26 01/04/2018 21:00:00 0.0
2018_01_05_S26 01/04/2018 21:05:00 0.0
2018_01_05_S26 01/04/2018 21:10:00 0.0
2018_01_05_S26 01/04/2018 21:15:00 0.0
2018_01_05_S26 01/04/2018 21:20:00 0.0
2018_01_05_S26 01/04/2018 21:25:00 0.0436
2018_01_05_S26 01/04/2018 21:30:00 0.0108
2018_01_05_S26 01/04/2018 21:35:00 0.0118
2018_01_05_S26 01/04/2018 21:40:00 0.0139
2018_01_05_S26 01/04/2018 21:45:00 0.0072
2018_01_05_S26 01/04/2018 21:50:00 0.0
2018_01_05_S26 01/04/2018 21:55:00 0.0
2018_01_05_S26 01/04/2018 22:00:00 0.0
2018_01_05_S26 01/04/2018 22:05:00 0.0
2018_01_05_S26 01/04/2018 22:10:00 0.0
2018_01_05_S26 01/04/2018 22:15:00 0.0
2018_01_05_S26 01/04/2018 22:20:00 0.0
2018_01_05_S26 01/04/2018 22:25:00 0.0
2018_01_05_S26 01/04/2018 22:30:00 0.0
2018_01_05_S26 01/04/2018 22:35:00 0.0
2018_01_05_S26 01/04/2018 22:40:00 0.0
2018_01_05_S26 01/04/2018 22:45:00 0.0
2018_01_05_S26 01/04/2018 22:50:00 0.0
2018_01_05_S26 01/04/2018 22:55:00 0.0
2018_01_05_S26 01/04/2018 23:00:00 0.0
2018_01_05_S26 01/04/2018 23:05:00 0.0
2018_01_05_S26 01/04/2018 23:10:00 0.0
2018_01_05_S26 01/04/2018 23:15:00 0.0
2018_01_05_S26 01/04/2018 23:20:00 0.0
2018_01_05_S26 01/04/2018 23:25:00 0.0
2018_01_05_S26 01/04/2018 23:30:00 0.0
2018_01_05_S26 01/04/2018 23:35:00 0.0
2018_01_05_S26 01/04/2018 23:40:00 0.0
2018_01_05_S26 01/04/2018 23:45:00 0.0
2018_01_05_S26 01/04/2018 23:50:00 0.0
2018_01_05_S26 01/04/2018 23:55:00 0.0
2018_01_05_S26 01/05/2018 00:00:00 0.0
2018_01_05_S26 01/05/2018 00:05:00 0.0
2018_01_05_S26 01/05/2018 00:10:00 0.0
2018_01_05_S26 01/05/2018 00:15:00 0.0
2018_01_05_S26 01/05/2018 00:20:00 0.0
2018_01_05_S26 01/05/2018 00:25:00 0.0
2018_01_05_S26 01/05/2018 00:30:00 0.0
2018_01_05_S26 01/05/2018 00:35:00 0.0
2018_01_05_S26 01/05/2018 00:40:00 0.0
2018_01_05_S26 01/05/2018 00:45:00 0.007
2018_01_05_S26 01/05/2018 00:50:00 0.178
2018_01_05_S26 01/05/2018 00:55:00 0.1999
2018_01_05_S26 01/05/2018 01:00:00 0.0012
2018_01_05_S26 01/05/2018 01:05:00 0.3355
2018_01_05_S26 01/05/2018 01:10:00 0.0374
2018_01_05_S26 01/05/2018 01:15:00 0.0092
2018_01_05_S26 01/05/2018 01:20:00 0.0936
2018_01_05_S26 01/05/2018 01:25:00 0.1692
2018_01_05_S26 01/05/2018 01:30:00 0.0132
2018_01_05_S26 01/05/2018 01:35:00 0.0847
2018_01_05_S26 01/05/2018 01:40:00 0.0
2018_01_05_S26 01/05/2018 01:45:00 0.0251
2018_01_05_S26 01/05/2018 01:50:00 0.1142
2018_01_05_S26 01/05/2018 01:55:00 0.0137
2018_01_05_S26 01/05/2018 02:00:00 0.0222
2018_01_05_S26 01/05/2018 02:05:00 0.0269
2018_01_05_S26 01/05/2018 02:10:00 0.0062
2018_01_05_S26 01/05/2018 02:15:00 0.0066
2018_01_05_S26 01/05/2018 02:20:00 0.0147
2018_01_05_S26 01/05/2018 02:25:00 0.0
2018_01_05_S26 01/05/2018 02:30:00 0.0
2018_01_05_S26 01/05/2018 02:35:00 0.0
2018_01_05_S26 01/05/2018 02:40:00 0.0
2018_01_05_S26 01/05/2018 02:45:00 0.0
2018_01_05_S26 01/05/2018 02:50:00 0.0
2018_01_05_S26 01/05/2018 02:55:00 0.0
2018_01_05_S26 01/05/2018 03:00:00 0.0
2018_01_05_S26 01/05/2018 03:05:00 0.1729
2018_01_05_S26 01/05/2018 03:10:00 0.5488
2018_01_05_S26 01/05/2018 03:15:00 0.404
2018_01_05_S26 01/05/2018 03:20:00 0.5696
2018_01_05_S26 01/05/2018 03:25:00 0.428
2018_01_05_S26 01/05/2018 03:30:00 0.3445
2018_01_05_S26 01/05/2018 03:35:00 0.1216
2018_01_05_S26 01/05/2018 03:40:00 0.0011
2018_01_05_S26 01/05/2018 03:45:00 0.0
2018_01_05_S26 01/05/2018 03:50:00 0.0424
2018_01_05_S26 01/05/2018 03:55:00 0.0102
2018_01_05_S26 01/05/2018 04:00:00 0.0703
2018_01_05_S26 01/05/2018 04:05:00 0.0013
2018_01_05_S26 01/05/2018 04:10:00 0.0045
2018_01_05_S26 01/05/2018 04:15:00 0.0
2018_01_05_S26 01/05/2018 04:20:00 0.0221
2018_01_05_S26 01/05/2018 04:25:00 0.0743
2018_01_05_S26 01/05/2018 04:30:00 0.0371
2018_01_05_S26 01/05/2018 04:35:00 0.0288
2018_01_05_S26 01/05/2018 04:40:00 0.0102
2018_01_05_S26 01/05/2018 04:45:00 0.1232
2018_01_05_S26 01/05/2018 04:50:00 0.0211
2018_01_05_S26 01/05/2018 04:55:00 0.0
2018_01_05_S26 01/05/2018 05:00:00 0.0156
2018_01_05_S26 01/05/2018 05:05:00 0.0
2018_01_05_S26 01/05/2018 05:10:00 0.0096
2018_01_05_S26 01/05/2018 05:15:00 0.0
2018_01_05_S26 01/05/2018 05:20:00 0.0286
2018_01_05_S26 01/05/2018 05:25:00 0.0
2018_01_05_S26 01/05/2018 05:30:00 0.0
2018_01_05_S26 01/05/2018 05:35:00 0.0
2018_01_05_S26 01/05/2018 05:40:00 0.0
2018_01_05_S26 01/05/2018 05:45:00 0.007
2018_01_05_S26 01/05/2018 05:50:00 0.0
2018_01_05_S26 01/05/2018 05:55:00 0.0
2018_01_05_S26 01/05/2018 06:00:00 0.1311
2018_01_05_S26 01/05/2018 06:05:00 0.2741
2018_01_05_S26 01/05/2018 06:10:00 0.0061
2018_01_05_S26 01/05/2018 06:15:00 0.0051
2018_01_05_S26 01/05/2018 06:20:00 0.9083
2018_01_05_S26 01/05/2018 06:25:00 1.7084
2018_01_05_S26 01/05/2018 06:30:00 2.1472
2018_01_05_S26 01/05/2018 06:35:00 0.9962
2018_01_05_S26 01/05/2018 06:40:00 0.5462
2018_01_05_S26 01/05/2018 06:45:00 0.4324
2018_01_05_S26 01/05/2018 06:50:00 1.0603
2018_01_05_S26 01/05/2018 06:55:00 0.175
2018_01_05_S26 01/05/2018 07:00:00 0.3678
2018_01_05_S26 01/05/2018 07:05:00 0.2015
2018_01_05_S26 01/05/2018 07:10:00 0.0642
2018_01_05_S26 01/05/2018 07:15:00 0.0
2018_01_05_S26 01/05/2018 07:20:00 0.0
2018_01_05_S26 01/05/2018 07:25:00 0.0
2018_01_05_S26 01/05/2018 07:30:00 0.0
2018_01_05_S26 01/05/2018 07:35:00 0.0
2018_01_05_S26 01/05/2018 07:40:00 0.0
2018_01_05_S26 01/05/2018 07:45:00 0.0
2018_01_05_S26 01/05/2018 07:50:00 0.0
2018_01_05_S26 01/05/2018 07:55:00 0.0
2018_01_05_S26 01/05/2018 08:00:00 0.0065
2018_01_05_S26 01/05/2018 08:05:00 0.0
2018_01_05_S26 01/05/2018 08:10:00 0.0
2018_01_05_S26 01/05/2018 08:15:00 0.0197
2018_01_05_S26 01/05/2018 08:20:00 0.0
2018_01_05_S26 01/05/2018 08:25:00 0.0081
2018_01_05_S26 01/05/2018 08:30:00 0.0963
2018_01_05_S26 01/05/2018 08:35:00 0.254
2018_01_05_S26 01/05/2018 08:40:00 0.5243
2018_01_05_S26 01/05/2018 08:45:00 2.1248
2018_01_05_S26 01/05/2018 08:50:00 0.8631
2018_01_05_S26 01/05/2018 08:55:00 2.0104
2018_01_05_S26 01/05/2018 09:00:00 0.6467
2018_01_05_S26 01/05/2018 09:05:00 1.0922
2018_01_05_S26 01/05/2018 09:10:00 1.175
2018_01_05_S26 01/05/2018 09:15:00 0.6074
2018_01_05_S26 01/05/2018 09:20:00 0.0571
2018_01_05_S26 01/05/2018 09:25:00 0.0
2018_01_05_S26 01/05/2018 09:30:00 0.0
2018_01_05_S26 01/05/2018 09:35:00 0.0443
2018_01_05_S26 01/05/2018 09:40:00 3.7989
2018_01_05_S26 01/05/2018 09:45:00 0.0696
2018_01_05_S26 01/05/2018 09:50:00 0.7009
2018_01_05_S26 01/05/2018 09:55:00 9.6154
2018_01_05_S26 01/05/2018 10:00:00 0.1587
2018_01_05_S26 01/05/2018 10:05:00 0.2795
2018_01_05_S26 01/05/2018 10:10:00 0.007
2018_01_05_S26 01/05/2018 10:15:00 0.0046
2018_01_05_S26 01/05/2018 10:20:00 0.0
2018_01_05_S26 01/05/2018 10:25:00 0.0151
2018_01_05_S26 01/05/2018 10:30:00 0.7408
2018_01_05_S26 01/05/2018 10:35:00 0.0217
2018_01_05_S26 01/05/2018 10:40:00 0.0982
2018_01_05_S26 01/05/2018 10:45:00 0.3116
2018_01_05_S26 01/05/2018 10:50:00 0.1729
2018_01_05_S26 01/05/2018 10:55:00 0.0
2018_01_05_S26 01/05/2018 11:00:00 0.0469
2018_01_05_S26 01/05/2018 11:05:00 0.1446
2018_01_05_S26 01/05/2018 11:10:00 0.1743
2018_01_05_S26 01/05/2018 11:15:00 0.4466
2018_01_05_S26 01/05/2018 11:20:00 0.0922
2018_01_05_S26 01/05/2018 11:25:00 0.1464
2018_01_05_S26 01/05/2018 11:30:00 0.1858
2018_01_05_S26 01/05/2018 11:35:00 0.241
2018_01_05_S26 01/05/2018 11:40:00 0.4211
2018_01_05_S26 01/05/2018 11:45:00 0.0853
2018_01_05_S26 01/05/2018 11:50:00 0.0009
2018_01_05_S26 01/05/2018 11:55:00 0.0011
2018_01_05_S26 01/05/2018 12:00:00 0.1243
2018_01_05_S26 01/05/2018 12:05:00 0.1129
2018_01_05_S26 01/05/2018 12:10:00 0.5409
2018_01_05_S26 01/05/2018 12:15:00 0.8871
2018_01_05_S26 01/05/2018 12:20:00 0.5301
2018_01_05_S26 01/05/2018 12:25:00 0.8059
2018_01_05_S26 01/05/2018 12:30:00 0.4859
2018_01_05_S26 01/05/2018 12:35:00 0.5707
2018_01_05_S26 01/05/2018 12:40:00 0.7216
2018_01_05_S26 01/05/2018 12:45:00 1.3627
2018_01_05_S26 01/05/2018 12:50:00 0.0785
2018_01_05_S26 01/05/2018 12:55:00 0.0134
2018_01_05_S26 01/05/2018 13:00:00 0.014
2018_01_05_S26 01/05/2018 13:05:00 0.0752
2018_01_05_S26 01/05/2018 13:10:00 0.0
2018_01_05_S26 01/05/2018 13:15:00 0.0
2018_01_05_S26 01/05/2018 13:20:00 0.013
2018_01_05_S26 01/05/2018 13:25:00 0.0251
2018_01_05_S26 01/05/2018 13:30:00 0.0172
2018_01_05_S26 01/05/2018 13:35:00 0.0083
2018_01_05_S26 01/05/2018 13:40:00 0.0
2018_01_05_S26 01/05/2018 13:45:00 0.5053
2018_01_05_S26 01/05/2018 13:50:00 0.2612
2018_01_05_S26 01/05/2018 13:55:00 1.2457
2018_01_05_S26 01/05/2018 14:00:00 1.4699
2018_01_05_S26 01/05/2018 14:05:00 1.1761
2018_01_05_S26 01/05/2018 14:10:00 0.0145
2018_01_05_S26 01/05/2018 14:15:00 0.6398
2018_01_05_S26 01/05/2018 14:20:00 0.0
2018_01_05_S26 01/05/2018 14:25:00 0.0
2018_01_05_S26 01/05/2018 14:30:00 0.0028
2018_01_05_S26 01/05/2018 14:35:00 0.0012
2018_01_05_S26 01/05/2018 14:40:00 0.1
2018_01_05_S26 01/05/2018 14:45:00 0.5228
2018_01_05_S26 01/05/2018 14:50:00 0.0105
2018_01_05_S26 01/05/2018 14:55:00 0.0
2018_01_05_S26 01/05/2018 15:00:00 0.0
2018_01_05_S26 01/05/2018 15:05:00 0.0
2018_01_05_S26 01/05/2018 15:10:00 0.0
2018_01_05_S26 01/05/2018 15:15:00 0.0216
2018_01_05_S26 01/05/2018 15:20:00 1.6247
2018_01_05_S26 01/05/2018 15:25:00 0.0
2018_01_05_S26 01/05/2018 15:30:00 0.0
2018_01_05_S26 01/05/2018 15:35:00 0.0398
2018_01_05_S26 01/05/2018 15:40:00 0.0867
2018_01_05_S26 01/05/2018 15:45:00 0.0
2018_01_05_S26 01/05/2018 15:50:00 0.0
2018_01_05_S26 01/05/2018 15:55:00 0.0
2018_01_05_S26 01/05/2018 16:00:00 0.0
2018_01_05_S26 01/05/2018 16:05:00 0.0
2018_01_05_S26 01/05/2018 16:10:00 0.0
2018_01_05_S26 01/05/2018 16:15:00 0.0
2018_01_05_S26 01/05/2018 16:20:00 0.0
2018_01_05_S26 01/05/2018 16:25:00 0.0
2018_01_05_S26 01/05/2018 16:30:00 0.0
2018_01_05_S26 01/05/2018 16:35:00 0.0
2018_01_05_S26 01/05/2018 16:40:00 0.0
2018_01_05_S26 01/05/2018 16:45:00 0.0
2018_01_05_S26 01/05/2018 16:50:00 0.0
2018_01_05_S26 01/05/2018 16:55:00 0.0
2018_01_05_S26 01/05/2018 17:00:00 0.0
2018_01_05_S26 01/05/2018 17:05:00 0.0
2018_01_05_S26 01/05/2018 17:10:00 0.0
2018_01_05_S26 01/05/2018 17:15:00 0.0
2018_01_05_S26 01/05/2018 17:20:00 0.0
2018_01_05_S26 01/05/2018 17:25:00 0.0
2018_01_05_S26 01/05/2018 17:30:00 0.0
2018_01_05_S26 01/05/2018 17:35:00 0.0
2018_01_05_S26 01/05/2018 17:40:00 0.0
2018_01_05_S26 01/05/2018 17:45:00 0.0
2018_01_05_S26 01/05/2018 17:50:00 0.0
2018_01_05_S26 01/05/2018 17:55:00 0.0101
2018_01_05_S26 01/05/2018 18:00:00 0.0067
2018_01_05_S26 01/05/2018 18:05:00 0.0
2018_01_05_S26 01/05/2018 18:10:00 0.0
2018_01_05_S26 01/05/2018 18:15:00 0.013
2018_01_05_S26 01/05/2018 18:20:00 0.046
2018_01_05_S26 01/05/2018 18:25:00 0.0
2018_01_05_S26 01/05/2018 18:30:00 0.0
2018_01_05_S26 01/05/2018 18:35:00 0.0
2018_01_05_S26 01/05/2018 18:40:00 0.0
2018_01_05_S26 01/05/2018 18:45:00 0.0
2018_01_05_S26 01/05/2018 18:50:00 0.0
2018_01_05_S26 01/05/2018 18:55:00 0.0
2018_01_05_S26 01/05/2018 19:00:00 0.0
2018_01_05_S26 01/05/2018 19:05:00 0.0
2018_01_05_S26 01/05/2018 19:10:00 0.0
2018_01_05_S26 01/05/2018 19:15:00 0.0
2018_01_05_S26 01/05/2018 19:20:00 0.0
2018_01_05_S26 01/05/2018 19:25:00 0.0
2018_01_05_S26 01/05/2018 19:30:00 0.0
2018_01_05_S26 01/05/2018 19:35:00 0.0
2018_01_05_S26 01/05/2018 19:40:00 0.0
2018_01_05_S26 01/05/2018 19:45:00 0.0224
2018_01_05_S26 01/05/2018 19:50:00 0.0407
2018_01_05_S26 01/05/2018 19:55:00 0.001
2018_01_05_S26 01/05/2018 20:00:00 0.006
2018_01_05_S26 01/05/2018 20:05:00 0.001
2018_01_05_S26 01/05/2018 20:10:00 0.0
2018_01_05_S26 01/05/2018 20:15:00 0.0
2018_01_05_S26 01/05/2018 20:20:00 0.0
2018_01_05_S26 01/05/2018 20:25:00 0.0
2018_01_05_S26 01/05/2018 20:30:00 0.0
2018_01_05_S26 01/05/2018 20:35:00 0.0
2018_01_05_S26 01/05/2018 20:40:00 0.0
2018_01_05_S26 01/05/2018 20:45:00 0.0
2018_01_05_S26 01/05/2018 20:50:00 0.018
2018_01_05_S26 01/05/2018 20:55:00 0.0112
2018_01_05_S26 01/05/2018 21:00:00 0.0
2018_01_05_S26 01/05/2018 21:05:00 0.0
2018_01_05_S26 01/05/2018 21:10:00 0.0
2018_01_05_S26 01/05/2018 21:15:00 0.0
2018_01_05_S26 01/05/2018 21:20:00 0.0
2018_01_05_S26 01/05/2018 21:25:00 0.0
2018_01_05_S26 01/05/2018 21:30:00 0.0
2018_01_05_S26 01/05/2018 21:35:00 0.0
2018_01_05_S26 01/05/2018 21:40:00 0.0
2018_01_05_S26 01/05/2018 21:45:00 0.0
2018_01_05_S26 01/05/2018 21:50:00 0.0
2018_01_05_S26 01/05/2018 21:55:00 0.0
2018_01_05_S26 01/05/2018 22:00:00 0.0
2018_01_05_S26 01/05/2018 22:05:00 0.0
2018_01_05_S26 01/05/2018 22:10:00 0.0
2018_01_05_S26 01/05/2018 22:15:00 0.0
2018_01_05_S26 01/05/2018 22:20:00 0.0
2018_01_05_S26 01/05/2018 22:25:00 0.0229
2018_01_05_S26 01/05/2018 22:30:00 0.0
2018_01_05_S26 01/05/2018 22:35:00 0.2172
2018_01_05_S26 01/05/2018 22:40:00 0.0256
2018_01_05_S26 01/05/2018 22:45:00 0.0
2018_01_05_S26 01/05/2018 22:50:00 0.0
2018_01_05_S26 01/05/2018 22:55:00 0.0
2018_01_05_S26 01/05/2018 23:00:00 0.0
2018_01_05_S26 01/05/2018 23:05:00 0.0
2018_01_05_S26 01/05/2018 23:10:00 0.0
2018_01_05_S26 01/05/2018 23:15:00 0.0
2018_01_05_S26 01/05/2018 23:20:00 0.0
2018_01_05_S26 01/05/2018 23:25:00 0.0
2018_01_05_S26 01/05/2018 23:30:00 0.0
2018_01_05_S26 01/05/2018 23:35:00 0.0
2018_01_05_S26 01/05/2018 23:40:00 0.0
2018_01_05_S26 01/05/2018 23:45:00 0.0803
2018_01_05_S26 01/05/2018 23:50:00 0.0387
2018_01_05_S26 01/05/2018 23:55:00 0.0584
2018_01_05_S26 01/06/2018 00:00:00 0.0398
2018_01_05_S26 01/06/2018 00:05:00 0.3056
2018_01_05_S26 01/06/2018 00:10:00 0.0077
2018_01_05_S26 01/06/2018 00:15:00 0.2432
2018_01_05_S26 01/06/2018 00:20:00 0.0064
2018_01_05_S26 01/06/2018 00:25:00 0.0
2018_01_05_S26 01/06/2018 00:30:00 0.0
2018_01_05_S26 01/06/2018 00:35:00 0.0
2018_01_05_S26 01/06/2018 00:40:00 0.0
2018_01_05_S26 01/06/2018 00:45:00 0.0
2018_01_05_S26 01/06/2018 00:50:00 0.0
2018_01_05_S26 01/06/2018 00:55:00 0.0
2018_01_05_S26 01/06/2018 01:00:00 0.0
2018_01_05_S26 01/06/2018 01:05:00 0.0088
2018_01_05_S26 01/06/2018 01:10:00 0.0
2018_01_05_S26 01/06/2018 01:15:00 0.0
2018_01_05_S26 01/06/2018 01:20:00 0.0
2018_01_05_S26 01/06/2018 01:25:00 0.0
2018_01_05_S26 01/06/2018 01:30:00 0.0
2018_01_05_S26 01/06/2018 01:35:00 0.0
2018_01_05_S26 01/06/2018 01:40:00 0.0
2018_01_05_S26 01/06/2018 01:45:00 0.0
2018_01_05_S26 01/06/2018 01:50:00 0.0
2018_01_05_S26 01/06/2018 01:55:00 0.0
2018_01_05_S26 01/06/2018 02:00:00 0.0
2018_01_05_S26 01/06/2018 02:05:00 0.0
2018_01_05_S26 01/06/2018 02:10:00 0.0
2018_01_05_S26 01/06/2018 02:15:00 0.0
2018_01_05_S26 01/06/2018 02:20:00 0.0
2018_01_05_S26 01/06/2018 02:25:00 0.0
2018_01_05_S26 01/06/2018 02:30:00 0.0
2018_01_05_S26 01/06/2018 02:35:00 0.0
2018_01_05_S26 01/06/2018 02:40:00 0.0209
2018_01_05_S26 01/06/2018 02:45:00 0.365
2018_01_05_S26 01/06/2018 02:50:00 0.0168
2018_01_05_S26 01/06/2018 02:55:00 0.0
2018_01_05_S26 01/06/2018 03:00:00 0.0
2018_01_05_S26 01/06/2018 03:05:00 0.0
2018_01_05_S26 01/06/2018 03:10:00 0.0
2018_01_05_S26 01/06/2018 03:15:00 0.0
2018_01_05_S26 01/06/2018 03:20:00 0.0
2018_01_05_S26 01/06/2018 03:25:00 0.0
2018_01_05_S26 01/06/2018 03:30:00 0.0
2018_01_05_S26 01/06/2018 03:35:00 0.0
2018_01_05_S26 01/06/2018 03:40:00 0.0
2018_01_05_S26 01/06/2018 03:45:00 0.0
2018_01_05_S26 01/06/2018 03:50:00 0.0
2018_01_05_S26 01/06/2018 03:55:00 0.0
2018_01_05_S26 01/06/2018 04:00:00 0.0
2018_01_05_S26 01/06/2018 04:05:00 0.0
2018_01_05_S26 01/06/2018 04:10:00 0.0
2018_01_05_S26 01/06/2018 04:15:00 0.0
2018_01_05_S26 01/06/2018 04:20:00 0.0
2018_01_05_S26 01/06/2018 04:25:00 0.0
2018_01_05_S26 01/06/2018 04:30:00 0.0
2018_01_05_S26 01/06/2018 04:35:00 0.0
2018_01_05_S26 01/06/2018 04:40:00 0.0
2018_01_05_S26 01/06/2018 04:45:00 0.0
2018_01_05_S26 01/06/2018 04:50:00 0.0
2018_01_05_S26 01/06/2018 04:55:00 0.0
2018_01_05_S26 01/06/2018 05:00:00 0.0
2018_01_05_S26 01/06/2018 05:05:00 0.0
2018_01_05_S26 01/06/2018 05:10:00 0.0
2018_01_05_S26 01/06/2018 05:15:00 0.0
2018_01_05_S26 01/06/2018 05:20:00 0.0
2018_01_05_S26 01/06/2018 05:25:00 0.0
2018_01_05_S26 01/06/2018 05:30:00 0.0188
2018_01_05_S26 01/06/2018 05:35:00 1.1263
2018_01_05_S26 01/06/2018 05:40:00 0.001
2018_01_05_S26 01/06/2018 05:45:00 0.0
2018_01_05_S26 01/06/2018 05:50:00 0.0055
2018_01_05_S26 01/06/2018 05:55:00 0.0211
2018_01_05_S26 01/06/2018 06:00:00 0.0
2018_01_05_S26 01/06/2018 06:05:00 0.0084
2018_01_05_S26 01/06/2018 06:10:00 0.0115
2018_01_05_S26 01/06/2018 06:15:00 0.011
2018_01_05_S26 01/06/2018 06:20:00 0.0483
2018_01_05_S26 01/06/2018 06:25:00 0.0126
2018_01_05_S26 01/06/2018 06:30:00 0.0
2018_01_05_S26 01/06/2018 06:35:00 0.0
2018_01_05_S26 01/06/2018 06:40:00 0.0
2018_01_05_S26 01/06/2018 06:45:00 0.0285
2018_01_05_S26 01/06/2018 06:50:00 0.0373
2018_01_05_S26 01/06/2018 06:55:00 0.0666
2018_01_05_S26 01/06/2018 07:00:00 0.0
2018_01_05_S26 01/06/2018 07:05:00 0.001
2018_01_05_S26 01/06/2018 07:10:00 0.0
2018_01_05_S26 01/06/2018 07:15:00 0.0
2018_01_05_S26 01/06/2018 07:20:00 0.0
2018_01_05_S26 01/06/2018 07:25:00 0.0
2018_01_05_S26 01/06/2018 07:30:00 0.0
2018_01_05_S26 01/06/2018 07:35:00 0.0
2018_01_05_S26 01/06/2018 07:40:00 0.0102
2018_01_05_S26 01/06/2018 07:45:00 0.0652
2018_01_05_S26 01/06/2018 07:50:00 0.1418
2018_01_05_S26 01/06/2018 07:55:00 0.0073
2018_01_05_S26 01/06/2018 08:00:00 0.0

2018_01_05_S27 01/04/2018 10:25:00 0.0112
2018_01_05_S27 01/04/2018 10:30:00 0.0252
2018_01_05_S27 01/04/2018 10:35:00 0.0682
2018_01_05_S27 01/04/2018 10:40:00 0.0358
2018_01_05_S27 01/04/2018 10:45:00 0.0977
2018_01_05_S27 01/04/2018 10:50:00 0.0556
2018_01_05_S27 01/04/2018 10:55:00 0.0
2018_01_05_S27 01/04/2018 11:00:00 0.0
2018_01_05_S27 01/04/2018 11:05:00 0.1236
2018_01_05_S27 01/04/2018 11:10:00 0.2082
2018_01_05_S27 01/04/2018 11:15:00 5.1246
2018_01_05_S27 01/04/2018 11:20:00 0.734
2018_01_05_S27 01/04/2018 11:25:00 0.4999
2018_01_05_S27 01/04/2018 11:30:00 0.0219
2018_01_05_S27 01/04/2018 11:35:00 0.0017
2018_01_05_S27 01/04/2018 11:40:00 0.0
2018_01_05_S27 01/04/2018 11:45:00 0.0
2018_01_05_S27 01/04/2018 11:50:00 0.0
2018_01_05_S27 01/04/2018 11:55:00 0.0
2018_01_05_S27 01/04/2018 12:00:00 0.0
2018_01_05_S27 01/04/2018 12:05:00 0.0
2018_01_05_S27 01/04/2018 12:10:00 0.0
2018_01_05_S27 01/04/2018 12:15:00 0.0
2018_01_05_S27 01/04/2018 12:20:00 0.0
2018_01_05_S27 01/04/2018 12:25:00 0.0
2018_01_05_S27 01/04/2018 12:30:00 0.0029
2018_01_05_S27 01/04/2018 12:35:00 0.0
2018_01_05_S27 01/04/2018 12:40:00 0.0
2018_01_05_S27 01/04/2018 12:45:00 0.0
2018_01_05_S27 01/04/2018 12:50:00 0.0
2018_01_05_S27 01/04/2018 12:55:00 0.0
2018_01_05_S27 01/04/2018 13:00:00 0.0
2018_01_05_S27 01/04/2018 13:05:00 0.0
2018_01_05_S27 01/04/2018 13:10:00 0.0
2018_01_05_S27 01/04/2018 13:15:00 0.0016
2018_01_05_S27 01/04/2018 13:20:00 0.0
2018_01_05_S27 01/04/2018 13:25:00 0.0
2018_01_05_S27 01/04/2018 13:30:00 0.0
2018_01_05_S27 01/04/2018 13:35:00 0.0
2018_01_05_S27 01/04/2018 13:40:00 0.0
2018_01_05_S27 01/04/2018 13:45:00 0.0
2018_01_05_S27 01/04/2018 13:50:00 0.0002
2018_01_05_S27 01/04/2018 13:55:00 0.0
2018_01_05_S27 01/04/2018 14:00:00 0.0113
2018_01_05_S27 01/04/2018 14:05:00 0.004
2018_01_05_S27 01/04/2018 14:10:00 0.0008
2018_01_05_S27 01/04/2018 14:15:00 0.0015
2018_01_05_S27 01/04/2018 14:20:00 0.0074
2018_01_05_S27 01/04/2018 14:25:00 0.0117
2018_01_05_S27 01/04/2018 14:30:00 0.0084
2018_01_05_S27 01/04/2018 14:35:00 0.0019
2018_01_05_S27 01/04/2018 14:40:00 0.0352
2018_01_05_S27 01/04/2018 14:45:00 0.0
2018_01_05_S27 01/04/2018 14:50:00 0.0
2018_01_05_S27 01/04/2018 14:55:00 0.0
2018_01_05_S27 01/04/2018 15:00:00 0.0
2018_01_05_S27 01/04/2018 15:05:00 0.0
2018_01_05_S27 01/04/2018 15:10:00 0.0
2018_01_05_S27 01/04/2018 15:15:00 0.0
2018_01_05_S27 01/04/2018 15:20:00 0.0
2018_01_05_S27 01/04/2018 15:25:00 0.0
2018_01_05_S27 01/04/2018 15:30:00 0.0
2018_01_05_S27 01/04/2018 15:35:00 0.106
2018_01_05_S27 01/04/2018 15:40:00 0.0
2018_01_05_S27 01/04/2018 15:45:00 0.0
2018_01_05_S27 01/04/2018 15:50:00 0.0
2018_01_05_S27 01/04/2018 15:55:00 0.0116
2018_01_05_S27 01/04/2018 16:00:00 0.0585
2018_01_05_S27 01/04/2018 16:05:00 0.151
2018_01_05_S27 01/04/2018 16:10:00 0.0242
2018_01_05_S27 01/04/2018 16:15:00 0.0147
2018_01_05_S27 01/04/2018 16:20:00 0.2694
2018_01_05_S27 01/04/2018 16:25:00 0.0204
2018_01_05_S27 01/04/2018 16:30:00 0.0057
2018_01_05_S27 01/04/2018 16:35:00 0.0
2018_01_05_S27 01/04/2018 16:40:00 0.0
2018_01_05_S27 01/04/2018 16:45:00 0.0
2018_01_05_S27 01/04/2018 16:50:00 0.0
2018_01_05_S27 01/04/2018 16:55:00 0.0
2018_01_05_S27 01/04/2018 17:00:00 0.0
2018_01_05_S27 01/04/2018 17:05:00 0.0
2018_01_05_S27 01/04/2018 17:10:00 0.3961
2018_01_05_S27 01/04/2018 17:15:00 0.0573
2018_01_05_S27 01/04/2018 17:20:00 0.0
2018_01_05_S27 01/04/2018 17:25:00 0.0
2018_01_05_S27 01/04/2018 17:30:00 0.0017
2018_01_05_S27 01/04/2018 17:35:00 0.2
2018_01_05_S27 01/04/2018 17:40:00 0.4544
2018_01_05_S27 01/04/2018 17:45:00 1.9186
2018_01_05_S27 01/04/2018 17:50:00 0.8501
2018_01_05_S27 01/04/2018 17:55:00 0.2866
2018_01_05_S27 01/04/2018 18:00:00 0.3222
2018_01_05_S27 01/04/2018 18:05:00 0.4101
2018_01_05_S27 01/04/2018 18:10:00 0.2605
2018_01_05_S27 01/04/2018 18:15:00 0.1681
2018_01_05_S27 01/04/2018 18:20:00 0.022
2018_01_05_S27 01/04/2018 18:25:00 0.0
2018_01_05_S27 01/04/2018 18:30:00 0.0
2018_01_05_S27 01/04/2018 18:35:00 0.0
2018_01_05_S27 01/04/2018 18:40:00 0.0
2018_01_05_S27 01/04/2018 18:45:00 0.0
2018_01_05_S27 01/04/2018 18:50:00 0.0
2018_01_05_S27 01/04/2018 18:55:00 0.0
2018_01_05_S27 01/04/2018 19:00:00 0.0
2018_01_05_S27 01/04/2018 19:05:00 0.0
2018_01_05_S27 01/04/2018 19:10:00 0.0
2018_01_05_S27 01/04/2018 19:15:00 0.0
2018_01_05_S27 01/04/2018 19:20:00 0.0
2018_01_05_S27 01/04/2018 19:25:00 0.0
2018_01_05_S27 01/04/2018 19:30:00 0.0
2018_01_05_S27 01/04/2018 19:35:00 0.0
2018_01_05_S27 01/04/2018 19:40:00 0.0066
2018_01_05_S27 01/04/2018 19:45:00 0.0
2018_01_05_S27 01/04/2018 19:50:00 0.0
2018_01_05_S27 01/04/2018 19:55:00 0.0
2018_01_05_S27 01/04/2018 20:00:00 0.0
2018_01_05_S27 01/04/2018 20:05:00 0.0
2018_01_05_S27 01/04/2018 20:10:00 0.0
2018_01_05_S27 01/04/2018 20:15:00 0.0
2018_01_05_S27 01/04/2018 20:20:00 0.0
2018_01_05_S27 01/04/2018 20:25:00 0.0
2018_01_05_S27 01/04/2018 20:30:00 0.0045
2018_01_05_S27 01/04/2018 20:35:00 0.0
2018_01_05_S27 01/04/2018 20:40:00 0.0
2018_01_05_S27 01/04/2018 20:45:00 0.0
2018_01_05_S27 01/04/2018 20:50:00 0.0
2018_01_05_S27 01/04/2018 20:55:00 0.0
2018_01_05_S27 01/04/2018 21:00:00 0.0
2018_01_05_S27 01/04/2018 21:05:00 0.0
2018_01_05_S27 01/04/2018 21:10:00 0.0
2018_01_05_S27 01/04/2018 21:15:00 0.0
2018_01_05_S27 01/04/2018 21:20:00 0.0
2018_01_05_S27 01/04/2018 21:25:00 0.0589
2018_01_05_S27 01/04/2018 21:30:00 0.023
2018_01_05_S27 01/04/2018 21:35:00 0.0036
2018_01_05_S27 01/04/2018 21:40:00 0.0039
2018_01_05_S27 01/04/2018 21:45:00 0.0089
2018_01_05_S27 01/04/2018 21:50:00 0.0
2018_01_05_S27 01/04/2018 21:55:00 0.0
2018_01_05_S27 01/04/2018 22:00:00 0.0
2018_01_05_S27 01/04/2018 22:05:00 0.0
2018_01_05_S27 01/04/2018 22:10:00 0.0
2018_01_05_S27 01/04/2018 22:15:00 0.0
2018_01_05_S27 01/04/2018 22:20:00 0.0
2018_01_05_S27 01/04/2018 22:25:00 0.0
2018_01_05_S27 01/04/2018 22:30:00 0.0
2018_01_05_S27 01/04/2018 22:35:00 0.0
2018_01_05_S27 01/04/2018 22:40:00 0.0
2018_01_05_S27 01/04/2018 22:45:00 0.0
2018_01_05_S27 01/04/2018 22:50:00 0.0
2018_01_05_S27 01/04/2018 22:55:00 0.0
2018_01_05_S27 01/04/2018 23:00:00 0.0
2018_01_05_S27 01/04/2018 23:05:00 0.0
2018_01_05_S27 01/04/2018 23:10:00 0.0
2018_01_05_S27 01/04/2018 23:15:00 0.0
2018_01_05_S27 01/04/2018 23:20:00 0.0
2018_01_05_S27 01/04/2018 23:25:00 0.0
2018_01_05_S27 01/04/2018 23:30:00 0.0
2018_01_05_S27 01/04/2018 23:35:00 0.0
2018_01_05_S27 01/04/2018 23:40:00 0.0
2018_01_05_S27 01/04/2018 23:45:00 0.0
2018_01_05_S27 01/04/2018 23:50:00 0.0
2018_01_05_S27 01/04/2018 23:55:00 0.0
2018_01_05_S27 01/05/2018 00:00:00 0.0
2018_01_05_S27 01/05/2018 00:05:00 0.0
2018_01_05_S27 01/05/2018 00:10:00 0.0
2018_01_05_S27 01/05/2018 00:15:00 0.0
2018_01_05_S27 01/05/2018 00:20:00 0.0
2018_01_05_S27 01/05/2018 00:25:00 0.0
2018_01_05_S27 01/05/2018 00:30:00 0.0
2018_01_05_S27 01/05/2018 00:35:00 0.0
2018_01_05_S27 01/05/2018 00:40:00 0.0
2018_01_05_S27 01/05/2018 00:45:00 0.0023
2018_01_05_S27 01/05/2018 00:50:00 0.0924
2018_01_05_S27 01/05/2018 00:55:00 0.1764
2018_01_05_S27 01/05/2018 01:00:00 0.0
2018_01_05_S27 01/05/2018 01:05:00 0.2807
2018_01_05_S27 01/05/2018 01:10:00 0.0302
2018_01_05_S27 01/05/2018 01:15:00 0.0064
2018_01_05_S27 01/05/2018 01:20:00 0.157
2018_01_05_S27 01/05/2018 01:25:00 0.1302
2018_01_05_S27 01/05/2018 01:30:00 0.0125
2018_01_05_S27 01/05/2018 01:35:00 0.0589
2018_01_05_S27 01/05/2018 01:40:00 0.0
2018_01_05_S27 01/05/2018 01:45:00 0.0778
2018_01_05_S27 01/05/2018 01:50:00 0.2058
2018_01_05_S27 01/05/2018 01:55:00 0.0083
2018_01_05_S27 01/05/2018 02:00:00 0.0153
2018_01_05_S27 01/05/2018 02:05:00 0.027
2018_01_05_S27 01/05/2018 02:10:00 0.0135
2018_01_05_S27 01/05/2018 02:15:00 0.0001
2018_01_05_S27 01/05/2018 02:20:00 0.0169
2018_01_05_S27 01/05/2018 02:25:00 0.0
2018_01_05_S27 01/05/2018 02:30:00 0.0
2018_01_05_S27 01/05/2018 02:35:00 0.0
2018_01_05_S27 01/05/2018 02:40:00 0.0
2018_01_05_S27 01/05/2018 02:45:00 0.0
2018_01_05_S27 01/05/2018 02:50:00 0.0
2018_01_05_S27 01/05/2018 02:55:00 0.0
2018_01_05_S27 01/05/2018 03:00:00 0.0
2018_01_05_S27 01/05/2018 03:05:00 0.1796
2018_01_05_S27 01/05/2018 03:10:00 0.5661
2018_01_05_S27 01/05/2018 03:15:00 0.5605
2018_01_05_S27 01/05/2018 03:20:00 0.9322
2018_01_05_S27 01/05/2018 03:25:00 0.3536
2018_01_05_S27 01/05/2018 03:30:00 0.2735
2018_01_05_S27 01/05/2018 03:35:00 0.1032
2018_01_05_S27 01/05/2018 03:40:00 0.0001
2018_01_05_S27 01/05/2018 03:45:00 0.0003
2018_01_05_S27 01/05/2018 03:50:00 0.0392
2018_01_05_S27 01/05/2018 03:55:00 0.0109
2018_01_05_S27 01/05/2018 04:00:00 0.0787
2018_01_05_S27 01/05/2018 04:05:00 0.0
2018_01_05_S27 01/05/2018 04:10:00 0.0008
2018_01_05_S27 01/05/2018 04:15:00 0.0018
2018_01_05_S27 01/05/2018 04:20:00 0.0583
2018_01_05_S27 01/05/2018 04:25:00 0.0611
2018_01_05_S27 01/05/2018 04:30:00 0.0569
2018_01_05_S27 01/05/2018 04:35:00 0.2476
2018_01_05_S27 01/05/2018 04:40:00 0.0139
2018_01_05_S27 01/05/2018 04:45:00 0.112
2018_01_05_S27 01/05/2018 04:50:00 0.0215
2018_01_05_S27 01/05/2018 04:55:00 0.0001
2018_01_05_S27 01/05/2018 05:00:00 0.0189
2018_01_05_S27 01/05/2018 05:05:00 0.0014
2018_01_05_S27 01/05/2018 05:10:00 0.0076
2018_01_05_S27 01/05/2018 05:15:00 0.0
2018_01_05_S27 01/05/2018 05:20:00 0.025
2018_01_05_S27 01/05/2018 05:25:00 0.0
2018_01_05_S27 01/05/2018 05:30:00 0.0
2018_01_05_S27 01/05/2018 05:35:00 0.0
2018_01_05_S27 01/05/2018 05:40:00 0.0
2018_01_05_S27 01/05/2018 05:45:00 0.0114
2018_01_05_S27 01/05/2018 05:50:00 0.0
2018_01_05_S27 01/05/2018 05:55:00 0.0003
2018_01_05_S27 01/05/2018 06:00:00 0.1211
2018_01_05_S27 01/05/2018 06:05:00 0.36
2018_01_05_S27 01/05/2018 06:10:00 0.0111
2018_01_05_S27 01/05/2018 06:15:00 0.0775
2018_01_05_S27 01/05/2018 06:20:00 1.2247
2018_01_05_S27 01/05/2018 06:25:00 1.2313
2018_01_05_S27 01/05/2018 06:30:00 1.2344
2018_01_05_S27 01/05/2018 06:35:00 1.0972
2018_01_05_S27 01/05/2018 06:40:00 0.4041
2018_01_05_S27 01/05/2018 06:45:00 0.4233
2018_01_05_S27 01/05/2018 06:50:00 1.0847
2018_01_05_S27 01/05/2018 06:55:00 0.1361
2018_01_05_S27 01/05/2018 07:00:00 0.2972
2018_01_05_S27 01/05/2018 07:05:00 0.1933
2018_01_05_S27 01/05/2018 07:10:00 0.0422
2018_01_05_S27 01/05/2018 07:15:00 0.0
2018_01_05_S27 01/05/2018 07:20:00 0.0
2018_01_05_S27 01/05/2018 07:25:00 0.0
2018_01_05_S27 01/05/2018 07:30:00 0.0
2018_01_05_S27 01/05/2018 07:35:00 0.0
2018_01_05_S27 01/05/2018 07:40:00 0.0
2018_01_05_S27 01/05/2018 07:45:00 0.0
2018_01_05_S27 01/05/2018 07:50:00 0.0
2018_01_05_S27 01/05/2018 07:55:00 0.0
2018_01_05_S27 01/05/2018 08:00:00 0.022
2018_01_05_S27 01/05/2018 08:05:00 0.0
2018_01_05_S27 01/05/2018 08:10:00 0.0009
2018_01_05_S27 01/05/2018 08:15:00 0.0334
2018_01_05_S27 01/05/2018 08:20:00 0.0
2018_01_05_S27 01/05/2018 08:25:00 0.0475
2018_01_05_S27 01/05/2018 08:30:00 0.1511
2018_01_05_S27 01/05/2018 08:35:00 0.3561
2018_01_05_S27 01/05/2018 08:40:00 0.5483
2018_01_05_S27 01/05/2018 08:45:00 2.8815
2018_01_05_S27 01/05/2018 08:50:00 0.7542
2018_01_05_S27 01/05/2018 08:55:00 2.0966
2018_01_05_S27 01/05/2018 09:00:00 0.358
2018_01_05_S27 01/05/2018 09:05:00 1.0835
2018_01_05_S27 01/05/2018 09:10:00 1.9982
2018_01_05_S27 01/05/2018 09:15:00 0.3253
2018_01_05_S27 01/05/2018 09:20:00 0.1207
2018_01_05_S27 01/05/2018 09:25:00 0.0
2018_01_05_S27 01/05/2018 09:30:00 0.0
2018_01_05_S27 01/05/2018 09:35:00 0.0499
2018_01_05_S27 01/05/2018 09:40:00 4.0377
2018_01_05_S27 01/05/2018 09:45:00 0.0475
2018_01_05_S27 01/05/2018 09:50:00 0.6542
2018_01_05_S27 01/05/2018 09:55:00 7.0402
2018_01_05_S27 01/05/2018 10:00:00 1.9649
2018_01_05_S27 01/05/2018 10:05:00 0.357
2018_01_05_S27 01/05/2018 10:10:00 0.0035
2018_01_05_S27 01/05/2018 10:15:00 0.0085
2018_01_05_S27 01/05/2018 10:20:00 0.0
2018_01_05_S27 01/05/2018 10:25:00 0.0185
2018_01_05_S27 01/05/2018 10:30:00 0.6784
2018_01_05_S27 01/05/2018 10:35:00 0.0245
2018_01_05_S27 01/05/2018 10:40:00 0.1332
2018_01_05_S27 01/05/2018 10:45:00 0.7293
2018_01_05_S27 01/05/2018 10:50:00 0.1419
2018_01_05_S27 01/05/2018 10:55:00 0.0026
2018_01_05_S27 01/05/2018 11:00:00 0.0566
2018_01_05_S27 01/05/2018 11:05:00 0.2233
2018_01_05_S27 01/05/2018 11:10:00 0.1725
2018_01_05_S27 01/05/2018 11:15:00 0.3557
2018_01_05_S27 01/05/2018 11:20:00 0.1191
2018_01_05_S27 01/05/2018 11:25:00 0.1309
2018_01_05_S27 01/05/2018 11:30:00 0.1919
2018_01_05_S27 01/05/2018 11:35:00 0.4872
2018_01_05_S27 01/05/2018 11:40:00 0.3296
2018_01_05_S27 01/05/2018 11:45:00 0.0453
2018_01_05_S27 01/05/2018 11:50:00 0.0
2018_01_05_S27 01/05/2018 11:55:00 0.0064
2018_01_05_S27 01/05/2018 12:00:00 0.1274
2018_01_05_S27 01/05/2018 12:05:00 0.1206
2018_01_05_S27 01/05/2018 12:10:00 0.6054
2018_01_05_S27 01/05/2018 12:15:00 0.7821
2018_01_05_S27 01/05/2018 12:20:00 0.4874
2018_01_05_S27 01/05/2018 12:25:00 0.7354
2018_01_05_S27 01/05/2018 12:30:00 0.1161
2018_01_05_S27 01/05/2018 12:35:00 0.6235
2018_01_05_S27 01/05/2018 12:40:00 0.5125
2018_01_05_S27 01/05/2018 12:45:00 0.852
2018_01_05_S27 01/05/2018 12:50:00 0.0067
2018_01_05_S27 01/05/2018 12:55:00 0.0041
2018_01_05_S27 01/05/2018 13:00:00 0.0019
2018_01_05_S27 01/05/2018 13:05:00 0.0581
2018_01_05_S27 01/05/2018 13:10:00 0.0
2018_01_05_S27 01/05/2018 13:15:00 0.0
2018_01_05_S27 01/05/2018 13:20:00 0.0152
2018_01_05_S27 01/05/2018 13:25:00 0.0308
2018_01_05_S27 01/05/2018 13:30:00 0.0131
2018_01_05_S27 01/05/2018 13:35:00 0.0022
2018_01_05_S27 01/05/2018 13:40:00 0.0
2018_01_05_S27 01/05/2018 13:45:00 0.3924
2018_01_05_S27 01/05/2018 13:50:00 0.1941
2018_01_05_S27 01/05/2018 13:55:00 1.0489
2018_01_05_S27 01/05/2018 14:00:00 2.6594
2018_01_05_S27 01/05/2018 14:05:00 2.2626
2018_01_05_S27 01/05/2018 14:10:00 0.0183
2018_01_05_S27 01/05/2018 14:15:00 0.6975
2018_01_05_S27 01/05/2018 14:20:00 0.0
2018_01_05_S27 01/05/2018 14:25:00 0.0
2018_01_05_S27 01/05/2018 14:30:00 0.0044
2018_01_05_S27 01/05/2018 14:35:00 0.0058
2018_01_05_S27 01/05/2018 14:40:00 0.2265
2018_01_05_S27 01/05/2018 14:45:00 0.5172
2018_01_05_S27 01/05/2018 14:50:00 0.0092
2018_01_05_S27 01/05/2018 14:55:00 0.0015
2018_01_05_S27 01/05/2018 15:00:00 0.0
2018_01_05_S27 01/05/2018 15:05:00 0.0
2018_01_05_S27 01/05/2018 15:10:00 0.0
2018_01_05_S27 01/05/2018 15:15:00 0.0323
2018_01_05_S27 01/05/2018 15:20:00 1.2284
2018_01_05_S27 01/05/2018 15:25:00 0.0
2018_01_05_S27 01/05/2018 15:30:00 0.0
2018_01_05_S27 01/05/2018 15:35:00 0.0379
2018_01_05_S27 01/05/2018 15:40:00 0.0303
2018_01_05_S27 01/05/2018 15:45:00 0.0
2018_01_05_S27 01/05/2018 15:50:00 0.0
2018_01_05_S27 01/05/2018 15:55:00 0.0
2018_01_05_S27 01/05/2018 16:00:00 0.0
2018_01_05_S27 01/05/2018 16:05:00 0.0
2018_01_05_S27 01/05/2018 16:10:00 0.0
2018_01_05_S27 01/05/2018 16:15:00 0.0
2018_01_05_S27 01/05/2018 16:20:00 0.0
2018_01_05_S27 01/05/2018 16:25:00 0.0
2018_01_05_S27 01/05/2018 16:30:00 0.0
2018_01_05_S27 01/05/2018 16:35:00 0.0
2018_01_05_S27 01/05/2018 16:40:00 0.0
2018_01_05_S27 01/05/2018 16:45:00 0.0
2018_01_05_S27 01/05/2018 16:50:00 0.0
2018_01_05_S27 01/05/2018 16:55:00 0.0
2018_01_05_S27 01/05/2018 17:00:00 0.0
2018_01_05_S27 01/05/2018 17:05:00 0.0
2018_01_05_S27 01/05/2018 17:10:00 0.0
2018_01_05_S27 01/05/2018 17:15:00 0.0
2018_01_05_S27 01/05/2018 17:20:00 0.0
2018_01_05_S27 01/05/2018 17:25:00 0.0
2018_01_05_S27 01/05/2018 17:30:00 0.0
2018_01_05_S27 01/05/2018 17:35:00 0.0
2018_01_05_S27 01/05/2018 17:40:00 0.0
2018_01_05_S27 01/05/2018 17:45:00 0.0
2018_01_05_S27 01/05/2018 17:50:00 0.0
2018_01_05_S27 01/05/2018 17:55:00 0.0098
2018_01_05_S27 01/05/2018 18:00:00 0.0103
2018_01_05_S27 01/05/2018 18:05:00 0.0
2018_01_05_S27 01/05/2018 18:10:00 0.0
2018_01_05_S27 01/05/2018 18:15:00 0.0241
2018_01_05_S27 01/05/2018 18:20:00 0.028
2018_01_05_S27 01/05/2018 18:25:00 0.0
2018_01_05_S27 01/05/2018 18:30:00 0.0
2018_01_05_S27 01/05/2018 18:35:00 0.0
2018_01_05_S27 01/05/2018 18:40:00 0.0
2018_01_05_S27 01/05/2018 18:45:00 0.0
2018_01_05_S27 01/05/2018 18:50:00 0.0
2018_01_05_S27 01/05/2018 18:55:00 0.0
2018_01_05_S27 01/05/2018 19:00:00 0.0
2018_01_05_S27 01/05/2018 19:05:00 0.0
2018_01_05_S27 01/05/2018 19:10:00 0.0
2018_01_05_S27 01/05/2018 19:15:00 0.0
2018_01_05_S27 01/05/2018 19:20:00 0.0
2018_01_05_S27 01/05/2018 19:25:00 0.0
2018_01_05_S27 01/05/2018 19:30:00 0.0
2018_01_05_S27 01/05/2018 19:35:00 0.0
2018_01_05_S27 01/05/2018 19:40:00 0.0
2018_01_05_S27 01/05/2018 19:45:00 0.0493
2018_01_05_S27 01/05/2018 19:50:00 0.0355
2018_01_05_S27 01/05/2018 19:55:00 0.0
2018_01_05_S27 01/05/2018 20:00:00 0.0007
2018_01_05_S27 01/05/2018 20:05:00 0.0
2018_01_05_S27 01/05/2018 20:10:00 0.0
2018_01_05_S27 01/05/2018 20:15:00 0.0
2018_01_05_S27 01/05/2018 20:20:00 0.0
2018_01_05_S27 01/05/2018 20:25:00 0.0
2018_01_05_S27 01/05/2018 20:30:00 0.0
2018_01_05_S27 01/05/2018 20:35:00 0.0
2018_01_05_S27 01/05/2018 20:40:00 0.0
2018_01_05_S27 01/05/2018 20:45:00 0.0
2018_01_05_S27 01/05/2018 20:50:00 0.0553
2018_01_05_S27 01/05/2018 20:55:00 0.0045
2018_01_05_S27 01/05/2018 21:00:00 0.0
2018_01_05_S27 01/05/2018 21:05:00 0.0
2018_01_05_S27 01/05/2018 21:10:00 0.0
2018_01_05_S27 01/05/2018 21:15:00 0.0
2018_01_05_S27 01/05/2018 21:20:00 0.0
2018_01_05_S27 01/05/2018 21:25:00 0.0
2018_01_05_S27 01/05/2018 21:30:00 0.0
2018_01_05_S27 01/05/2018 21:35:00 0.0
2018_01_05_S27 01/05/2018 21:40:00 0.0
2018_01_05_S27 01/05/2018 21:45:00 0.0
2018_01_05_S27 01/05/2018 21:50:00 0.0
2018_01_05_S27 01/05/2018 21:55:00 0.0
2018_01_05_S27 01/05/2018 22:00:00 0.0
2018_01_05_S27 01/05/2018 22:05:00 0.0
2018_01_05_S27 01/05/2018 22:10:00 0.0
2018_01_05_S27 01/05/2018 22:15:00 0.0
2018_01_05_S27 01/05/2018 22:20:00 0.0
2018_01_05_S27 01/05/2018 22:25:00 0.0058
2018_01_05_S27 01/05/2018 22:30:00 0.0
2018_01_05_S27 01/05/2018 22:35:00 0.5256
2018_01_05_S27 01/05/2018 22:40:00 0.0426
2018_01_05_S27 01/05/2018 22:45:00 0.0
2018_01_05_S27 01/05/2018 22:50:00 0.0
2018_01_05_S27 01/05/2018 22:55:00 0.0
2018_01_05_S27 01/05/2018 23:00:00 0.0
2018_01_05_S27 01/05/2018 23:05:00 0.0
2018_01_05_S27 01/05/2018 23:10:00 0.0
2018_01_05_S27 01/05/2018 23:15:00 0.001
2018_01_05_S27 01/05/2018 23:20:00 0.0
2018_01_05_S27 01/05/2018 23:25:00 0.0
2018_01_05_S27 01/05/2018 23:30:00 0.0
2018_01_05_S27 01/05/2018 23:35:00 0.0
2018_01_05_S27 01/05/2018 23:40:00 0.0
2018_01_05_S27 01/05/2018 23:45:00 0.035
2018_01_05_S27 01/05/2018 23:50:00 0.0169
2018_01_05_S27 01/05/2018 23:55:00 0.0786
2018_01_05_S27 01/06/2018 00:00:00 0.0597
2018_01_05_S27 01/06/2018 00:05:00 0.1572
2018_01_05_S27 01/06/2018 00:10:00 0.0073
2018_01_05_S27 01/06/2018 00:15:00 0.3165
2018_01_05_S27 01/06/2018 00:20:00 0.0001
2018_01_05_S27 01/06/2018 00:25:00 0.0
2018_01_05_S27 01/06/2018 00:30:00 0.0
2018_01_05_S27 01/06/2018 00:35:00 0.0
2018_01_05_S27 01/06/2018 00:40:00 0.0
2018_01_05_S27 01/06/2018 00:45:00 0.0
2018_01_05_S27 01/06/2018 00:50:00 0.0
2018_01_05_S27 01/06/2018 00:55:00 0.0
2018_01_05_S27 01/06/2018 01:00:00 0.0002
2018_01_05_S27 01/06/2018 01:05:00 0.013
2018_01_05_S27 01/06/2018 01:10:00 0.0
2018_01_05_S27 01/06/2018 01:15:00 0.0
2018_01_05_S27 01/06/2018 01:20:00 0.0
2018_01_05_S27 01/06/2018 01:25:00 0.0
2018_01_05_S27 01/06/2018 01:30:00 0.0
2018_01_05_S27 01/06/2018 01:35:00 0.0
2018_01_05_S27 01/06/2018 01:40:00 0.0
2018_01_05_S27 01/06/2018 01:45:00 0.0
2018_01_05_S27 01/06/2018 01:50:00 0.0
2018_01_05_S27 01/06/2018 01:55:00 0.0
2018_01_05_S27 01/06/2018 02:00:00 0.0
2018_01_05_S27 01/06/2018 02:05:00 0.0
2018_01_05_S27 01/06/2018 02:10:00 0.0
2018_01_05_S27 01/06/2018 02:15:00 0.0
2018_01_05_S27 01/06/2018 02:20:00 0.0
2018_01_05_S27 01/06/2018 02:25:00 0.0
2018_01_05_S27 01/06/2018 02:30:00 0.0
2018_01_05_S27 01/06/2018 02:35:00 0.0
2018_01_05_S27 01/06/2018 02:40:00 0.0461
2018_01_05_S27 01/06/2018 02:45:00 0.2359
2018_01_05_S27 01/06/2018 02:50:00 0.008
2018_01_05_S27 01/06/2018 02:55:00 0.0
2018_01_05_S27 01/06/2018 03:00:00 0.0
2018_01_05_S27 01/06/2018 03:05:00 0.0
2018_01_05_S27 01/06/2018 03:10:00 0.0
2018_01_05_S27 01/06/2018 03:15:00 0.0
2018_01_05_S27 01/06/2018 03:20:00 0.0
2018_01_05_S27 01/06/2018 03:25:00 0.0
2018_01_05_S27 01/06/2018 03:30:00 0.0
2018_01_05_S27 01/06/2018 03:35:00 0.0
2018_01_05_S27 01/06/2018 03:40:00 0.0
2018_01_05_S27 01/06/2018 03:45:00 0.0
2018_01_05_S27 01/06/2018 03:50:00 0.0
2018_01_05_S27 01/06/2018 03:55:00 0.0
2018_01_05_S27 01/06/2018 04:00:00 0.0
2018_01_05_S27 01/06/2018 04:05:00 0.0
2018_01_05_S27 01/06/2018 04:10:00 0.0
2018_01_05_S27 01/06/2018 04:15:00 0.0002
2018_01_05_S27 01/06/2018 04:20:00 0.0015
2018_01_05_S27 01/06/2018 04:25:00 0.0
2018_01_05_S27 01/06/2018 04:30:00 0.0
2018_01_05_S27 01/06/2018 04:35:00 0.0
2018_01_05_S27 01/06/2018 04:40:00 0.0
2018_01_05_S27 01/06/2018 04:45:00 0.0
2018_01_05_S27 01/06/2018 04:50:00 0.0
2018_01_05_S27 01/06/2018 04:55:00 0.0
2018_01_05_S27 01/06/2018 05:00:00 0.0
2018_01_05_S27 01/06/2018 05:05:00 0.0
2018_01_05_S27 01/06/2018 05:10:00 0.0
2018_01_05_S27 01/06/2018 05:15:00 0.0
2018_01_05_S27 01/06/2018 05:20:00 0.0
2018_01_05_S27 01/06/2018 05:25:00 0.0
2018_01_05_S27 01/06/2018 05:30:00 0.0091
2018_01_05_S27 01/06/2018 05:35:00 0.399
2018_01_05_S27 01/06/2018 05:40:00 0.0069
2018_01_05_S27 01/06/2018 05:45:00 0.0
2018_01_05_S27 01/06/2018 05:50:00 0.0001
2018_01_05_S27 01/06/2018 05:55:00 0.0049
2018_01_05_S27 01/06/2018 06:00:00 0.0
2018_01_05_S27 01/06/2018 06:05:00 0.0203
2018_01_05_S27 01/06/2018 06:10:00 0.0084
2018_01_05_S27 01/06/2018 06:15:00 0.0271
2018_01_05_S27 01/06/2018 06:20:00 0.1413
2018_01_05_S27 01/06/2018 06:25:00 0.0172
2018_01_05_S27 01/06/2018 06:30:00 0.0
2018_01_05_S27 01/06/2018 06:35:00 0.0
2018_01_05_S27 01/06/2018 06:40:00 0.0055
2018_01_05_S27 01/06/2018 06:45:00 0.049
2018_01_05_S27 01/06/2018 06:50:00 0.0901
2018_01_05_S27 01/06/2018 06:55:00 0.0662
2018_01_05_S27 01/06/2018 07:00:00 0.0006
2018_01_05_S27 01/06/2018 07:05:00 0.0018
2018_01_05_S27 01/06/2018 07:10:00 0.0
2018_01_05_S27 01/06/2018 07:15:00 0.0
2018_01_05_S27 01/06/2018 07:20:00 0.0
2018_01_05_S27 01/06/2018 07:25:00 0.0
2018_01_05_S27 01/06/2018 07:30:00 0.0
2018_01_05_S27 01/06/2018 07:35:00 0.0038
2018_01_05_S27 01/06/2018 07:40:00 0.0083
2018_01_05_S27 01/06/2018 07:45:00 0.019
2018_01_05_S27 01/06/2018 07:50:00 0.079
2018_01_05_S27 01/06/2018 07:55:00 0.0013
2018_01_05_S27 01/06/2018 08:00:00 0.0

2018_01_05_S28 01/04/2018 10:25:00 0.0077
2018_01_05_S28 01/04/2018 10:30:00 0.0207
2018_01_05_S28 01/04/2018 10:35:00 0.1149
2018_01_05_S28 01/04/2018 10:40:00 0.0522
2018_01_05_S28 01/04/2018 10:45:00 0.0134
2018_01_05_S28 01/04/2018 10:50:00 0.0265
2018_01_05_S28 01/04/2018 10:55:00 0.0
2018_01_05_S28 01/04/2018 11:00:00 0.0
2018_01_05_S28 01/04/2018 11:05:00 0.0056
2018_01_05_S28 01/04/2018 11:10:00 0.0817
2018_01_05_S28 01/04/2018 11:15:00 5.3339
2018_01_05_S28 01/04/2018 11:20:00 0.6552
2018_01_05_S28 01/04/2018 11:25:00 0.9183
2018_01_05_S28 01/04/2018 11:30:00 0.0591
2018_01_05_S28 01/04/2018 11:35:00 0.0039
2018_01_05_S28 01/04/2018 11:40:00 0.0
2018_01_05_S28 01/04/2018 11:45:00 0.0
2018_01_05_S28 01/04/2018 11:50:00 0.0
2018_01_05_S28 01/04/2018 11:55:00 0.0
2018_01_05_S28 01/04/2018 12:00:00 0.0
2018_01_05_S28 01/04/2018 12:05:00 0.0
2018_01_05_S28 01/04/2018 12:10:00 0.0
2018_01_05_S28 01/04/2018 12:15:00 0.0
2018_01_05_S28 01/04/2018 12:20:00 0.0
2018_01_05_S28 01/04/2018 12:25:00 0.0
2018_01_05_S28 01/04/2018 12:30:00 0.0
2018_01_05_S28 01/04/2018 12:35:00 0.0
2018_01_05_S28 01/04/2018 12:40:00 0.0
2018_01_05_S28 01/04/2018 12:45:00 0.0
2018_01_05_S28 01/04/2018 12:50:00 0.0
2018_01_05_S28 01/04/2018 12:55:00 0.0
2018_01_05_S28 01/04/2018 13:00:00 0.0
2018_01_05_S28 01/04/2018 13:05:00 0.0
2018_01_05_S28 01/04/2018 13:10:00 0.0
2018_01_05_S28 01/04/2018 13:15:00 0.0008
2018_01_05_S28 01/04/2018 13:20:00 0.0
2018_01_05_S28 01/04/2018 13:25:00 0.0
2018_01_05_S28 01/04/2018 13:30:00 0.0
2018_01_05_S28 01/04/2018 13:35:00 0.0
2018_01_05_S28 01/04/2018 13:40:00 0.0
2018_01_05_S28 01/04/2018 13:45:00 0.0
2018_01_05_S28 01/04/2018 13:50:00 0.0038
2018_01_05_S28 01/04/2018 13:55:00 0.0
2018_01_05_S28 01/04/2018 14:00:00 0.0117
2018_01_05_S28 01/04/2018 14:05:00 0.0073
2018_01_05_S28 01/04/2018 14:10:00 0.0
2018_01_05_S28 01/04/2018 14:15:00 0.0
2018_01_05_S28 01/04/2018 14:20:00 0.0095
2018_01_05_S28 01/04/2018 14:25:00 0.0127
2018_01_05_S28 01/04/2018 14:30:00 0.0095
2018_01_05_S28 01/04/2018 14:35:00 0.0
2018_01_05_S28 01/04/2018 14:40:00 0.0236
2018_01_05_S28 01/04/2018 14:45:00 0.0
2018_01_05_S28 01/04/2018 14:50:00 0.0
2018_01_05_S28 01/04/2018 14:55:00 0.0
2018_01_05_S28 01/04/2018 15:00:00 0.0
2018_01_05_S28 01/04/2018 15:05:00 0.0
2018_01_05_S28 01/04/2018 15:10:00 0.0
2018_01_05_S28 01/04/2018 15:15:00 0.0
2018_01_05_S28 01/04/2018 15:20:00 0.0
2018_01_05_S28 01/04/2018 15:25:00 0.0
2018_01_05_S28 01/04/2018 15:30:00 0.0
2018_01_05_S28 01/04/2018 15:35:00 0.1352
2018_01_05_S28 01/04/2018 15:40:00 0.0
2018_01_05_S28 01/04/2018 15:45:00 0.0
2018_01_05_S28 01/04/2018 15:50:00 0.0
2018_01_05_S28 01/04/2018 15:55:00 0.0057
2018_01_05_S28 01/04/2018 16:00:00 0.0589
2018_01_05_S28 01/04/2018 16:05:00 0.2516
2018_01_05_S28 01/04/2018 16:10:00 0.0155
2018_01_05_S28 01/04/2018 16:15:00 0.0166
2018_01_05_S28 01/04/2018 16:20:00 0.1186
2018_01_05_S28 01/04/2018 16:25:00 0.0151
2018_01_05_S28 01/04/2018 16:30:00 0.0
2018_01_05_S28 01/04/2018 16:35:00 0.0
2018_01_05_S28 01/04/2018 16:40:00 0.0
2018_01_05_S28 01/04/2018 16:45:00 0.0
2018_01_05_S28 01/04/2018 16:50:00 0.0
2018_01_05_S28 01/04/2018 16:55:00 0.0
2018_01_05_S28 01/04/2018 17:00:00 0.0
2018_01_05_S28 01/04/2018 17:05:00 0.0
2018_01_05_S28 01/04/2018 17:10:00 0.4789
2018_01_05_S28 01/04/2018 17:15:00 0.0
2018_01_05_S28 01/04/2018 17:20:00 0.0
2018_01_05_S28 01/04/2018 17:25:00 0.0
2018_01_05_S28 01/04/2018 17:30:00 0.0004
2018_01_05_S28 01/04/2018 17:35:00 0.1721
2018_01_05_S28 01/04/2018 17:40:00 0.7799
2018_01_05_S28 01/04/2018 17:45:00 2.8057
2018_01_05_S28 01/04/2018 17:50:00 0.3049
2018_01_05_S28 01/04/2018 17:55:00 0.3444
2018_01_05_S28 01/04/2018 18:00:00 0.3193
2018_01_05_S28 01/04/2018 18:05:00 0.5124
2018_01_05_S28 01/04/2018 18:10:00 0.2854
2018_01_05_S28 01/04/2018 18:15:00 0.1499
2018_01_05_S28 01/04/2018 18:20:00 0.0165
2018_01_05_S28 01/04/2018 18:25:00 0.0
2018_01_05_S28 01/04/2018 18:30:00 0.0
2018_01_05_S28 01/04/2018 18:35:00 0.0
2018_01_05_S28 01/04/2018 18:40:00 0.0
2018_01_05_S28 01/04/2018 18:45:00 0.0
2018_01_05_S28 01/04/2018 18:50:00 0.0
2018_01_05_S28 01/04/2018 18:55:00 0.0
2018_01_05_S28 01/04/2018 19:00:00 0.0
2018_01_05_S28 01/04/2018 19:05:00 0.0
2018_01_05_S28 01/04/2018 19:10:00 0.0
2018_01_05_S28 01/04/2018 19:15:00 0.0
2018_01_05_S28 01/04/2018 19:20:00 0.0
2018_01_05_S28 01/04/2018 19:25:00 0.0
2018_01_05_S28 01/04/2018 19:30:00 0.0
2018_01_05_S28 01/04/2018 19:35:00 0.0
2018_01_05_S28 01/04/2018 19:40:00 0.0049
2018_01_05_S28 01/04/2018 19:45:00 0.0
2018_01_05_S28 01/04/2018 19:50:00 0.0
2018_01_05_S28 01/04/2018 19:55:00 0.0
2018_01_05_S28 01/04/2018 20:00:00 0.0
2018_01_05_S28 01/04/2018 20:05:00 0.0
2018_01_05_S28 01/04/2018 20:10:00 0.0
2018_01_05_S28 01/04/2018 20:15:00 0.0
2018_01_05_S28 01/04/2018 20:20:00 0.0
2018_01_05_S28 01/04/2018 20:25:00 0.0
2018_01_05_S28 01/04/2018 20:30:00 0.0047
2018_01_05_S28 01/04/2018 20:35:00 0.0
2018_01_05_S28 01/04/2018 20:40:00 0.0
2018_01_05_S28 01/04/2018 20:45:00 0.0
2018_01_05_S28 01/04/2018 20:50:00 0.0
2018_01_05_S28 01/04/2018 20:55:00 0.0
2018_01_05_S28 01/04/2018 21:00:00 0.0
2018_01_05_S28 01/04/2018 21:05:00 0.0
2018_01_05_S28 01/04/2018 21:10:00 0.0
2018_01_05_S28 01/04/2018 21:15:00 0.0
2018_01_05_S28 01/04/2018 21:20:00 0.0
2018_01_05_S28 01/04/2018 21:25:00 0.0643
2018_01_05_S28 01/04/2018 21:30:00 0.0005
2018_01_05_S28 01/04/2018 21:35:00 0.0005
2018_01_05_S28 01/04/2018 21:40:00 0.0
2018_01_05_S28 01/04/2018 21:45:00 0.0092
2018_01_05_S28 01/04/2018 21:50:00 0.0
2018_01_05_S28 01/04/2018 21:55:00 0.0
2018_01_05_S28 01/04/2018 22:00:00 0.0
2018_01_05_S28 01/04/2018 22:05:00 0.0
2018_01_05_S28 01/04/2018 22:10:00 0.0
2018_01_05_S28 01/04/2018 22:15:00 0.0
2018_01_05_S28 01/04/2018 22:20:00 0.0
2018_01_05_S28 01/04/2018 22:25:00 0.0
2018_01_05_S28 01/04/2018 22:30:00 0.0
2018_01_05_S28 01/04/2018 22:35:00 0.0
2018_01_05_S28 01/04/2018 22:40:00 0.0
2018_01_05_S28 01/04/2018 22:45:00 0.0
2018_01_05_S28 01/04/2018 22:50:00 0.0
2018_01_05_S28 01/04/2018 22:55:00 0.0
2018_01_05_S28 01/04/2018 23:00:00 0.0
2018_01_05_S28 01/04/2018 23:05:00 0.0
2018_01_05_S28 01/04/2018 23:10:00 0.0
2018_01_05_S28 01/04/2018 23:15:00 0.0
2018_01_05_S28 01/04/2018 23:20:00 0.0
2018_01_05_S28 01/04/2018 23:25:00 0.0
2018_01_05_S28 01/04/2018 23:30:00 0.0
2018_01_05_S28 01/04/2018 23:35:00 0.0
2018_01_05_S28 01/04/2018 23:40:00 0.0
2018_01_05_S28 01/04/2018 23:45:00 0.0
2018_01_05_S28 01/04/2018 23:50:00 0.0
2018_01_05_S28 01/04/2018 23:55:00 0.0
2018_01_05_S28 01/05/2018 00:00:00 0.0
2018_01_05_S28 01/05/2018 00:05:00 0.0
2018_01_05_S28 01/05/2018 00:10:00 0.0
2018_01_05_S28 01/05/2018 00:15:00 0.0
2018_01_05_S28 01/05/2018 00:20:00 0.0
2018_01_05_S28 01/05/2018 00:25:00 0.0
2018_01_05_S28 01/05/2018 00:30:00 0.0
2018_01_05_S28 01/05/2018 00:35:00 0.0
2018_01_05_S28 01/05/2018 00:40:00 0.0
2018_01_05_S28 01/05/2018 00:45:00 0.0004
2018_01_05_S28 01/05/2018 00:50:00 0.0551
2018_01_05_S28 01/05/2018 00:55:00 0.2038
2018_01_05_S28 01/05/2018 01:00:00 0.0
2018_01_05_S28 01/05/2018 01:05:00 0.2424
2018_01_05_S28 01/05/2018 01:10:00 0.0236
2018_01_05_S28 01/05/2018 01:15:00 0.0006
2018_01_05_S28 01/05/2018 01:20:00 0.2393
2018_01_05_S28 01/05/2018 01:25:00 0.1509
2018_01_05_S28 01/05/2018 01:30:00 0.0124
2018_01_05_S28 01/05/2018 01:35:00 0.0229
2018_01_05_S28 01/05/2018 01:40:00 0.0
2018_01_05_S28 01/05/2018 01:45:00 0.1232
2018_01_05_S28 01/05/2018 01:50:00 0.4525
2018_01_05_S28 01/05/2018 01:55:00 0.0047
2018_01_05_S28 01/05/2018 02:00:00 0.0091
2018_01_05_S28 01/05/2018 02:05:00 0.0235
2018_01_05_S28 01/05/2018 02:10:00 0.0125
2018_01_05_S28 01/05/2018 02:15:00 0.0
2018_01_05_S28 01/05/2018 02:20:00 0.0189
2018_01_05_S28 01/05/2018 02:25:00 0.0
2018_01_05_S28 01/05/2018 02:30:00 0.0
2018_01_05_S28 01/05/2018 02:35:00 0.0
2018_01_05_S28 01/05/2018 02:40:00 0.0
2018_01_05_S28 01/05/2018 02:45:00 0.0
2018_01_05_S28 01/05/2018 02:50:00 0.0
2018_01_05_S28 01/05/2018 02:55:00 0.0
2018_01_05_S28 01/05/2018 03:00:00 0.0
2018_01_05_S28 01/05/2018 03:05:00 0.2128
2018_01_05_S28 01/05/2018 03:10:00 0.5938
2018_01_05_S28 01/05/2018 03:15:00 0.5927
2018_01_05_S28 01/05/2018 03:20:00 0.9211
2018_01_05_S28 01/05/2018 03:25:00 0.2619
2018_01_05_S28 01/05/2018 03:30:00 0.1615
2018_01_05_S28 01/05/2018 03:35:00 0.0993
2018_01_05_S28 01/05/2018 03:40:00 0.0
2018_01_05_S28 01/05/2018 03:45:00 0.0001
2018_01_05_S28 01/05/2018 03:50:00 0.0337
2018_01_05_S28 01/05/2018 03:55:00 0.0158
2018_01_05_S28 01/05/2018 04:00:00 0.0791
2018_01_05_S28 01/05/2018 04:05:00 0.0
2018_01_05_S28 01/05/2018 04:10:00 0.0
2018_01_05_S28 01/05/2018 04:15:00 0.0057
2018_01_05_S28 01/05/2018 04:20:00 0.0849
2018_01_05_S28 01/05/2018 04:25:00 0.076
2018_01_05_S28 01/05/2018 04:30:00 0.0922
2018_01_05_S28 01/05/2018 04:35:00 0.873
2018_01_05_S28 01/05/2018 04:40:00 0.0149
2018_01_05_S28 01/05/2018 04:45:00 0.0957
2018_01_05_S28 01/05/2018 04:50:00 0.0221
2018_01_05_S28 01/05/2018 04:55:00 0.0
2018_01_05_S28 01/05/2018 05:00:00 0.0123
2018_01_05_S28 01/05/2018 05:05:00 0.0
2018_01_05_S28 01/05/2018 05:10:00 0.0065
2018_01_05_S28 01/05/2018 05:15:00 0.0
2018_01_05_S28 01/05/2018 05:20:00 0.0106
2018_01_05_S28 01/05/2018 05:25:00 0.0
2018_01_05_S28 01/05/2018 05:30:00 0.0
2018_01_05_S28 01/05/2018 05:35:00 0.0
2018_01_05_S28 01/05/2018 05:40:00 0.0
2018_01_05_S28 01/05/2018 05:45:00 0.0163
2018_01_05_S28 01/05/2018 05:50:00 0.0
2018_01_05_S28 01/05/2018 05:55:00 0.0058
2018_01_05_S28 01/05/2018 06:00:00 0.0943
2018_01_05_S28 01/05/2018 06:05:00 0.4844
2018_01_05_S28 01/05/2018 06:10:00 0.0086
2018_01_05_S28 01/05/2018 06:15:00 0.1775
2018_01_05_S28 01/05/2018 06:20:00 1.277
2018_01_05_S28 01/05/2018 06:25:00 0.9481
2018_01_05_S28 01/05/2018 06:30:00 1.1905
2018_01_05_S28 01/05/2018 06:35:00 0.8865
2018_01_05_S28 01/05/2018 06:40:00 0.3046
2018_01_05_S28 01/05/2018 06:45:00 0.4306
2018_01_05_S28 01/05/2018 06:50:00 1.0367
2018_01_05_S28 01/05/2018 06:55:00 0.0984
2018_01_05_S28 01/05/2018 07:00:00 0.1797
2018_01_05_S28 01/05/2018 07:05:00 0.1381
2018_01_05_S28 01/05/2018 07:10:00 0.0191
2018_01_05_S28 01/05/2018 07:15:00 0.0
2018_01_05_S28 01/05/2018 07:20:00 0.0
2018_01_05_S28 01/05/2018 07:25:00 0.0
2018_01_05_S28 01/05/2018 07:30:00 0.0
2018_01_05_S28 01/05/2018 07:35:00 0.0
2018_01_05_S28 01/05/2018 07:40:00 0.0
2018_01_05_S28 01/05/2018 07:45:00 0.0
2018_01_05_S28 01/05/2018 07:50:00 0.0
2018_01_05_S28 01/05/2018 07:55:00 0.0
2018_01_05_S28 01/05/2018 08:00:00 0.0305
2018_01_05_S28 01/05/2018 08:05:00 0.0
2018_01_05_S28 01/05/2018 08:10:00 0.0
2018_01_05_S28 01/05/2018 08:15:00 0.0377
2018_01_05_S28 01/05/2018 08:20:00 0.0005
2018_01_05_S28 01/05/2018 08:25:00 0.112
2018_01_05_S28 01/05/2018 08:30:00 0.1937
2018_01_05_S28 01/05/2018 08:35:00 0.4976
2018_01_05_S28 01/05/2018 08:40:00 0.5518
2018_01_05_S28 01/05/2018 08:45:00 3.8577
2018_01_05_S28 01/05/2018 08:50:00 0.9577
2018_01_05_S28 01/05/2018 08:55:00 2.4564
2018_01_05_S28 01/05/2018 09:00:00 0.1367
2018_01_05_S28 01/05/2018 09:05:00 0.8825
2018_01_05_S28 01/05/2018 09:10:00 2.5793
2018_01_05_S28 01/05/2018 09:15:00 0.2579
2018_01_05_S28 01/05/2018 09:20:00 0.1335
2018_01_05_S28 01/05/2018 09:25:00 0.0
2018_01_05_S28 01/05/2018 09:30:00 0.0
2018_01_05_S28 01/05/2018 09:35:00 0.0569
2018_01_05_S28 01/05/2018 09:40:00 3.3082
2018_01_05_S28 01/05/2018 09:45:00 0.0622
2018_01_05_S28 01/05/2018 09:50:00 0.565
2018_01_05_S28 01/05/2018 09:55:00 2.6421
2018_01_05_S28 01/05/2018 10:00:00 4.8805
2018_01_05_S28 01/05/2018 10:05:00 0.3515
2018_01_05_S28 01/05/2018 10:10:00 0.0
2018_01_05_S28 01/05/2018 10:15:00 0.0075
2018_01_05_S28 01/05/2018 10:20:00 0.0
2018_01_05_S28 01/05/2018 10:25:00 0.0321
2018_01_05_S28 01/05/2018 10:30:00 0.7115
2018_01_05_S28 01/05/2018 10:35:00 0.0169
2018_01_05_S28 01/05/2018 10:40:00 0.2038
2018_01_05_S28 01/05/2018 10:45:00 1.1794
2018_01_05_S28 01/05/2018 10:50:00 0.1379
2018_01_05_S28 01/05/2018 10:55:00 0.0051
2018_01_05_S28 01/05/2018 11:00:00 0.0629
2018_01_05_S28 01/05/2018 11:05:00 0.2605
2018_01_05_S28 01/05/2018 11:10:00 0.2096
2018_01_05_S28 01/05/2018 11:15:00 0.4164
2018_01_05_S28 01/05/2018 11:20:00 0.1175
2018_01_05_S28 01/05/2018 11:25:00 0.1061
2018_01_05_S28 01/05/2018 11:30:00 0.1799
2018_01_05_S28 01/05/2018 11:35:00 0.5478
2018_01_05_S28 01/05/2018 11:40:00 0.3141
2018_01_05_S28 01/05/2018 11:45:00 0.0081
2018_01_05_S28 01/05/2018 11:50:00 0.0
2018_01_05_S28 01/05/2018 11:55:00 0.0083
2018_01_05_S28 01/05/2018 12:00:00 0.137
2018_01_05_S28 01/05/2018 12:05:00 0.1003
2018_01_05_S28 01/05/2018 12:10:00 0.53
2018_01_05_S28 01/05/2018 12:15:00 0.5617
2018_01_05_S28 01/05/2018 12:20:00 0.4826
2018_01_05_S28 01/05/2018 12:25:00 0.788
2018_01_05_S28 01/05/2018 12:30:00 0.0481
2018_01_05_S28 01/05/2018 12:35:00 0.5493
2018_01_05_S28 01/05/2018 12:40:00 0.3754
2018_01_05_S28 01/05/2018 12:45:00 0.4844
2018_01_05_S28 01/05/2018 12:50:00 0.0004
2018_01_05_S28 01/05/2018 12:55:00 0.0005
2018_01_05_S28 01/05/2018 13:00:00 0.0
2018_01_05_S28 01/05/2018 13:05:00 0.0284
2018_01_05_S28 01/05/2018 13:10:00 0.0
2018_01_05_S28 01/05/2018 13:15:00 0.0
2018_01_05_S28 01/05/2018 13:20:00 0.0148
2018_01_05_S28 01/05/2018 13:25:00 0.0512
2018_01_05_S28 01/05/2018 13:30:00 0.0115
2018_01_05_S28 01/05/2018 13:35:00 0.0
2018_01_05_S28 01/05/2018 13:40:00 0.0
2018_01_05_S28 01/05/2018 13:45:00 0.2453
2018_01_05_S28 01/05/2018 13:50:00 0.1464
2018_01_05_S28 01/05/2018 13:55:00 1.8023
2018_01_05_S28 01/05/2018 14:00:00 4.202
2018_01_05_S28 01/05/2018 14:05:00 3.3422
2018_01_05_S28 01/05/2018 14:10:00 0.0063
2018_01_05_S28 01/05/2018 14:15:00 0.6498
2018_01_05_S28 01/05/2018 14:20:00 0.0
2018_01_05_S28 01/05/2018 14:25:00 0.0
2018_01_05_S28 01/05/2018 14:30:00 0.0055
2018_01_05_S28 01/05/2018 14:35:00 0.0091
2018_01_05_S28 01/05/2018 14:40:00 0.4465
2018_01_05_S28 01/05/2018 14:45:00 0.4041
2018_01_05_S28 01/05/2018 14:50:00 0.0
2018_01_05_S28 01/05/2018 14:55:00 0.0051
2018_01_05_S28 01/05/2018 15:00:00 0.0
2018_01_05_S28 01/05/2018 15:05:00 0.0
2018_01_05_S28 01/05/2018 15:10:00 0.0
2018_01_05_S28 01/05/2018 15:15:00 0.0267
2018_01_05_S28 01/05/2018 15:20:00 0.8314
2018_01_05_S28 01/05/2018 15:25:00 0.0
2018_01_05_S28 01/05/2018 15:30:00 0.0
2018_01_05_S28 01/05/2018 15:35:00 0.0206
2018_01_05_S28 01/05/2018 15:40:00 0.0165
2018_01_05_S28 01/05/2018 15:45:00 0.0
2018_01_05_S28 01/05/2018 15:50:00 0.0
2018_01_05_S28 01/05/2018 15:55:00 0.0
2018_01_05_S28 01/05/2018 16:00:00 0.0
2018_01_05_S28 01/05/2018 16:05:00 0.0
2018_01_05_S28 01/05/2018 16:10:00 0.0
2018_01_05_S28 01/05/2018 16:15:00 0.0
2018_01_05_S28 01/05/2018 16:20:00 0.0
2018_01_05_S28 01/05/2018 16:25:00 0.0
2018_01_05_S28 01/05/2018 16:30:00 0.0
2018_01_05_S28 01/05/2018 16:35:00 0.0
2018_01_05_S28 01/05/2018 16:40:00 0.0
2018_01_05_S28 01/05/2018 16:45:00 0.0
2018_01_05_S28 01/05/2018 16:50:00 0.0
2018_01_05_S28 01/05/2018 16:55:00 0.0
2018_01_05_S28 01/05/2018 17:00:00 0.0
2018_01_05_S28 01/05/2018 17:05:00 0.0
2018_01_05_S28 01/05/2018 17:10:00 0.0
2018_01_05_S28 01/05/2018 17:15:00 0.0
2018_01_05_S28 01/05/2018 17:20:00 0.0
2018_01_05_S28 01/05/2018 17:25:00 0.0
2018_01_05_S28 01/05/2018 17:30:00 0.0
2018_01_05_S28 01/05/2018 17:35:00 0.0
2018_01_05_S28 01/05/2018 17:40:00 0.0
2018_01_05_S28 01/05/2018 17:45:00 0.0
2018_01_05_S28 01/05/2018 17:50:00 0.0
2018_01_05_S28 01/05/2018 17:55:00 0.006
2018_01_05_S28 01/05/2018 18:00:00 0.0136
2018_01_05_S28 01/05/2018 18:05:00 0.0
2018_01_05_S28 01/05/2018 18:10:00 0.0
2018_01_05_S28 01/05/2018 18:15:00 0.0446
2018_01_05_S28 01/05/2018 18:20:00 0.0129
2018_01_05_S28 01/05/2018 18:25:00 0.0
2018_01_05_S28 01/05/2018 18:30:00 0.0
2018_01_05_S28 01/05/2018 18:35:00 0.0
2018_01_05_S28 01/05/2018 18:40:00 0.0
2018_01_05_S28 01/05/2018 18:45:00 0.0
2018_01_05_S28 01/05/2018 18:50:00 0.0
2018_01_05_S28 01/05/2018 18:55:00 0.0
2018_01_05_S28 01/05/2018 19:00:00 0.0
2018_01_05_S28 01/05/2018 19:05:00 0.0
2018_01_05_S28 01/05/2018 19:10:00 0.0
2018_01_05_S28 01/05/2018 19:15:00 0.0
2018_01_05_S28 01/05/2018 19:20:00 0.0
2018_01_05_S28 01/05/2018 19:25:00 0.0
2018_01_05_S28 01/05/2018 19:30:00 0.0
2018_01_05_S28 01/05/2018 19:35:00 0.0
2018_01_05_S28 01/05/2018 19:40:00 0.0005
2018_01_05_S28 01/05/2018 19:45:00 0.0534
2018_01_05_S28 01/05/2018 19:50:00 0.0266
2018_01_05_S28 01/05/2018 19:55:00 0.0
2018_01_05_S28 01/05/2018 20:00:00 0.0
2018_01_05_S28 01/05/2018 20:05:00 0.0
2018_01_05_S28 01/05/2018 20:10:00 0.0
2018_01_05_S28 01/05/2018 20:15:00 0.0
2018_01_05_S28 01/05/2018 20:20:00 0.0
2018_01_05_S28 01/05/2018 20:25:00 0.0
2018_01_05_S28 01/05/2018 20:30:00 0.0
2018_01_05_S28 01/05/2018 20:35:00 0.0
2018_01_05_S28 01/05/2018 20:40:00 0.0
2018_01_05_S28 01/05/2018 20:45:00 0.0
2018_01_05_S28 01/05/2018 20:50:00 0.0327
2018_01_05_S28 01/05/2018 20:55:00 0.0042
2018_01_05_S28 01/05/2018 21:00:00 0.0
2018_01_05_S28 01/05/2018 21:05:00 0.0
2018_01_05_S28 01/05/2018 21:10:00 0.0
2018_01_05_S28 01/05/2018 21:15:00 0.0
2018_01_05_S28 01/05/2018 21:20:00 0.0
2018_01_05_S28 01/05/2018 21:25:00 0.0
2018_01_05_S28 01/05/2018 21:30:00 0.0
2018_01_05_S28 01/05/2018 21:35:00 0.0
2018_01_05_S28 01/05/2018 21:40:00 0.0
2018_01_05_S28 01/05/2018 21:45:00 0.0
2018_01_05_S28 01/05/2018 21:50:00 0.0
2018_01_05_S28 01/05/2018 21:55:00 0.0
2018_01_05_S28 01/05/2018 22:00:00 0.0
2018_01_05_S28 01/05/2018 22:05:00 0.0
2018_01_05_S28 01/05/2018 22:10:00 0.0
2018_01_05_S28 01/05/2018 22:15:00 0.0
2018_01_05_S28 01/05/2018 22:20:00 0.0
2018_01_05_S28 01/05/2018 22:25:00 0.0005
2018_01_05_S28 01/05/2018 22:30:00 0.0
2018_01_05_S28 01/05/2018 22:35:00 0.2992
2018_01_05_S28 01/05/2018 22:40:00 0.0389
2018_01_05_S28 01/05/2018 22:45:00 0.0
2018_01_05_S28 01/05/2018 22:50:00 0.0
2018_01_05_S28 01/05/2018 22:55:00 0.0
2018_01_05_S28 01/05/2018 23:00:00 0.0
2018_01_05_S28 01/05/2018 23:05:00 0.0
2018_01_05_S28 01/05/2018 23:10:00 0.0
2018_01_05_S28 01/05/2018 23:15:00 0.0
2018_01_05_S28 01/05/2018 23:20:00 0.0
2018_01_05_S28 01/05/2018 23:25:00 0.0
2018_01_05_S28 01/05/2018 23:30:00 0.0
2018_01_05_S28 01/05/2018 23:35:00 0.0
2018_01_05_S28 01/05/2018 23:40:00 0.0
2018_01_05_S28 01/05/2018 23:45:00 0.017
2018_01_05_S28 01/05/2018 23:50:00 0.0058
2018_01_05_S28 01/05/2018 23:55:00 0.0882
2018_01_05_S28 01/06/2018 00:00:00 0.0664
2018_01_05_S28 01/06/2018 00:05:00 0.0239
2018_01_05_S28 01/06/2018 00:10:00 0.0106
2018_01_05_S28 01/06/2018 00:15:00 0.2002
2018_01_05_S28 01/06/2018 00:20:00 0.0
2018_01_05_S28 01/06/2018 00:25:00 0.0
2018_01_05_S28 01/06/2018 00:30:00 0.0
2018_01_05_S28 01/06/2018 00:35:00 0.0
2018_01_05_S28 01/06/2018 00:40:00 0.0
2018_01_05_S28 01/06/2018 00:45:00 0.0
2018_01_05_S28 01/06/2018 00:50:00 0.0
2018_01_05_S28 01/06/2018 00:55:00 0.0
2018_01_05_S28 01/06/2018 01:00:00 0.0014
2018_01_05_S28 01/06/2018 01:05:00 0.0406
2018_01_05_S28 01/06/2018 01:10:00 0.0
2018_01_05_S28 01/06/2018 01:15:00 0.0
2018_01_05_S28 01/06/2018 01:20:00 0.0
2018_01_05_S28 01/06/2018 01:25:00 0.0
2018_01_05_S28 01/06/2018 01:30:00 0.0
2018_01_05_S28 01/06/2018 01:35:00 0.0
2018_01_05_S28 01/06/2018 01:40:00 0.0
2018_01_05_S28 01/06/2018 01:45:00 0.0
2018_01_05_S28 01/06/2018 01:50:00 0.0
2018_01_05_S28 01/06/2018 01:55:00 0.0
2018_01_05_S28 01/06/2018 02:00:00 0.0
2018_01_05_S28 01/06/2018 02:05:00 0.0
2018_01_05_S28 01/06/2018 02:10:00 0.0
2018_01_05_S28 01/06/2018 02:15:00 0.0
2018_01_05_S28 01/06/2018 02:20:00 0.0
2018_01_05_S28 01/06/2018 02:25:00 0.0
2018_01_05_S28 01/06/2018 02:30:00 0.0
2018_01_05_S28 01/06/2018 02:35:00 0.0
2018_01_05_S28 01/06/2018 02:40:00 0.0902
2018_01_05_S28 01/06/2018 02:45:00 0.2233
2018_01_05_S28 01/06/2018 02:50:00 0.0
2018_01_05_S28 01/06/2018 02:55:00 0.0
2018_01_05_S28 01/06/2018 03:00:00 0.0
2018_01_05_S28 01/06/2018 03:05:00 0.0
2018_01_05_S28 01/06/2018 03:10:00 0.0
2018_01_05_S28 01/06/2018 03:15:00 0.0
2018_01_05_S28 01/06/2018 03:20:00 0.0
2018_01_05_S28 01/06/2018 03:25:00 0.0
2018_01_05_S28 01/06/2018 03:30:00 0.0
2018_01_05_S28 01/06/2018 03:35:00 0.0
2018_01_05_S28 01/06/2018 03:40:00 0.0
2018_01_05_S28 01/06/2018 03:45:00 0.0
2018_01_05_S28 01/06/2018 03:50:00 0.0
2018_01_05_S28 01/06/2018 03:55:00 0.0
2018_01_05_S28 01/06/2018 04:00:00 0.0
2018_01_05_S28 01/06/2018 04:05:00 0.0
2018_01_05_S28 01/06/2018 04:10:00 0.0
2018_01_05_S28 01/06/2018 04:15:00 0.0037
2018_01_05_S28 01/06/2018 04:20:00 0.0009
2018_01_05_S28 01/06/2018 04:25:00 0.0
2018_01_05_S28 01/06/2018 04:30:00 0.0
2018_01_05_S28 01/06/2018 04:35:00 0.0
2018_01_05_S28 01/06/2018 04:40:00 0.0
2018_01_05_S28 01/06/2018 04:45:00 0.0
2018_01_05_S28 01/06/2018 04:50:00 0.0
2018_01_05_S28 01/06/2018 04:55:00 0.0
2018_01_05_S28 01/06/2018 05:00:00 0.0
2018_01_05_S28 01/06/2018 05:05:00 0.0
2018_01_05_S28 01/06/2018 05:10:00 0.0
2018_01_05_S28 01/06/2018 05:15:00 0.0
2018_01_05_S28 01/06/2018 05:20:00 0.0
2018_01_05_S28 01/06/2018 05:25:00 0.0
2018_01_05_S28 01/06/2018 05:30:00 0.012
2018_01_05_S28 01/06/2018 05:35:00 0.0303
2018_01_05_S28 01/06/2018 05:40:00 0.0059
2018_01_05_S28 01/06/2018 05:45:00 0.0
2018_01_05_S28 01/06/2018 05:50:00 0.0
2018_01_05_S28 01/06/2018 05:55:00 0.0
2018_01_05_S28 01/06/2018 06:00:00 0.0
2018_01_05_S28 01/06/2018 06:05:00 0.025
2018_01_05_S28 01/06/2018 06:10:00 0.0078
2018_01_05_S28 01/06/2018 06:15:00 0.0372
2018_01_05_S28 01/06/2018 06:20:00 0.1399
2018_01_05_S28 01/06/2018 06:25:00 0.0068
2018_01_05_S28 01/06/2018 06:30:00 0.0
2018_01_05_S28 01/06/2018 06:35:00 0.0
2018_01_05_S28 01/06/2018 06:40:00 0.0069
2018_01_05_S28 01/06/2018 06:45:00 0.0365
2018_01_05_S28 01/06/2018 06:50:00 0.113
2018_01_05_S28 01/06/2018 06:55:00 0.0468
2018_01_05_S28 01/06/2018 07:00:00 0.0052
2018_01_05_S28 01/06/2018 07:05:00 0.0
2018_01_05_S28 01/06/2018 07:10:00 0.0
2018_01_05_S28 01/06/2018 07:15:00 0.0
2018_01_05_S28 01/06/2018 07:20:00 0.0
2018_01_05_S28 01/06/2018 07:25:00 0.0
2018_01_05_S28 01/06/2018 07:30:00 0.0
2018_01_05_S28 01/06/2018 07:35:00 0.012
2018_01_05_S28 01/06/2018 07:40:00 0.0336
2018_01_05_S28 01/06/2018 07:45:00 0.0101
2018_01_05_S28 01/06/2018 07:50:00 0.0807
2018_01_05_S28 01/06/2018 07:55:00 0.0
2018_01_05_S28 01/06/2018 08:00:00 0.0

;;____________________________________________________________________________________________________
[REPORT]
;;Reporting Options
SUBCATCHMENTS ALL
NODES ALL
LINKS ALL

;;____________________________________________________________________________________________________
[MAP]
DIMENSIONS 185865.396 673350.000 190772.001 679332.930
Units      Meters

;;____________________________________________________________________________________________________
[COORDINATES]
;;Node           X-Coord            Y-Coord           
;;-------------- ------------------ ------------------
J1               188416.573         678864.133        
J10              187876.949         676421.351        
J11              187771.585         676118.430        
J12              187745.244         675971.909        
J13              187705.733         675874.777        
J14              187172.330         676006.482        
J15              186808.496         675525.760        
J16              187588.852         675315.403        
J17              187325.287         674633.430        
J18              186976.064         674336.920        
J2               188485.717         678548.042        
J20              188922.377         677824.394        
J21              189159.110         677387.020        
J22              189116.281         676672.101        
J23              188928.977         676213.404        
J24              188829.655         675802.338        
J25              188998.163         675748.871        
J26              189650.485         676542.859        
J3               188483.151         678441.702        
J4               188316.513         677812.480        
J5               188232.551         677631.386        
J6               188137.065         677425.598        
J7               188104.139         677267.552        
J8               188018.531         676976.156        
J9               187918.106         676592.567        
O1               188423.158         679007.361

;;____________________________________________________________________________________________________
[VERTICES]
;;Link           X-Coord            Y-Coord           
;;-------------- ------------------ ------------------
C2               188487.548         678593.979        
C2               188403.586         678740.501        
C21              189211.773         677639.351        
C21              189047.045         677701.947        
C21              189037.161         677797.490        
C22              189218.362         677049.625        
C22              189093.169         677092.455        
C23              188968.026         676309.700        
C23              189040.506         676306.405        
C4               188383.830         677872.897        
C4               188365.721         677925.579        
C4               188360.782         678067.161        
C4               188415.110         678221.914        
C4               188480.962         678429.349        
C5               188251.288         677708.747

;;____________________________________________________________________________________________________
[POLYGONS]
;;Subcatchment   X-Coord            Y-Coord           
;;-------------- ------------------ ------------------
S01              187279.862         678858.156        
S01              187414.939         678805.443        
S01              187494.009         678798.854        
S01              187622.496         678838.389        
S01              187675.209         678818.621        
S01              187790.519         678812.032        
S01              187823.464         678848.272        
S01              187866.293         678854.861        
S01              187899.239         678868.040        
S01              187981.603         678802.148        
S01              188027.727         678798.854        
S01              188077.145         678805.443        
S01              188123.269         678821.916        
S01              188162.804         678844.978        
S01              188205.633         678861.450        
S01              188281.408         678874.629        
S01              188337.415         678910.869        
S01              188390.128         678950.403        
S01              188406.601         678999.822        
S01              188446.135         679009.705        
S01              188446.135         678980.054        
S01              188423.073         678854.861        
S01              188416.484         678756.025        
S01              188495.554         678591.297        
S01              188067.261         678535.289        
S01              187734.511         678525.406        
S01              187095.367         678528.700        
S01              187194.204         678607.770        
S01              187167.848         678634.126        
S01              187164.553         678680.250        
S01              187276.568         678841.683        
S02              188311.826         678562.991        
S02              188093.122         678531.748        
S02              187825.817         678517.862        
S02              187121.103         678531.748        
S02              187034.315         678455.375        
S02              186964.886         678427.603        
S02              187003.072         678170.712        
S02              186968.357         678125.583        
S02              186933.642         678021.438        
S02              186874.627         677899.935        
S02              186982.243         677882.578        
S02              187207.890         677858.277        
S02              187277.320         677872.163        
S02              187659.185         677872.163        
S02              188023.692         677865.220        
S02              188318.769         677851.334        
S02              188322.241         677934.650        
S02              188339.598         678087.396        
S02              188402.085         678212.370        
S02              188412.500         678292.215        
S02              188468.044         678431.074        
S02              188464.572         678583.820        
S03              186866.088         677850.375        
S03              186852.202         677826.075        
S03              186855.674         677753.174        
S03              186914.689         677610.842        
S03              186994.534         677586.542        
S03              187067.435         677558.770        
S03              187109.093         677503.226        
S03              187154.222         677492.811        
S03              187244.481         677524.055        
S03              187383.341         677562.241        
S03              187466.657         677576.127        
S03              187570.802         677534.469        
S03              187855.465         677503.226        
S03              187987.382         677548.355        
S03              188126.241         677635.143        
S03              188188.728         677697.630        
S03              188240.801         677718.459        
S03              188285.930         677774.003        
S03              188320.645         677843.432        
S03              187740.905         677857.318        
S03              187185.466         677846.904        
S03              186886.917         677878.147        
S04              187214.648         677432.470        
S04              187264.984         677411.641        
S04              187275.399         677323.118        
S04              187509.725         677234.595        
S04              187551.383         677357.833        
S04              187709.336         677323.118        
S04              187735.372         677366.512        
S04              187898.533         677333.532        
S04              187919.361         677422.056        
S04              188125.916         677369.983        
S04              188223.117         677611.252        
S04              188240.475         677727.547        
S04              188037.392         677592.159        
S04              187900.268         677515.786        
S04              187593.041         677538.351        
S04              187488.896         677571.330        
S04              187419.466         677571.330        
S04              187232.005         677514.050        
S05              187478.475         677233.098        
S05              187442.024         677106.389        
S05              187785.702         677003.980        
S05              187822.153         677102.917        
S05              187962.749         677075.145        
S05              187985.313         677113.332        
S05              188053.008         677106.389        
S05              188139.795         677359.808        
S05              187924.562         677406.673        
S05              187910.676         677325.093        
S05              187740.573         677354.601        
S05              187712.801         677323.357        
S05              187539.226         677342.450        
S05              187527.076         677264.342        
S05              187494.097         677220.948        
S06              186705.854         677552.926        
S06              186698.911         677467.875        
S06              186665.932         677434.896        
S06              186657.253         677073.860        
S06              186627.745         677021.788        
S06              186652.046         676938.472        
S06              187217.900         676783.990        
S06              187261.293         676910.700        
S06              187933.028         676740.596        
S06              188044.116         677108.575        
S06              187981.629         677118.989        
S06              187946.914         677089.482        
S06              187813.261         677125.932        
S06              187792.432         677009.637        
S06              187441.811         677108.575        
S06              187466.112         677242.228        
S06              187259.558         677320.336        
S06              187250.879         677412.331        
S06              187197.071         677408.859        
S06              187209.221         677500.854        
S06              187117.226         677493.911        
S06              187056.475         677565.077        
S06              186898.522         677613.678        
S06              186836.035         677537.305        
S06              186711.061         677559.869        
S07              186650.642         676928.193        
S07              186604.518         676855.713        
S07              186578.162         676763.466        
S07              186650.642         676608.621        
S07              186742.890         676457.072        
S07              186917.501         676407.654        
S07              186940.563         676473.545        
S07              187457.809         676331.879        
S07              187431.452         676256.104        
S07              187790.559         676147.384        
S07              187978.348         676727.226        
S07              187260.135         676921.604        
S07              187227.190         676786.528        
S07              186644.053         676931.488        
S08              186765.952         676443.894        
S08              186848.316         676364.824        
S08              186756.068         676249.515        
S08              186769.246         676239.631        
S08              187105.291         676134.205        
S08              187141.531         676018.896        
S08              187711.489         675864.052        
S08              187810.326         676144.089        
S08              187434.747         676236.337        
S08              187464.398         676331.879        
S08              186940.563         676476.839        
S08              186930.680         676407.654        
S08              186746.184         676453.777        
S09              186774.094         676232.497        
S09              187105.622         676117.938        
S09              187136.865         676013.793        
S09              187254.896         675973.871        
S09              187091.736         675496.540        
S09              186834.845         675557.291        
S09              186846.995         675678.794        
S09              186650.856         675720.452        
S09              186619.612         675847.161        
S09              186609.198         676031.151        
S09              186640.441         676112.731        
S09              186770.622         676249.855        
S10              186660.526         675669.673        
S10              186588.046         675623.549        
S10              186541.922         675534.596        
S10              186403.551         675514.829        
S10              186370.605         675465.410        
S10              186367.310         675386.341        
S10              186291.536         675359.985        
S10              186258.590         675294.094        
S10              186278.357         675261.148        
S10              186261.885         675211.730        
S10              186268.474         675089.831        
S10              186298.125         675116.188        
S10              186360.721         675053.591        
S10              186456.263         675040.413        
S10              186476.031         674967.932        
S10              186624.286         674911.925        
S10              186848.316         675053.591        
S10              186924.090         675231.497        
S10              186999.865         675521.418        
S10              186825.254         675551.069        
S10              186851.610         675676.262        
S10              186627.580         675722.386        
S11              186996.571         675488.472        
S11              186943.858         675290.799        
S11              186854.905         675066.769        
S11              186630.875         674921.809        
S11              186627.580         674625.299        
S11              186574.867         674526.462        
S11              186739.595         674302.432        
S11              186733.006         674167.355        
S11              187306.259         674061.929        
S11              187372.150         674028.984        
S11              187263.430         674529.756        
S11              187167.888         674533.051        
S11              187227.190         674895.452        
S11              187335.910         675228.202        
S11              187319.437         675310.566        
S11              187246.957         675392.930        
S11              187131.647         675491.767        
S11              186996.571         675514.829        
S12              186752.882         674155.010        
S12              187356.922         674047.394        
S12              187353.450         673849.518        
S12              187304.850         673898.119        
S12              187204.176         673918.948        
S12              187075.731         673936.306        
S12              187016.715         673842.575        
S12              186752.882         673832.161        
S12              186669.566         673905.062        
S12              186659.151         673932.834        
S12              186738.996         674016.150        
S12              186735.524         674144.595        
S13              187362.328         673864.932        
S13              187369.271         674069.750        
S13              187279.013         674527.988        
S13              187174.868         674538.402        
S13              187268.598         675059.126        
S13              187334.556         675257.002        
S13              187289.427         675357.675        
S13              187192.225         675434.048        
S13              187108.909         675472.235        
S13              187258.184         675968.659        
S13              187806.680         675833.270        
S13              187806.680         675753.426        
S13              188230.203         675645.809        
S13              188230.203         675562.493        
S13              188414.192         675562.493        
S13              188455.850         675007.054        
S13              188275.332         674850.837        
S13              188094.814         674753.635        
S13              188039.270         674538.402        
S13              187955.954         674462.029        
S13              187917.768         674267.625        
S13              187942.068         674205.138        
S13              187949.011         674062.807        
S13              187883.053         673996.849        
S13              187848.338         674000.320        
S13              187758.079         673962.134        
S13              187695.592         673812.859        
S13              187626.162         673764.258        
S13              187476.888         673788.559        
S13              187358.857         673864.932        
S14              187715.284         675871.166        
S14              187833.314         676235.673        
S14              188503.313         676062.098        
S14              188454.712         675905.881        
S14              188291.552         675912.824        
S14              188246.423         675659.404        
S14              187819.429         675756.606        
S14              187812.486         675857.280        
S14              187729.170         675874.637        
S15              188699.856         674898.747        
S15              188604.314         674846.034        
S15              188469.237         674987.700        
S15              188423.114         675570.836        
S15              188235.324         675560.953        
S15              188228.735         675643.317        
S15              188245.207         675705.913        
S15              188274.858         675722.386        
S15              188571.369         675643.317        
S15              188614.198         675794.866        
S15              189009.545         675705.913        
S15              189035.901         675788.277        
S15              189388.419         675323.745        
S15              189312.644         675336.923        
S15              189200.629         675307.272        
S15              189095.203         675191.962        
S15              189088.614         675014.056        
S15              188956.832         674974.522        
S15              188917.297         674872.390        
S15              188762.453         674859.212        
S15              188706.445         674905.336        
S16              189072.141         675738.859        
S16              189391.713         675310.566        
S16              189427.953         675336.923        
S16              189622.332         675336.923        
S16              189734.347         675373.163        
S16              189803.533         675313.861        
S16              189935.315         675458.821        
S16              189968.260         675633.433        
S16              189510.317         675653.200        
S16              189507.023         675808.044        
S16              189605.859         676018.896        
S16              189605.859         676068.314        
S16              189424.659         676078.198        
S16              189358.767         675775.099        
S16              189049.079         675775.099        
S17              188292.964         675915.061        
S17              188470.010         675880.346        
S17              188619.285         676414.957        
S17              188640.114         676418.428        
S17              189521.874         676165.009        
S17              189501.045         676078.221        
S17              189431.615         676071.278        
S17              189421.200         676046.978        
S17              189348.299         675779.673        
S17              189028.921         675793.559        
S17              189018.507         675724.129        
S17              188612.342         675803.973        
S17              188588.041         675661.642        
S17              188275.607         675734.543        
S17              188310.322         675911.590        
S18              187933.690         676600.013        
S18              187833.017         676245.920        
S18              188506.487         676075.817        
S18              188624.518         676422.967        
S18              187937.162         676596.541        
S19              188046.282         676980.558        
S19              188310.116         676883.356        
S19              188337.888         676956.257        
S19              188712.810         676865.998        
S19              188716.281         676848.641        
S19              188629.494         676588.278        
S19              188639.908         676439.004        
S19              187931.723         676602.164        
S19              188046.282         676977.086        
S20              188151.099         677391.191        
S20              188699.596         677300.932        
S20              188692.653         677186.373        
S20              188786.383         677148.186        
S20              188716.953         676839.223        
S20              188345.503         676960.726        
S20              188314.260         676898.239        
S20              188046.954         676967.669        
S20              188151.099         677384.248        
S21              188644.301         676422.695        
S21              188630.415         676474.768        
S21              188717.202         676811.503        
S21              188800.518         677141.295        
S21              189776.009         676901.762        
S21              189633.677         676290.778        
S21              189592.019         676075.545        
S21              189505.232         676072.074        
S21              189519.118         676186.633        
S21              188640.829         676433.110        
S22              189609.358         676094.851        
S22              189796.819         676879.409        
S22              189828.062         676993.969        
S22              189848.891         676948.839        
S22              189921.793         676855.109        
S22              189977.337         676827.337        
S22              190053.710         676733.606        
S22              190119.668         676695.420        
S22              190185.627         676695.420        
S22              190268.943         676636.404        
S22              190362.673         676660.705        
S22              190432.103         676594.746        
S22              190452.932         676521.845        
S22              190425.160         676476.716        
S22              190553.605         676386.457        
S22              190557.077         676303.141        
S22              190494.590         676202.467        
S22              190525.833         676060.136        
S22              190515.419         675955.991        
S22              190414.745         675865.732        
S22              190161.326         675667.857        
S22              190088.425         675695.629        
S22              189977.337         675640.085        
S22              189522.571         675647.028        
S22              189508.685         675792.831        
S22              189619.773         676063.608        
S23              188878.835         677825.274        
S23              188944.793         677832.217        
S23              189187.798         677755.844        
S23              189392.616         677717.657        
S23              189691.165         677696.828        
S23              189684.222         677578.797        
S23              189760.595         677540.611        
S23              189750.181         677429.523        
S23              189718.937         677349.679        
S23              189791.838         677269.834        
S23              189798.781         677040.716        
S23              189777.953         676922.685        
S23              188944.793         677134.446        
S23              188965.622         677262.891        
S23              188913.550         677262.891        
S23              188930.907         677495.482        
S23              188885.778         677498.953        
S23              188861.477         677825.274        
S24              188340.468         677855.197        
S24              188784.820         677851.726        
S24              188868.135         677834.368        
S24              188864.664         677511.519        
S24              188923.679         677490.690        
S24              188902.850         677261.571        
S24              188951.451         677258.100        
S24              188947.980         677140.069        
S24              188916.736         677140.069        
S24              188708.447         677209.499        
S24              188684.146         677615.664        
S24              188267.567         677671.208        
S24              188333.525         677855.197        
S25              188250.451         677657.676        
S25              188691.331         677605.603        
S25              188691.331         677588.246        
S25              188698.274         677463.272        
S25              188712.160         677400.785        
S25              188705.217         677310.526        
S25              188160.192         677386.899        
S25              188246.979         677654.204        
S26              188709.123         678042.797        
S26              188719.538         677869.222        
S26              188820.211         677876.165        
S26              188861.869         677844.922        
S26              189007.672         677820.621        
S26              189299.278         677747.720        
S26              189688.085         677681.761        
S26              189698.500         677713.005        
S26              189681.142         677855.336        
S26              189629.070         677980.310        
S26              189483.267         678126.113        
S26              189313.163         678122.641        
S26              189268.034         678146.942        
S26              189014.615         678136.527        
S26              189004.200         678098.341        
S26              188702.180         678042.797        
S27              188509.779         678591.953        
S27              188617.395         678623.196        
S27              188929.830         678640.554        
S27              188884.700         679064.076        
S27              188981.902         679039.776        
S27              189207.550         679022.419        
S27              189259.622         678970.346        
S27              189419.311         678959.932        
S27              189467.912         678932.160        
S27              189471.383         678817.600        
S27              189433.197         678758.585        
S27              189502.627         678720.398        
S27              189572.057         678682.212        
S27              189596.357         678598.896        
S27              189565.114         678581.538        
S27              189526.927         678539.881        
S27              189509.570         678456.565        
S27              189471.383         678383.663        
S27              189471.383         678144.130        
S27              189308.223         678123.301        
S27              189290.866         678161.487        
S27              189006.203         678147.601        
S27              189009.674         678105.943        
S27              188714.597         678050.400        
S27              188718.069         677883.768        
S27              188363.976         677855.996        
S27              188363.976         677883.768        
S27              188377.862         678060.814        
S27              188409.105         678137.187        
S27              188475.064         678376.720        
S27              188506.307         678598.896        
S28              188431.500         678929.384        
S28              188415.027         678744.888        
S28              188474.329         678599.928        
S28              188569.871         678616.401        
S28              188747.777         678636.168        
S28              188849.908         678639.463        
S28              188909.210         678622.990        
S28              188912.505         678688.881        
S28              188892.738         678850.314        
S28              188863.087         679061.166        
S28              188635.762         679067.755        
S28              188606.111         679051.282        
S28              188507.274         678988.686        
S28              188434.794         678988.686

;;____________________________________________________________________________________________________
[SYMBOLS]
;;Gage           X-Coord            Y-Coord           
;;-------------- ------------------ ------------------

;;____________________________________________________________________________________________________
[BACKDROP]
FILE       "raanana_24subcatchments.png"
DIMENSIONS 185865.396 673350.000 190728.391 679250.737