[TITLE]
;;Project Title/Notes

;;____________________________________________________________________________________________________
[OPTIONS]
FLOW_UNITS           CMS
INFILTRATION         CURVE_NUMBER
FLOW_ROUTING         DYNWAVE
LINK_OFFSETS         DEPTH
MIN_SLOPE            0
ALLOW_PONDING        NO
SKIP_STEADY_STATE    NO
START_DATE           12/24/2017
START_TIME           10:00:00
REPORT_START_DATE    12/24/2017
REPORT_START_TIME    10:00:00
END_DATE             12/24/2017
END_TIME             18:00:00
SWEEP_START          01/01
SWEEP_END            12/31
DRY_DAYS             0
REPORT_STEP          00:05:00
WET_STEP             00:05:00
DRY_STEP             01:00:00
ROUTING_STEP         0:00:20
RULE_STEP            00:00:00
INERTIAL_DAMPING     PARTIAL
NORMAL_FLOW_LIMITED  BOTH
FORCE_MAIN_EQUATION  H-W
VARIABLE_STEP        0.75
LENGTHENING_STEP     0
MIN_SURFAREA         1.167
MAX_TRIALS           8
HEAD_TOLERANCE       0.0015
SYS_FLOW_TOL         5
LAT_FLOW_TOL         5
MINIMUM_STEP         0.5
THREADS              1

;;____________________________________________________________________________________________________
[EVAPORATION]
CONSTANT  4
DRY_ONLY  NO

;;____________________________________________________________________________________________________
[RAINGAGES]
R01 VOLUME 0:05 0 TIMESERIES 2017_12_24_S1
R02 VOLUME 0:05 0 TIMESERIES 2017_12_24_S2
R03 VOLUME 0:05 0 TIMESERIES 2017_12_24_S3
R04 VOLUME 0:05 0 TIMESERIES 2017_12_24_S4
R05 VOLUME 0:05 0 TIMESERIES 2017_12_24_S5
R06 VOLUME 0:05 0 TIMESERIES 2017_12_24_S6
R07 VOLUME 0:05 0 TIMESERIES 2017_12_24_S7
R08 VOLUME 0:05 0 TIMESERIES 2017_12_24_S8
R09 VOLUME 0:05 0 TIMESERIES 2017_12_24_S9
R10 VOLUME 0:05 0 TIMESERIES 2017_12_24_S10
R11 VOLUME 0:05 0 TIMESERIES 2017_12_24_S11
R12 VOLUME 0:05 0 TIMESERIES 2017_12_24_S12
R13 VOLUME 0:05 0 TIMESERIES 2017_12_24_S13
R14 VOLUME 0:05 0 TIMESERIES 2017_12_24_S14
R15 VOLUME 0:05 0 TIMESERIES 2017_12_24_S15
R16 VOLUME 0:05 0 TIMESERIES 2017_12_24_S16
R17 VOLUME 0:05 0 TIMESERIES 2017_12_24_S17
R18 VOLUME 0:05 0 TIMESERIES 2017_12_24_S18
R19 VOLUME 0:05 0 TIMESERIES 2017_12_24_S19
R20 VOLUME 0:05 0 TIMESERIES 2017_12_24_S20
R21 VOLUME 0:05 0 TIMESERIES 2017_12_24_S21
R22 VOLUME 0:05 0 TIMESERIES 2017_12_24_S22
R23 VOLUME 0:05 0 TIMESERIES 2017_12_24_S23
R24 VOLUME 0:05 0 TIMESERIES 2017_12_24_S24
R25 VOLUME 0:05 0 TIMESERIES 2017_12_24_S25
R26 VOLUME 0:05 0 TIMESERIES 2017_12_24_S26
R27 VOLUME 0:05 0 TIMESERIES 2017_12_24_S27
R28 VOLUME 0:05 0 TIMESERIES 2017_12_24_S28

;;____________________________________________________________________________________________________
[SUBCATCHMENTS]
S01 R01 J1 35.9 6 3211 3 0
S02 R02 J2 92.9 54 3640 2.6 0
S03 R03 J4 40.8 64.5 3640 2.2 0
S04 R04 J6 20.1 70.5 2457 2.4 0
S05 R05 J7 17.4 67.5 1508 3.5 0
S06 R06 J8 61.1 70.5 3692 1.9 0
S07 R07 J9 60.2 70.5 3458 2 0
S08 R08 J11 29 70.5 2600 2.8 0
S09 R09 J14 31.1 19.5 1482 3 0
S10 R10 J15 35.6 70.5 1820 2.2 0
S11 R11 J17 67.4 70.5 702 3.5 0
S12 R12 J18 15.2 16.5 2860 4 0
S13 R13 J16 177.1 10.5 5408 1.3 0
S14 R14 J12 27 73.5 1391 3 0
S15 R15 J24 59.2 24 1703 2.5 0
S16 R16 J25 28.6 45 1703 2.3 0
S17 R17 J23 53.4 73.5 1560 2.4 0
S18 R18 J10 25.4 73.5 1872 2.9 0
S19 R19 J8 27.8 73.5 1820 3.2 0
S20 R20 J7 28.2 70.5 1820 3.3 0
S21 R21 J22 76.7 70.5 1976 2.8 0
S22 R22 J26 87.9 82.5 2405 2.4 0
S23 R23 J21 60.3 69 2262 2.1 0
S24 R24 J4 21.6 70.5 3255.2 2 0
S25 R25 J5 14 76.5 1274 3.6 0
S26 R26 J20 30.9 94.5 2470 2.1 0
S27 R27 J3 82 97.5 2782 1.9 0
S28 R28 J1 18.8 3 1235 2.4 0


;;____________________________________________________________________________________________________
[SUBAREAS]
S01 0.011 0.06 14.4 40 30 PERVIOUS 45
S02 0.011 0.06 14.4 40 50 PERVIOUS 45
S03 0.011 0.06 14.4 40 50 PERVIOUS 45
S04 0.011 0.06 14.4 40 50 PERVIOUS 45
S05 0.011 0.06 14.4 40 50 PERVIOUS 45
S06 0.011 0.06 14.4 40 50 PERVIOUS 45
S07 0.011 0.06 14.4 40 50 PERVIOUS 45
S08 0.011 0.06 14.4 40 50 PERVIOUS 45
S09 0.011 0.06 14.4 40 30 PERVIOUS 45
S10 0.011 0.06 14.4 40 50 PERVIOUS 45
S11 0.011 0.06 14.4 40 50 PERVIOUS 45
S12 0.011 0.06 14.4 40 30 PERVIOUS 45
S13 0.011 0.06 14.4 40 30 PERVIOUS 45
S14 0.011 0.06 14.4 40 50 PERVIOUS 45
S15 0.011 0.06 14.4 40 30 PERVIOUS 45
S16 0.011 0.06 14.4 40 50 PERVIOUS 45
S17 0.011 0.06 14.4 40 50 PERVIOUS 45
S18 0.011 0.06 14.4 40 50 PERVIOUS 45
S19 0.011 0.06 14.4 40 50 PERVIOUS 45
S20 0.011 0.06 14.4 40 50 PERVIOUS 45
S21 0.011 0.06 14.4 40 50 PERVIOUS 45
S22 0.011 0.06 14.4 40 60 PERVIOUS 45
S23 0.011 0.06 14.4 40 50 PERVIOUS 45
S24 0.011 0.06 14.4 40 50 PERVIOUS 45
S25 0.011 0.06 14.4 40 50 PERVIOUS 45
S26 0.011 0.06 14.4 40 60 PERVIOUS 45
S27 0.011 0.06 14.4 40 60 PERVIOUS 45
S28 0.011 0.06 14.4 40 30 PERVIOUS 45


;;____________________________________________________________________________________________________
[INFILTRATION]
S01 39 0.5 4
S02 39 0.5 4
S03 39 0.5 4
S04 39 0.5 4
S05 39 0.5 4
S06 39 0.5 4
S07 39 0.5 4
S08 39 0.5 4
S09 39 0.5 4
S10 39 0.5 4
S11 39 0.5 4
S12 39 0.5 4
S13 39 0.5 4
S14 39 0.5 4
S15 39 0.5 4
S16 39 0.5 4
S17 39 0.5 4
S18 39 0.5 4
S19 39 0.5 4
S20 39 0.5 4
S21 39 0.5 4
S22 39 0.5 4
S23 39 0.5 4
S24 39 0.5 4
S25 39 0.5 4
S26 39 0.5 4
S27 39 0.5 4
S28 39 0.5 4


;;____________________________________________________________________________________________________
[JUNCTIONS]
;;Name           Elevation  MaxDepth   InitDepth  SurDepth   Aponded   
;;-------------- ---------- ---------- ---------- ---------- ----------
J1               28.6       0          0          0          0         
J10              41.7       0          0          0          0         
J11              43.4       0          0          0          0         
J12              44.5       0          0          0          0         
J13              45.2       0          0          0          0         
J14              54.6       0          0          0          0         
J15              60.3       0          0          0          0         
J16              49         0          0          0          0         
J17              55.5       0          0          0          0         
J18              65.1       0          0          0          0         
J2               31.6       0          0          0          0         
J20              37.3       0          0          0          0         
J21              42.7       0          0          0          0         
J22              46.8       0          0          0          0         
J23              49.5       0          0          0          0         
J24              50.1       0          0          0          0         
J25              53.6       0          0          0          0         
J26              53.8       0          0          0          0         
J3               31.8       0          0          0          0         
J4               33.2       0          0          0          0         
J5               35.8       0          0          0          0         
J6               38         0          0          0          0         
J7               38.5       0          0          0          0         
J8               39.9       0          0          0          0         
J9               40.6       0          0          0          0

;;____________________________________________________________________________________________________
[OUTFALLS]
;;Name           Elevation  Type       Stage Data       Gated    Route To        
;;-------------- ---------- ---------- ---------------- -------- ----------------
O1               28         FREE                        NO

;;____________________________________________________________________________________________________
[CONDUITS]
;;Name           From Node        To Node          Length     Roughness  InOffset   OutOffset  InitFlow   MaxFlow   
;;-------------- ---------------- ---------------- ---------- ---------- ---------- ---------- ---------- ----------
C1               J1               O1               130        0.05       0          0          0          0         
C10              J10              J9               320        0.01       0          0          0          0         
C11              J11              J10              315        0.01       0          0          0          0         
C12              J12              J11              130        0.01       0          0          0          0         
C13              J13              J12              110        0.01       0          0          0          0         
C14              J13              J14              550        0.01       0          0          0          0         
C15              J15              J14              540        0.01       0          0          0          0         
C16              J16              J13              590        0.01       0          0          0          0         
C17              J17              J16              770        0.01       0          0          0          0         
C18              J18              J17              505        0.01       0          0          0          0         
C2               J2               J1               330        0.01       0          0          0          0         
C20              J20              J4               600        0.01       0          0          0          0         
C21              J21              J20              620        0.01       0          0          0          0         
C22              J22              J21              850        0.01       0          0          0          0         
C23              J23              J22              530        0.01       0          0          0          0         
C24              J24              J23              440        0.01       0          0          0          0         
C25              J25              J24              190        0.01       0          0          0          0         
C26              J26              J22              600        0.01       0          0          0          0         
C3               J3               J2               95         0.01       0          0          0          0         
C4               J4               J3               660        0.01       0          0          0          0         
C5               J5               J4               175        0.01       0          0          0          0         
C6               J6               J5               280        0.01       0          0          0          0         
C7               J7               J6               120        0.01       0          0          0          0         
C8               J8               J7               300        0.01       0          0          0          0         
C9               J9               J8               250        0.01       0          0          0          0

;;____________________________________________________________________________________________________
[XSECTIONS]
;;Link           Shape        Geom1            Geom2      Geom3      Geom4      Barrels    Culvert   
;;-------------- ------------ ---------------- ---------- ---------- ---------- ---------- ----------
C1               PARABOLIC    5                12         0          0          1                    
C10              RECT_CLOSED  1.5              1.7        0          0          1                    
C11              RECT_CLOSED  1.25             1.5        0          0          1                    
C12              RECT_CLOSED  1.25             1.5        0          0          1                    
C13              RECT_CLOSED  1.95             3.85       0          0          1                    
C14              CIRCULAR     0.6              0          0          0          1                    
C15              RECT_CLOSED  1.95             3.85       0          0          1                    
C16              PARABOLIC    1.95             3.85       0          0          1                    
C17              RECT_CLOSED  1.95             3.85       0          0          1                    
C18              RECT_CLOSED  1.95             3.85       0          0          1                    
C2               PARABOLIC    5                12         0          0          1                    
C20              RECT_CLOSED  1.25             4.5        0          0          1                    
C21              CIRCULAR     1.5              0          0          0          1                    
C22              CIRCULAR     1.8              0          0          0          1                    
C23              CIRCULAR     1.25             0          0          0          1                    
C24              CIRCULAR     1.5              0          0          0          1                    
C25              RECT_CLOSED  1.95             3.85       0          0          1                    
C26              CIRCULAR     1.25             0          0          0          1                    
C3               RECT_CLOSED  3.70             6          0          0          1                    
C4               RECT_CLOSED  3.60             5.85       0          0          1                    
C5               RECT_CLOSED  1.85             2.5        0          0          1                    
C6               RECT_CLOSED  1.85             2.5        0          0          1                    
C7               RECT_CLOSED  1.95             3.85       0          0          1                    
C8               RECT_CLOSED  1.85             2          0          0          1                    
C9               RECT_CLOSED  1.85             2          0          0          1

;;____________________________________________________________________________________________________
[TIMESERIES]
2017_12_24_S1 12/24/2017 12:10:00 0.6185
2017_12_24_S1 12/24/2017 12:15:00 2.1795
2017_12_24_S1 12/24/2017 12:20:00 4.784
2017_12_24_S1 12/24/2017 12:25:00 0.375
2017_12_24_S1 12/24/2017 12:30:00 0.7024
2017_12_24_S1 12/24/2017 12:35:00 0.1146
2017_12_24_S1 12/24/2017 12:40:00 0.1536
2017_12_24_S1 12/24/2017 12:45:00 0.1804
2017_12_24_S1 12/24/2017 12:50:00 0.6042
2017_12_24_S1 12/24/2017 12:55:00 0.0539
2017_12_24_S1 12/24/2017 13:00:00 0.0241
2017_12_24_S1 12/24/2017 13:05:00 0.0121
2017_12_24_S1 12/24/2017 13:10:00 0.0288
2017_12_24_S1 12/24/2017 13:15:00 0.0251
2017_12_24_S1 12/24/2017 13:20:00 0.0608
2017_12_24_S1 12/24/2017 13:25:00 0.0247
2017_12_24_S1 12/24/2017 13:30:00 0.0297
2017_12_24_S1 12/24/2017 13:35:00 0.0036
2017_12_24_S1 12/24/2017 13:40:00 0.0022
2017_12_24_S1 12/24/2017 13:45:00 0.0011
2017_12_24_S1 12/24/2017 13:50:00 0.0
2017_12_24_S1 12/24/2017 13:55:00 0.0
2017_12_24_S1 12/24/2017 14:00:00 0.0
2017_12_24_S1 12/24/2017 14:05:00 0.0
2017_12_24_S1 12/24/2017 14:10:00 0.0
2017_12_24_S1 12/24/2017 14:15:00 0.0
2017_12_24_S1 12/24/2017 14:20:00 0.0
2017_12_24_S1 12/24/2017 14:25:00 0.0
2017_12_24_S1 12/24/2017 14:30:00 0.0
2017_12_24_S1 12/24/2017 14:35:00 0.0
2017_12_24_S1 12/24/2017 14:40:00 0.0
2017_12_24_S1 12/24/2017 14:45:00 0.0
2017_12_24_S1 12/24/2017 14:50:00 0.0
2017_12_24_S1 12/24/2017 14:55:00 0.0
2017_12_24_S1 12/24/2017 15:00:00 0.0
2017_12_24_S1 12/24/2017 15:05:00 0.0
2017_12_24_S1 12/24/2017 15:10:00 0.0173
2017_12_24_S1 12/24/2017 15:15:00 0.0043
2017_12_24_S1 12/24/2017 15:20:00 0.0115
2017_12_24_S1 12/24/2017 15:25:00 0.0997
2017_12_24_S1 12/24/2017 15:30:00 0.1926
2017_12_24_S1 12/24/2017 15:35:00 0.7579
2017_12_24_S1 12/24/2017 15:40:00 0.0968
2017_12_24_S1 12/24/2017 15:45:00 0.0
2017_12_24_S1 12/24/2017 15:50:00 0.0
2017_12_24_S1 12/24/2017 15:55:00 0.0803
2017_12_24_S1 12/24/2017 16:00:00 0.401
2017_12_24_S1 12/24/2017 16:05:00 0.1194
2017_12_24_S1 12/24/2017 16:10:00 0.0
2017_12_24_S1 12/24/2017 16:15:00 0.0
2017_12_24_S1 12/24/2017 16:20:00 0.1494
2017_12_24_S1 12/24/2017 16:25:00 0.1186
2017_12_24_S1 12/24/2017 16:30:00 0.0548
2017_12_24_S1 12/24/2017 16:35:00 0.0206
2017_12_24_S1 12/24/2017 16:40:00 0.045
2017_12_24_S1 12/24/2017 16:45:00 0.0326
2017_12_24_S1 12/24/2017 16:50:00 0.0202
2017_12_24_S1 12/24/2017 16:55:00 0.0453
2017_12_24_S1 12/24/2017 17:00:00 0.0042
2017_12_24_S1 12/24/2017 17:05:00 0.0
2017_12_24_S1 12/24/2017 17:10:00 0.0161
2017_12_24_S1 12/24/2017 17:15:00 0.0494
2017_12_24_S1 12/24/2017 17:20:00 0.1259
2017_12_24_S1 12/24/2017 17:25:00 0.0714
2017_12_24_S1 12/24/2017 17:30:00 0.055
2017_12_24_S1 12/24/2017 17:35:00 0.1251
2017_12_24_S1 12/24/2017 17:40:00 0.1365
2017_12_24_S1 12/24/2017 17:45:00 0.0285
2017_12_24_S1 12/24/2017 17:50:00 0.0061
2017_12_24_S1 12/24/2017 17:55:00 0.0289
2017_12_24_S1 12/24/2017 18:00:00 0.0133
2017_12_24_S1 12/24/2017 18:05:00 0.0251
2017_12_24_S1 12/24/2017 18:10:00 0.1741
2017_12_24_S1 12/24/2017 18:15:00 0.0261
2017_12_24_S1 12/24/2017 18:20:00 0.0028
2017_12_24_S1 12/24/2017 18:25:00 0.0
2017_12_24_S1 12/24/2017 18:30:00 0.0
2017_12_24_S1 12/24/2017 18:35:00 0.001
2017_12_24_S1 12/24/2017 18:40:00 0.0766
2017_12_24_S1 12/24/2017 18:45:00 0.0044
2017_12_24_S1 12/24/2017 18:50:00 0.0
2017_12_24_S1 12/24/2017 18:55:00 0.0
2017_12_24_S1 12/24/2017 19:00:00 0.0238
2017_12_24_S1 12/24/2017 19:05:00 0.0367
2017_12_24_S1 12/24/2017 19:10:00 0.145
2017_12_24_S1 12/24/2017 19:15:00 0.1817
2017_12_24_S1 12/24/2017 19:20:00 0.0244
2017_12_24_S1 12/24/2017 19:25:00 0.0149
2017_12_24_S1 12/24/2017 19:30:00 0.0
2017_12_24_S1 12/24/2017 19:35:00 0.0019
2017_12_24_S1 12/24/2017 19:40:00 0.0092
2017_12_24_S1 12/24/2017 19:45:00 0.0
2017_12_24_S1 12/24/2017 19:50:00 0.0142
2017_12_24_S1 12/24/2017 19:55:00 0.0446
2017_12_24_S1 12/24/2017 20:00:00 0.1257
2017_12_24_S1 12/24/2017 20:05:00 0.0737
2017_12_24_S1 12/24/2017 20:10:00 0.0097
2017_12_24_S1 12/24/2017 20:15:00 0.0048
2017_12_24_S1 12/24/2017 20:20:00 0.0065
2017_12_24_S1 12/24/2017 20:25:00 0.0074
2017_12_24_S1 12/24/2017 20:30:00 0.0476
2017_12_24_S1 12/24/2017 20:35:00 0.0029
2017_12_24_S1 12/24/2017 20:40:00 0.0066
2017_12_24_S1 12/24/2017 20:45:00 0.0066
2017_12_24_S1 12/24/2017 20:50:00 0.0238
2017_12_24_S1 12/24/2017 20:55:00 0.0414
2017_12_24_S1 12/24/2017 21:00:00 0.0631
2017_12_24_S1 12/24/2017 21:05:00 0.0671
2017_12_24_S1 12/24/2017 21:10:00 0.0386
2017_12_24_S1 12/24/2017 21:15:00 0.01
2017_12_24_S1 12/24/2017 21:20:00 0.1029
2017_12_24_S1 12/24/2017 21:25:00 0.0056
2017_12_24_S1 12/24/2017 21:30:00 0.0
2017_12_24_S1 12/24/2017 21:35:00 0.0031
2017_12_24_S1 12/24/2017 21:40:00 0.0356
2017_12_24_S1 12/24/2017 21:45:00 0.0548
2017_12_24_S1 12/24/2017 21:50:00 0.0258
2017_12_24_S1 12/24/2017 21:55:00 0.0905
2017_12_24_S1 12/24/2017 22:00:00 0.3546
2017_12_24_S1 12/24/2017 22:05:00 0.0896
2017_12_24_S1 12/24/2017 22:10:00 0.0329
2017_12_24_S1 12/24/2017 22:15:00 0.024
2017_12_24_S1 12/24/2017 22:20:00 0.0006
2017_12_24_S1 12/24/2017 22:25:00 0.2222
2017_12_24_S1 12/24/2017 22:30:00 0.2291
2017_12_24_S1 12/24/2017 22:35:00 0.0312
2017_12_24_S1 12/24/2017 22:40:00 0.0194
2017_12_24_S1 12/24/2017 22:45:00 0.0334
2017_12_24_S1 12/24/2017 22:50:00 0.0309
2017_12_24_S1 12/24/2017 22:55:00 0.06
2017_12_24_S1 12/24/2017 23:00:00 0.0359
2017_12_24_S1 12/24/2017 23:05:00 0.0999
2017_12_24_S1 12/24/2017 23:10:00 0.0683
2017_12_24_S1 12/24/2017 23:15:00 0.4702
2017_12_24_S1 12/24/2017 23:20:00 0.2412
2017_12_24_S1 12/24/2017 23:25:00 0.1732
2017_12_24_S1 12/24/2017 23:30:00 0.2196
2017_12_24_S1 12/24/2017 23:35:00 0.0271
2017_12_24_S1 12/24/2017 23:40:00 0.0052
2017_12_24_S1 12/24/2017 23:45:00 0.0169
2017_12_24_S1 12/24/2017 23:50:00 0.0
2017_12_24_S1 12/24/2017 23:55:00 0.0
2017_12_24_S1 12/25/2017 00:00:00 0.0
2017_12_24_S1 12/25/2017 00:05:00 0.0
2017_12_24_S1 12/25/2017 00:10:00 0.0036
2017_12_24_S1 12/25/2017 00:15:00 0.0312
2017_12_24_S1 12/25/2017 00:20:00 0.1476
2017_12_24_S1 12/25/2017 00:25:00 0.0
2017_12_24_S1 12/25/2017 00:30:00 0.0
2017_12_24_S1 12/25/2017 00:35:00 0.0
2017_12_24_S1 12/25/2017 00:40:00 0.0
2017_12_24_S1 12/25/2017 00:45:00 0.0
2017_12_24_S1 12/25/2017 00:50:00 0.0
2017_12_24_S1 12/25/2017 00:55:00 0.0
2017_12_24_S1 12/25/2017 01:00:00 0.0
2017_12_24_S1 12/25/2017 01:05:00 0.0
2017_12_24_S1 12/25/2017 01:10:00 0.0631
2017_12_24_S1 12/25/2017 01:15:00 0.0386
2017_12_24_S1 12/25/2017 01:20:00 0.0
2017_12_24_S1 12/25/2017 01:25:00 0.0
2017_12_24_S1 12/25/2017 01:30:00 0.0
2017_12_24_S1 12/25/2017 01:35:00 0.0
2017_12_24_S1 12/25/2017 01:40:00 0.0
2017_12_24_S1 12/25/2017 01:45:00 0.0
2017_12_24_S1 12/25/2017 01:50:00 0.0
2017_12_24_S1 12/25/2017 01:55:00 0.0072
2017_12_24_S1 12/25/2017 02:00:00 0.1677
2017_12_24_S1 12/25/2017 02:05:00 0.0621
2017_12_24_S1 12/25/2017 02:10:00 0.0
2017_12_24_S1 12/25/2017 02:15:00 0.0
2017_12_24_S1 12/25/2017 02:20:00 0.0099
2017_12_24_S1 12/25/2017 02:25:00 1.5902
2017_12_24_S1 12/25/2017 02:30:00 0.0
2017_12_24_S1 12/25/2017 02:35:00 0.0
2017_12_24_S1 12/25/2017 02:40:00 0.0
2017_12_24_S1 12/25/2017 02:45:00 0.0
2017_12_24_S1 12/25/2017 02:50:00 0.0
2017_12_24_S1 12/25/2017 02:55:00 0.0
2017_12_24_S1 12/25/2017 03:00:00 0.206
2017_12_24_S1 12/25/2017 03:05:00 0.0
2017_12_24_S1 12/25/2017 03:10:00 0.0
2017_12_24_S1 12/25/2017 03:15:00 0.0
2017_12_24_S1 12/25/2017 03:20:00 0.0
2017_12_24_S1 12/25/2017 03:25:00 0.0104
2017_12_24_S1 12/25/2017 03:30:00 0.0069
2017_12_24_S1 12/25/2017 03:35:00 0.0
2017_12_24_S1 12/25/2017 03:40:00 0.0
2017_12_24_S1 12/25/2017 03:45:00 0.0
2017_12_24_S1 12/25/2017 03:50:00 0.0
2017_12_24_S1 12/25/2017 03:55:00 0.0
2017_12_24_S1 12/25/2017 04:00:00 0.0
2017_12_24_S1 12/25/2017 04:05:00 0.0
2017_12_24_S1 12/25/2017 04:10:00 0.0
2017_12_24_S1 12/25/2017 04:15:00 0.0
2017_12_24_S1 12/25/2017 04:20:00 0.0
2017_12_24_S1 12/25/2017 04:25:00 0.0
2017_12_24_S1 12/25/2017 04:30:00 0.0
2017_12_24_S1 12/25/2017 04:35:00 0.0
2017_12_24_S1 12/25/2017 04:40:00 0.0
2017_12_24_S1 12/25/2017 04:45:00 0.0007
2017_12_24_S1 12/25/2017 04:50:00 1.0348
2017_12_24_S1 12/25/2017 04:55:00 0.3863
2017_12_24_S1 12/25/2017 05:00:00 0.3474
2017_12_24_S1 12/25/2017 05:05:00 0.1583
2017_12_24_S1 12/25/2017 05:10:00 0.0
2017_12_24_S1 12/25/2017 05:15:00 0.0
2017_12_24_S1 12/25/2017 05:20:00 0.0
2017_12_24_S1 12/25/2017 05:25:00 0.0228
2017_12_24_S1 12/25/2017 05:30:00 0.446
2017_12_24_S1 12/25/2017 05:35:00 0.898
2017_12_24_S1 12/25/2017 05:40:00 0.922
2017_12_24_S1 12/25/2017 05:45:00 0.0275
2017_12_24_S1 12/25/2017 05:50:00 0.0334
2017_12_24_S1 12/25/2017 05:55:00 0.0092
2017_12_24_S1 12/25/2017 06:00:00 0.0843
2017_12_24_S1 12/25/2017 06:05:00 0.1852
2017_12_24_S1 12/25/2017 06:10:00 0.0409
2017_12_24_S1 12/25/2017 06:15:00 0.0071
2017_12_24_S1 12/25/2017 06:20:00 0.0
2017_12_24_S1 12/25/2017 06:25:00 0.0
2017_12_24_S1 12/25/2017 06:30:00 0.0
2017_12_24_S1 12/25/2017 06:35:00 0.0
2017_12_24_S1 12/25/2017 06:40:00 0.0
2017_12_24_S1 12/25/2017 06:45:00 0.0
2017_12_24_S1 12/25/2017 06:50:00 0.0
2017_12_24_S1 12/25/2017 06:55:00 0.0
2017_12_24_S1 12/25/2017 07:00:00 0.0
2017_12_24_S1 12/25/2017 07:05:00 0.0
2017_12_24_S1 12/25/2017 07:10:00 0.0
2017_12_24_S1 12/25/2017 07:15:00 0.0
2017_12_24_S1 12/25/2017 07:20:00 0.0
2017_12_24_S1 12/25/2017 07:25:00 0.0
2017_12_24_S1 12/25/2017 07:30:00 0.0
2017_12_24_S1 12/25/2017 07:35:00 0.0
2017_12_24_S1 12/25/2017 07:40:00 0.0
2017_12_24_S1 12/25/2017 07:45:00 0.0
2017_12_24_S1 12/25/2017 07:50:00 0.0
2017_12_24_S1 12/25/2017 07:55:00 0.0
2017_12_24_S1 12/25/2017 08:00:00 0.0

2017_12_24_S2 12/24/2017 12:10:00 0.1887
2017_12_24_S2 12/24/2017 12:15:00 1.5942
2017_12_24_S2 12/24/2017 12:20:00 5.3657
2017_12_24_S2 12/24/2017 12:25:00 0.6141
2017_12_24_S2 12/24/2017 12:30:00 1.1383
2017_12_24_S2 12/24/2017 12:35:00 0.1323
2017_12_24_S2 12/24/2017 12:40:00 0.3048
2017_12_24_S2 12/24/2017 12:45:00 0.1577
2017_12_24_S2 12/24/2017 12:50:00 0.4872
2017_12_24_S2 12/24/2017 12:55:00 0.0757
2017_12_24_S2 12/24/2017 13:00:00 0.0287
2017_12_24_S2 12/24/2017 13:05:00 0.0121
2017_12_24_S2 12/24/2017 13:10:00 0.0226
2017_12_24_S2 12/24/2017 13:15:00 0.0287
2017_12_24_S2 12/24/2017 13:20:00 0.0656
2017_12_24_S2 12/24/2017 13:25:00 0.0242
2017_12_24_S2 12/24/2017 13:30:00 0.0297
2017_12_24_S2 12/24/2017 13:35:00 0.004
2017_12_24_S2 12/24/2017 13:40:00 0.002
2017_12_24_S2 12/24/2017 13:45:00 0.001
2017_12_24_S2 12/24/2017 13:50:00 0.0
2017_12_24_S2 12/24/2017 13:55:00 0.0
2017_12_24_S2 12/24/2017 14:00:00 0.0
2017_12_24_S2 12/24/2017 14:05:00 0.0
2017_12_24_S2 12/24/2017 14:10:00 0.0
2017_12_24_S2 12/24/2017 14:15:00 0.0
2017_12_24_S2 12/24/2017 14:20:00 0.0
2017_12_24_S2 12/24/2017 14:25:00 0.0
2017_12_24_S2 12/24/2017 14:30:00 0.0
2017_12_24_S2 12/24/2017 14:35:00 0.0
2017_12_24_S2 12/24/2017 14:40:00 0.0
2017_12_24_S2 12/24/2017 14:45:00 0.0
2017_12_24_S2 12/24/2017 14:50:00 0.0
2017_12_24_S2 12/24/2017 14:55:00 0.0
2017_12_24_S2 12/24/2017 15:00:00 0.0
2017_12_24_S2 12/24/2017 15:05:00 0.0
2017_12_24_S2 12/24/2017 15:10:00 0.0025
2017_12_24_S2 12/24/2017 15:15:00 0.0047
2017_12_24_S2 12/24/2017 15:20:00 0.0171
2017_12_24_S2 12/24/2017 15:25:00 0.0915
2017_12_24_S2 12/24/2017 15:30:00 0.1479
2017_12_24_S2 12/24/2017 15:35:00 0.9092
2017_12_24_S2 12/24/2017 15:40:00 0.0772
2017_12_24_S2 12/24/2017 15:45:00 0.0
2017_12_24_S2 12/24/2017 15:50:00 0.0
2017_12_24_S2 12/24/2017 15:55:00 0.0698
2017_12_24_S2 12/24/2017 16:00:00 0.6256
2017_12_24_S2 12/24/2017 16:05:00 0.1377
2017_12_24_S2 12/24/2017 16:10:00 0.0
2017_12_24_S2 12/24/2017 16:15:00 0.0
2017_12_24_S2 12/24/2017 16:20:00 0.1555
2017_12_24_S2 12/24/2017 16:25:00 0.1039
2017_12_24_S2 12/24/2017 16:30:00 0.0557
2017_12_24_S2 12/24/2017 16:35:00 0.0247
2017_12_24_S2 12/24/2017 16:40:00 0.0472
2017_12_24_S2 12/24/2017 16:45:00 0.0367
2017_12_24_S2 12/24/2017 16:50:00 0.0263
2017_12_24_S2 12/24/2017 16:55:00 0.047
2017_12_24_S2 12/24/2017 17:00:00 0.0054
2017_12_24_S2 12/24/2017 17:05:00 0.0
2017_12_24_S2 12/24/2017 17:10:00 0.0223
2017_12_24_S2 12/24/2017 17:15:00 0.0823
2017_12_24_S2 12/24/2017 17:20:00 0.0831
2017_12_24_S2 12/24/2017 17:25:00 0.0544
2017_12_24_S2 12/24/2017 17:30:00 0.0506
2017_12_24_S2 12/24/2017 17:35:00 0.1232
2017_12_24_S2 12/24/2017 17:40:00 0.1622
2017_12_24_S2 12/24/2017 17:45:00 0.0276
2017_12_24_S2 12/24/2017 17:50:00 0.0061
2017_12_24_S2 12/24/2017 17:55:00 0.0245
2017_12_24_S2 12/24/2017 18:00:00 0.0195
2017_12_24_S2 12/24/2017 18:05:00 0.0251
2017_12_24_S2 12/24/2017 18:10:00 0.2373
2017_12_24_S2 12/24/2017 18:15:00 0.0629
2017_12_24_S2 12/24/2017 18:20:00 0.0067
2017_12_24_S2 12/24/2017 18:25:00 0.0
2017_12_24_S2 12/24/2017 18:30:00 0.0
2017_12_24_S2 12/24/2017 18:35:00 0.0026
2017_12_24_S2 12/24/2017 18:40:00 0.0799
2017_12_24_S2 12/24/2017 18:45:00 0.0023
2017_12_24_S2 12/24/2017 18:50:00 0.0
2017_12_24_S2 12/24/2017 18:55:00 0.0
2017_12_24_S2 12/24/2017 19:00:00 0.0165
2017_12_24_S2 12/24/2017 19:05:00 0.0364
2017_12_24_S2 12/24/2017 19:10:00 0.1422
2017_12_24_S2 12/24/2017 19:15:00 0.1421
2017_12_24_S2 12/24/2017 19:20:00 0.0292
2017_12_24_S2 12/24/2017 19:25:00 0.0123
2017_12_24_S2 12/24/2017 19:30:00 0.0
2017_12_24_S2 12/24/2017 19:35:00 0.0037
2017_12_24_S2 12/24/2017 19:40:00 0.0094
2017_12_24_S2 12/24/2017 19:45:00 0.0
2017_12_24_S2 12/24/2017 19:50:00 0.0151
2017_12_24_S2 12/24/2017 19:55:00 0.0536
2017_12_24_S2 12/24/2017 20:00:00 0.1112
2017_12_24_S2 12/24/2017 20:05:00 0.0821
2017_12_24_S2 12/24/2017 20:10:00 0.0079
2017_12_24_S2 12/24/2017 20:15:00 0.0055
2017_12_24_S2 12/24/2017 20:20:00 0.0066
2017_12_24_S2 12/24/2017 20:25:00 0.0083
2017_12_24_S2 12/24/2017 20:30:00 0.0453
2017_12_24_S2 12/24/2017 20:35:00 0.0055
2017_12_24_S2 12/24/2017 20:40:00 0.0064
2017_12_24_S2 12/24/2017 20:45:00 0.0061
2017_12_24_S2 12/24/2017 20:50:00 0.0239
2017_12_24_S2 12/24/2017 20:55:00 0.0498
2017_12_24_S2 12/24/2017 21:00:00 0.0626
2017_12_24_S2 12/24/2017 21:05:00 0.0501
2017_12_24_S2 12/24/2017 21:10:00 0.0294
2017_12_24_S2 12/24/2017 21:15:00 0.0086
2017_12_24_S2 12/24/2017 21:20:00 0.1186
2017_12_24_S2 12/24/2017 21:25:00 0.0033
2017_12_24_S2 12/24/2017 21:30:00 0.0
2017_12_24_S2 12/24/2017 21:35:00 0.0041
2017_12_24_S2 12/24/2017 21:40:00 0.0288
2017_12_24_S2 12/24/2017 21:45:00 0.0804
2017_12_24_S2 12/24/2017 21:50:00 0.033
2017_12_24_S2 12/24/2017 21:55:00 0.106
2017_12_24_S2 12/24/2017 22:00:00 0.3613
2017_12_24_S2 12/24/2017 22:05:00 0.0849
2017_12_24_S2 12/24/2017 22:10:00 0.0342
2017_12_24_S2 12/24/2017 22:15:00 0.0251
2017_12_24_S2 12/24/2017 22:20:00 0.0011
2017_12_24_S2 12/24/2017 22:25:00 0.28
2017_12_24_S2 12/24/2017 22:30:00 0.2322
2017_12_24_S2 12/24/2017 22:35:00 0.0286
2017_12_24_S2 12/24/2017 22:40:00 0.0193
2017_12_24_S2 12/24/2017 22:45:00 0.0359
2017_12_24_S2 12/24/2017 22:50:00 0.0471
2017_12_24_S2 12/24/2017 22:55:00 0.0547
2017_12_24_S2 12/24/2017 23:00:00 0.0498
2017_12_24_S2 12/24/2017 23:05:00 0.1272
2017_12_24_S2 12/24/2017 23:10:00 0.0574
2017_12_24_S2 12/24/2017 23:15:00 0.3653
2017_12_24_S2 12/24/2017 23:20:00 0.2673
2017_12_24_S2 12/24/2017 23:25:00 0.1531
2017_12_24_S2 12/24/2017 23:30:00 0.2222
2017_12_24_S2 12/24/2017 23:35:00 0.0318
2017_12_24_S2 12/24/2017 23:40:00 0.0025
2017_12_24_S2 12/24/2017 23:45:00 0.0122
2017_12_24_S2 12/24/2017 23:50:00 0.0
2017_12_24_S2 12/24/2017 23:55:00 0.0
2017_12_24_S2 12/25/2017 00:00:00 0.0
2017_12_24_S2 12/25/2017 00:05:00 0.0
2017_12_24_S2 12/25/2017 00:10:00 0.008
2017_12_24_S2 12/25/2017 00:15:00 0.0244
2017_12_24_S2 12/25/2017 00:20:00 0.1912
2017_12_24_S2 12/25/2017 00:25:00 0.0
2017_12_24_S2 12/25/2017 00:30:00 0.0
2017_12_24_S2 12/25/2017 00:35:00 0.0
2017_12_24_S2 12/25/2017 00:40:00 0.0
2017_12_24_S2 12/25/2017 00:45:00 0.0
2017_12_24_S2 12/25/2017 00:50:00 0.0
2017_12_24_S2 12/25/2017 00:55:00 0.0
2017_12_24_S2 12/25/2017 01:00:00 0.0
2017_12_24_S2 12/25/2017 01:05:00 0.0
2017_12_24_S2 12/25/2017 01:10:00 0.0463
2017_12_24_S2 12/25/2017 01:15:00 0.0325
2017_12_24_S2 12/25/2017 01:20:00 0.0
2017_12_24_S2 12/25/2017 01:25:00 0.0
2017_12_24_S2 12/25/2017 01:30:00 0.0
2017_12_24_S2 12/25/2017 01:35:00 0.0
2017_12_24_S2 12/25/2017 01:40:00 0.0
2017_12_24_S2 12/25/2017 01:45:00 0.0
2017_12_24_S2 12/25/2017 01:50:00 0.0
2017_12_24_S2 12/25/2017 01:55:00 0.0114
2017_12_24_S2 12/25/2017 02:00:00 0.1491
2017_12_24_S2 12/25/2017 02:05:00 0.0694
2017_12_24_S2 12/25/2017 02:10:00 0.0
2017_12_24_S2 12/25/2017 02:15:00 0.0
2017_12_24_S2 12/25/2017 02:20:00 0.0058
2017_12_24_S2 12/25/2017 02:25:00 0.8114
2017_12_24_S2 12/25/2017 02:30:00 0.0
2017_12_24_S2 12/25/2017 02:35:00 0.0
2017_12_24_S2 12/25/2017 02:40:00 0.0
2017_12_24_S2 12/25/2017 02:45:00 0.0
2017_12_24_S2 12/25/2017 02:50:00 0.002
2017_12_24_S2 12/25/2017 02:55:00 0.0001
2017_12_24_S2 12/25/2017 03:00:00 0.1045
2017_12_24_S2 12/25/2017 03:05:00 0.0
2017_12_24_S2 12/25/2017 03:10:00 0.0
2017_12_24_S2 12/25/2017 03:15:00 0.0
2017_12_24_S2 12/25/2017 03:20:00 0.0
2017_12_24_S2 12/25/2017 03:25:00 0.0546
2017_12_24_S2 12/25/2017 03:30:00 0.0233
2017_12_24_S2 12/25/2017 03:35:00 0.0
2017_12_24_S2 12/25/2017 03:40:00 0.0
2017_12_24_S2 12/25/2017 03:45:00 0.0
2017_12_24_S2 12/25/2017 03:50:00 0.0
2017_12_24_S2 12/25/2017 03:55:00 0.0
2017_12_24_S2 12/25/2017 04:00:00 0.0
2017_12_24_S2 12/25/2017 04:05:00 0.0
2017_12_24_S2 12/25/2017 04:10:00 0.0
2017_12_24_S2 12/25/2017 04:15:00 0.0
2017_12_24_S2 12/25/2017 04:20:00 0.0
2017_12_24_S2 12/25/2017 04:25:00 0.0
2017_12_24_S2 12/25/2017 04:30:00 0.0
2017_12_24_S2 12/25/2017 04:35:00 0.0
2017_12_24_S2 12/25/2017 04:40:00 0.0
2017_12_24_S2 12/25/2017 04:45:00 0.0001
2017_12_24_S2 12/25/2017 04:50:00 0.8895
2017_12_24_S2 12/25/2017 04:55:00 0.4963
2017_12_24_S2 12/25/2017 05:00:00 0.3322
2017_12_24_S2 12/25/2017 05:05:00 0.1528
2017_12_24_S2 12/25/2017 05:10:00 0.0
2017_12_24_S2 12/25/2017 05:15:00 0.0
2017_12_24_S2 12/25/2017 05:20:00 0.0
2017_12_24_S2 12/25/2017 05:25:00 0.0343
2017_12_24_S2 12/25/2017 05:30:00 0.543
2017_12_24_S2 12/25/2017 05:35:00 0.8364
2017_12_24_S2 12/25/2017 05:40:00 1.4359
2017_12_24_S2 12/25/2017 05:45:00 0.0365
2017_12_24_S2 12/25/2017 05:50:00 0.073
2017_12_24_S2 12/25/2017 05:55:00 0.0086
2017_12_24_S2 12/25/2017 06:00:00 0.1847
2017_12_24_S2 12/25/2017 06:05:00 0.2561
2017_12_24_S2 12/25/2017 06:10:00 0.0405
2017_12_24_S2 12/25/2017 06:15:00 0.0069
2017_12_24_S2 12/25/2017 06:20:00 0.0
2017_12_24_S2 12/25/2017 06:25:00 0.0
2017_12_24_S2 12/25/2017 06:30:00 0.0
2017_12_24_S2 12/25/2017 06:35:00 0.0
2017_12_24_S2 12/25/2017 06:40:00 0.0
2017_12_24_S2 12/25/2017 06:45:00 0.0
2017_12_24_S2 12/25/2017 06:50:00 0.0
2017_12_24_S2 12/25/2017 06:55:00 0.0
2017_12_24_S2 12/25/2017 07:00:00 0.0
2017_12_24_S2 12/25/2017 07:05:00 0.0
2017_12_24_S2 12/25/2017 07:10:00 0.0
2017_12_24_S2 12/25/2017 07:15:00 0.0
2017_12_24_S2 12/25/2017 07:20:00 0.0
2017_12_24_S2 12/25/2017 07:25:00 0.0
2017_12_24_S2 12/25/2017 07:30:00 0.0
2017_12_24_S2 12/25/2017 07:35:00 0.0
2017_12_24_S2 12/25/2017 07:40:00 0.0
2017_12_24_S2 12/25/2017 07:45:00 0.0
2017_12_24_S2 12/25/2017 07:50:00 0.0
2017_12_24_S2 12/25/2017 07:55:00 0.0
2017_12_24_S2 12/25/2017 08:00:00 0.0

2017_12_24_S3 12/24/2017 12:10:00 0.1284
2017_12_24_S3 12/24/2017 12:15:00 1.3905
2017_12_24_S3 12/24/2017 12:20:00 5.4511
2017_12_24_S3 12/24/2017 12:25:00 0.9581
2017_12_24_S3 12/24/2017 12:30:00 1.8887
2017_12_24_S3 12/24/2017 12:35:00 0.2705
2017_12_24_S3 12/24/2017 12:40:00 0.5874
2017_12_24_S3 12/24/2017 12:45:00 0.1647
2017_12_24_S3 12/24/2017 12:50:00 0.2985
2017_12_24_S3 12/24/2017 12:55:00 0.0843
2017_12_24_S3 12/24/2017 13:00:00 0.0306
2017_12_24_S3 12/24/2017 13:05:00 0.0111
2017_12_24_S3 12/24/2017 13:10:00 0.0196
2017_12_24_S3 12/24/2017 13:15:00 0.0376
2017_12_24_S3 12/24/2017 13:20:00 0.0689
2017_12_24_S3 12/24/2017 13:25:00 0.0198
2017_12_24_S3 12/24/2017 13:30:00 0.0292
2017_12_24_S3 12/24/2017 13:35:00 0.0065
2017_12_24_S3 12/24/2017 13:40:00 0.0018
2017_12_24_S3 12/24/2017 13:45:00 0.0009
2017_12_24_S3 12/24/2017 13:50:00 0.0
2017_12_24_S3 12/24/2017 13:55:00 0.0
2017_12_24_S3 12/24/2017 14:00:00 0.0
2017_12_24_S3 12/24/2017 14:05:00 0.0
2017_12_24_S3 12/24/2017 14:10:00 0.0
2017_12_24_S3 12/24/2017 14:15:00 0.0
2017_12_24_S3 12/24/2017 14:20:00 0.0
2017_12_24_S3 12/24/2017 14:25:00 0.0
2017_12_24_S3 12/24/2017 14:30:00 0.0
2017_12_24_S3 12/24/2017 14:35:00 0.0
2017_12_24_S3 12/24/2017 14:40:00 0.0
2017_12_24_S3 12/24/2017 14:45:00 0.0
2017_12_24_S3 12/24/2017 14:50:00 0.0
2017_12_24_S3 12/24/2017 14:55:00 0.0
2017_12_24_S3 12/24/2017 15:00:00 0.0
2017_12_24_S3 12/24/2017 15:05:00 0.0
2017_12_24_S3 12/24/2017 15:10:00 0.0
2017_12_24_S3 12/24/2017 15:15:00 0.0056
2017_12_24_S3 12/24/2017 15:20:00 0.0229
2017_12_24_S3 12/24/2017 15:25:00 0.0658
2017_12_24_S3 12/24/2017 15:30:00 0.1153
2017_12_24_S3 12/24/2017 15:35:00 0.9156
2017_12_24_S3 12/24/2017 15:40:00 0.0788
2017_12_24_S3 12/24/2017 15:45:00 0.0001
2017_12_24_S3 12/24/2017 15:50:00 0.0006
2017_12_24_S3 12/24/2017 15:55:00 0.0832
2017_12_24_S3 12/24/2017 16:00:00 0.8139
2017_12_24_S3 12/24/2017 16:05:00 0.1118
2017_12_24_S3 12/24/2017 16:10:00 0.0
2017_12_24_S3 12/24/2017 16:15:00 0.0
2017_12_24_S3 12/24/2017 16:20:00 0.1881
2017_12_24_S3 12/24/2017 16:25:00 0.0775
2017_12_24_S3 12/24/2017 16:30:00 0.0513
2017_12_24_S3 12/24/2017 16:35:00 0.0304
2017_12_24_S3 12/24/2017 16:40:00 0.0479
2017_12_24_S3 12/24/2017 16:45:00 0.0372
2017_12_24_S3 12/24/2017 16:50:00 0.0265
2017_12_24_S3 12/24/2017 16:55:00 0.054
2017_12_24_S3 12/24/2017 17:00:00 0.006
2017_12_24_S3 12/24/2017 17:05:00 0.0
2017_12_24_S3 12/24/2017 17:10:00 0.0324
2017_12_24_S3 12/24/2017 17:15:00 0.108
2017_12_24_S3 12/24/2017 17:20:00 0.0508
2017_12_24_S3 12/24/2017 17:25:00 0.0405
2017_12_24_S3 12/24/2017 17:30:00 0.0515
2017_12_24_S3 12/24/2017 17:35:00 0.1121
2017_12_24_S3 12/24/2017 17:40:00 0.169
2017_12_24_S3 12/24/2017 17:45:00 0.0223
2017_12_24_S3 12/24/2017 17:50:00 0.0083
2017_12_24_S3 12/24/2017 17:55:00 0.0208
2017_12_24_S3 12/24/2017 18:00:00 0.0248
2017_12_24_S3 12/24/2017 18:05:00 0.0263
2017_12_24_S3 12/24/2017 18:10:00 0.208
2017_12_24_S3 12/24/2017 18:15:00 0.065
2017_12_24_S3 12/24/2017 18:20:00 0.008
2017_12_24_S3 12/24/2017 18:25:00 0.0
2017_12_24_S3 12/24/2017 18:30:00 0.0
2017_12_24_S3 12/24/2017 18:35:00 0.0035
2017_12_24_S3 12/24/2017 18:40:00 0.0639
2017_12_24_S3 12/24/2017 18:45:00 0.0014
2017_12_24_S3 12/24/2017 18:50:00 0.0
2017_12_24_S3 12/24/2017 18:55:00 0.0
2017_12_24_S3 12/24/2017 19:00:00 0.0137
2017_12_24_S3 12/24/2017 19:05:00 0.0391
2017_12_24_S3 12/24/2017 19:10:00 0.1449
2017_12_24_S3 12/24/2017 19:15:00 0.1129
2017_12_24_S3 12/24/2017 19:20:00 0.0338
2017_12_24_S3 12/24/2017 19:25:00 0.0103
2017_12_24_S3 12/24/2017 19:30:00 0.0
2017_12_24_S3 12/24/2017 19:35:00 0.0075
2017_12_24_S3 12/24/2017 19:40:00 0.0091
2017_12_24_S3 12/24/2017 19:45:00 0.0
2017_12_24_S3 12/24/2017 19:50:00 0.0169
2017_12_24_S3 12/24/2017 19:55:00 0.0648
2017_12_24_S3 12/24/2017 20:00:00 0.0871
2017_12_24_S3 12/24/2017 20:05:00 0.0914
2017_12_24_S3 12/24/2017 20:10:00 0.0068
2017_12_24_S3 12/24/2017 20:15:00 0.0041
2017_12_24_S3 12/24/2017 20:20:00 0.0075
2017_12_24_S3 12/24/2017 20:25:00 0.0095
2017_12_24_S3 12/24/2017 20:30:00 0.0361
2017_12_24_S3 12/24/2017 20:35:00 0.0075
2017_12_24_S3 12/24/2017 20:40:00 0.0056
2017_12_24_S3 12/24/2017 20:45:00 0.0056
2017_12_24_S3 12/24/2017 20:50:00 0.0237
2017_12_24_S3 12/24/2017 20:55:00 0.0468
2017_12_24_S3 12/24/2017 21:00:00 0.0551
2017_12_24_S3 12/24/2017 21:05:00 0.0441
2017_12_24_S3 12/24/2017 21:10:00 0.0267
2017_12_24_S3 12/24/2017 21:15:00 0.0092
2017_12_24_S3 12/24/2017 21:20:00 0.1288
2017_12_24_S3 12/24/2017 21:25:00 0.0041
2017_12_24_S3 12/24/2017 21:30:00 0.0
2017_12_24_S3 12/24/2017 21:35:00 0.005
2017_12_24_S3 12/24/2017 21:40:00 0.0218
2017_12_24_S3 12/24/2017 21:45:00 0.1017
2017_12_24_S3 12/24/2017 21:50:00 0.036
2017_12_24_S3 12/24/2017 21:55:00 0.1195
2017_12_24_S3 12/24/2017 22:00:00 0.2932
2017_12_24_S3 12/24/2017 22:05:00 0.0951
2017_12_24_S3 12/24/2017 22:10:00 0.0306
2017_12_24_S3 12/24/2017 22:15:00 0.016
2017_12_24_S3 12/24/2017 22:20:00 0.0012
2017_12_24_S3 12/24/2017 22:25:00 0.2619
2017_12_24_S3 12/24/2017 22:30:00 0.205
2017_12_24_S3 12/24/2017 22:35:00 0.0256
2017_12_24_S3 12/24/2017 22:40:00 0.027
2017_12_24_S3 12/24/2017 22:45:00 0.0441
2017_12_24_S3 12/24/2017 22:50:00 0.0567
2017_12_24_S3 12/24/2017 22:55:00 0.0444
2017_12_24_S3 12/24/2017 23:00:00 0.0661
2017_12_24_S3 12/24/2017 23:05:00 0.1665
2017_12_24_S3 12/24/2017 23:10:00 0.0574
2017_12_24_S3 12/24/2017 23:15:00 0.2461
2017_12_24_S3 12/24/2017 23:20:00 0.1967
2017_12_24_S3 12/24/2017 23:25:00 0.1305
2017_12_24_S3 12/24/2017 23:30:00 0.2366
2017_12_24_S3 12/24/2017 23:35:00 0.0311
2017_12_24_S3 12/24/2017 23:40:00 0.0028
2017_12_24_S3 12/24/2017 23:45:00 0.0103
2017_12_24_S3 12/24/2017 23:50:00 0.0
2017_12_24_S3 12/24/2017 23:55:00 0.0
2017_12_24_S3 12/25/2017 00:00:00 0.0
2017_12_24_S3 12/25/2017 00:05:00 0.0
2017_12_24_S3 12/25/2017 00:10:00 0.0141
2017_12_24_S3 12/25/2017 00:15:00 0.023
2017_12_24_S3 12/25/2017 00:20:00 0.2735
2017_12_24_S3 12/25/2017 00:25:00 0.0
2017_12_24_S3 12/25/2017 00:30:00 0.0
2017_12_24_S3 12/25/2017 00:35:00 0.0
2017_12_24_S3 12/25/2017 00:40:00 0.0
2017_12_24_S3 12/25/2017 00:45:00 0.0
2017_12_24_S3 12/25/2017 00:50:00 0.0
2017_12_24_S3 12/25/2017 00:55:00 0.0
2017_12_24_S3 12/25/2017 01:00:00 0.0
2017_12_24_S3 12/25/2017 01:05:00 0.0
2017_12_24_S3 12/25/2017 01:10:00 0.0347
2017_12_24_S3 12/25/2017 01:15:00 0.0239
2017_12_24_S3 12/25/2017 01:20:00 0.0
2017_12_24_S3 12/25/2017 01:25:00 0.0
2017_12_24_S3 12/25/2017 01:30:00 0.0
2017_12_24_S3 12/25/2017 01:35:00 0.0
2017_12_24_S3 12/25/2017 01:40:00 0.0
2017_12_24_S3 12/25/2017 01:45:00 0.0
2017_12_24_S3 12/25/2017 01:50:00 0.0001
2017_12_24_S3 12/25/2017 01:55:00 0.0151
2017_12_24_S3 12/25/2017 02:00:00 0.2027
2017_12_24_S3 12/25/2017 02:05:00 0.0756
2017_12_24_S3 12/25/2017 02:10:00 0.0
2017_12_24_S3 12/25/2017 02:15:00 0.0
2017_12_24_S3 12/25/2017 02:20:00 0.004
2017_12_24_S3 12/25/2017 02:25:00 0.359
2017_12_24_S3 12/25/2017 02:30:00 0.0
2017_12_24_S3 12/25/2017 02:35:00 0.0
2017_12_24_S3 12/25/2017 02:40:00 0.0
2017_12_24_S3 12/25/2017 02:45:00 0.0
2017_12_24_S3 12/25/2017 02:50:00 0.0039
2017_12_24_S3 12/25/2017 02:55:00 0.0007
2017_12_24_S3 12/25/2017 03:00:00 0.0095
2017_12_24_S3 12/25/2017 03:05:00 0.0
2017_12_24_S3 12/25/2017 03:10:00 0.0
2017_12_24_S3 12/25/2017 03:15:00 0.0
2017_12_24_S3 12/25/2017 03:20:00 0.0
2017_12_24_S3 12/25/2017 03:25:00 0.1236
2017_12_24_S3 12/25/2017 03:30:00 0.0567
2017_12_24_S3 12/25/2017 03:35:00 0.0
2017_12_24_S3 12/25/2017 03:40:00 0.0
2017_12_24_S3 12/25/2017 03:45:00 0.0
2017_12_24_S3 12/25/2017 03:50:00 0.0
2017_12_24_S3 12/25/2017 03:55:00 0.0
2017_12_24_S3 12/25/2017 04:00:00 0.0
2017_12_24_S3 12/25/2017 04:05:00 0.0
2017_12_24_S3 12/25/2017 04:10:00 0.0
2017_12_24_S3 12/25/2017 04:15:00 0.0
2017_12_24_S3 12/25/2017 04:20:00 0.0
2017_12_24_S3 12/25/2017 04:25:00 0.0
2017_12_24_S3 12/25/2017 04:30:00 0.0
2017_12_24_S3 12/25/2017 04:35:00 0.0
2017_12_24_S3 12/25/2017 04:40:00 0.0
2017_12_24_S3 12/25/2017 04:45:00 0.0007
2017_12_24_S3 12/25/2017 04:50:00 0.65
2017_12_24_S3 12/25/2017 04:55:00 0.6391
2017_12_24_S3 12/25/2017 05:00:00 0.3295
2017_12_24_S3 12/25/2017 05:05:00 0.1924
2017_12_24_S3 12/25/2017 05:10:00 0.0
2017_12_24_S3 12/25/2017 05:15:00 0.0
2017_12_24_S3 12/25/2017 05:20:00 0.0
2017_12_24_S3 12/25/2017 05:25:00 0.0616
2017_12_24_S3 12/25/2017 05:30:00 0.4503
2017_12_24_S3 12/25/2017 05:35:00 0.4273
2017_12_24_S3 12/25/2017 05:40:00 2.2042
2017_12_24_S3 12/25/2017 05:45:00 0.043
2017_12_24_S3 12/25/2017 05:50:00 0.1043
2017_12_24_S3 12/25/2017 05:55:00 0.0064
2017_12_24_S3 12/25/2017 06:00:00 0.2564
2017_12_24_S3 12/25/2017 06:05:00 0.363
2017_12_24_S3 12/25/2017 06:10:00 0.0318
2017_12_24_S3 12/25/2017 06:15:00 0.0039
2017_12_24_S3 12/25/2017 06:20:00 0.0
2017_12_24_S3 12/25/2017 06:25:00 0.0
2017_12_24_S3 12/25/2017 06:30:00 0.0
2017_12_24_S3 12/25/2017 06:35:00 0.0
2017_12_24_S3 12/25/2017 06:40:00 0.0
2017_12_24_S3 12/25/2017 06:45:00 0.0
2017_12_24_S3 12/25/2017 06:50:00 0.0
2017_12_24_S3 12/25/2017 06:55:00 0.0
2017_12_24_S3 12/25/2017 07:00:00 0.0
2017_12_24_S3 12/25/2017 07:05:00 0.0
2017_12_24_S3 12/25/2017 07:10:00 0.0
2017_12_24_S3 12/25/2017 07:15:00 0.0
2017_12_24_S3 12/25/2017 07:20:00 0.0
2017_12_24_S3 12/25/2017 07:25:00 0.0
2017_12_24_S3 12/25/2017 07:30:00 0.0
2017_12_24_S3 12/25/2017 07:35:00 0.0
2017_12_24_S3 12/25/2017 07:40:00 0.0
2017_12_24_S3 12/25/2017 07:45:00 0.0
2017_12_24_S3 12/25/2017 07:50:00 0.0
2017_12_24_S3 12/25/2017 07:55:00 0.0
2017_12_24_S3 12/25/2017 08:00:00 0.0

2017_12_24_S4 12/24/2017 12:10:00 0.0496
2017_12_24_S4 12/24/2017 12:15:00 0.9532
2017_12_24_S4 12/24/2017 12:20:00 6.3225
2017_12_24_S4 12/24/2017 12:25:00 1.6066
2017_12_24_S4 12/24/2017 12:30:00 2.6591
2017_12_24_S4 12/24/2017 12:35:00 0.5065
2017_12_24_S4 12/24/2017 12:40:00 0.9257
2017_12_24_S4 12/24/2017 12:45:00 0.2747
2017_12_24_S4 12/24/2017 12:50:00 0.2556
2017_12_24_S4 12/24/2017 12:55:00 0.1297
2017_12_24_S4 12/24/2017 13:00:00 0.0457
2017_12_24_S4 12/24/2017 13:05:00 0.0109
2017_12_24_S4 12/24/2017 13:10:00 0.0199
2017_12_24_S4 12/24/2017 13:15:00 0.0409
2017_12_24_S4 12/24/2017 13:20:00 0.0576
2017_12_24_S4 12/24/2017 13:25:00 0.0234
2017_12_24_S4 12/24/2017 13:30:00 0.0389
2017_12_24_S4 12/24/2017 13:35:00 0.0076
2017_12_24_S4 12/24/2017 13:40:00 0.0042
2017_12_24_S4 12/24/2017 13:45:00 0.0021
2017_12_24_S4 12/24/2017 13:50:00 0.0
2017_12_24_S4 12/24/2017 13:55:00 0.0
2017_12_24_S4 12/24/2017 14:00:00 0.0
2017_12_24_S4 12/24/2017 14:05:00 0.0
2017_12_24_S4 12/24/2017 14:10:00 0.0
2017_12_24_S4 12/24/2017 14:15:00 0.0
2017_12_24_S4 12/24/2017 14:20:00 0.0
2017_12_24_S4 12/24/2017 14:25:00 0.0
2017_12_24_S4 12/24/2017 14:30:00 0.0
2017_12_24_S4 12/24/2017 14:35:00 0.0
2017_12_24_S4 12/24/2017 14:40:00 0.0
2017_12_24_S4 12/24/2017 14:45:00 0.0
2017_12_24_S4 12/24/2017 14:50:00 0.0
2017_12_24_S4 12/24/2017 14:55:00 0.0
2017_12_24_S4 12/24/2017 15:00:00 0.0
2017_12_24_S4 12/24/2017 15:05:00 0.0
2017_12_24_S4 12/24/2017 15:10:00 0.0
2017_12_24_S4 12/24/2017 15:15:00 0.0056
2017_12_24_S4 12/24/2017 15:20:00 0.0105
2017_12_24_S4 12/24/2017 15:25:00 0.0448
2017_12_24_S4 12/24/2017 15:30:00 0.0884
2017_12_24_S4 12/24/2017 15:35:00 0.9546
2017_12_24_S4 12/24/2017 15:40:00 0.1059
2017_12_24_S4 12/24/2017 15:45:00 0.0012
2017_12_24_S4 12/24/2017 15:50:00 0.0016
2017_12_24_S4 12/24/2017 15:55:00 0.0844
2017_12_24_S4 12/24/2017 16:00:00 0.9224
2017_12_24_S4 12/24/2017 16:05:00 0.2137
2017_12_24_S4 12/24/2017 16:10:00 0.0
2017_12_24_S4 12/24/2017 16:15:00 0.0
2017_12_24_S4 12/24/2017 16:20:00 0.2578
2017_12_24_S4 12/24/2017 16:25:00 0.0623
2017_12_24_S4 12/24/2017 16:30:00 0.0395
2017_12_24_S4 12/24/2017 16:35:00 0.0405
2017_12_24_S4 12/24/2017 16:40:00 0.0544
2017_12_24_S4 12/24/2017 16:45:00 0.0379
2017_12_24_S4 12/24/2017 16:50:00 0.0213
2017_12_24_S4 12/24/2017 16:55:00 0.0729
2017_12_24_S4 12/24/2017 17:00:00 0.0103
2017_12_24_S4 12/24/2017 17:05:00 0.0
2017_12_24_S4 12/24/2017 17:10:00 0.0443
2017_12_24_S4 12/24/2017 17:15:00 0.1226
2017_12_24_S4 12/24/2017 17:20:00 0.0291
2017_12_24_S4 12/24/2017 17:25:00 0.0366
2017_12_24_S4 12/24/2017 17:30:00 0.043
2017_12_24_S4 12/24/2017 17:35:00 0.1318
2017_12_24_S4 12/24/2017 17:40:00 0.1444
2017_12_24_S4 12/24/2017 17:45:00 0.0243
2017_12_24_S4 12/24/2017 17:50:00 0.008
2017_12_24_S4 12/24/2017 17:55:00 0.0153
2017_12_24_S4 12/24/2017 18:00:00 0.0263
2017_12_24_S4 12/24/2017 18:05:00 0.0282
2017_12_24_S4 12/24/2017 18:10:00 0.2887
2017_12_24_S4 12/24/2017 18:15:00 0.1083
2017_12_24_S4 12/24/2017 18:20:00 0.0091
2017_12_24_S4 12/24/2017 18:25:00 0.0
2017_12_24_S4 12/24/2017 18:30:00 0.0
2017_12_24_S4 12/24/2017 18:35:00 0.003
2017_12_24_S4 12/24/2017 18:40:00 0.064
2017_12_24_S4 12/24/2017 18:45:00 0.0024
2017_12_24_S4 12/24/2017 18:50:00 0.0
2017_12_24_S4 12/24/2017 18:55:00 0.0
2017_12_24_S4 12/24/2017 19:00:00 0.0112
2017_12_24_S4 12/24/2017 19:05:00 0.0451
2017_12_24_S4 12/24/2017 19:10:00 0.1283
2017_12_24_S4 12/24/2017 19:15:00 0.1012
2017_12_24_S4 12/24/2017 19:20:00 0.0321
2017_12_24_S4 12/24/2017 19:25:00 0.0096
2017_12_24_S4 12/24/2017 19:30:00 0.0
2017_12_24_S4 12/24/2017 19:35:00 0.0109
2017_12_24_S4 12/24/2017 19:40:00 0.0102
2017_12_24_S4 12/24/2017 19:45:00 0.0
2017_12_24_S4 12/24/2017 19:50:00 0.0142
2017_12_24_S4 12/24/2017 19:55:00 0.0842
2017_12_24_S4 12/24/2017 20:00:00 0.0797
2017_12_24_S4 12/24/2017 20:05:00 0.0821
2017_12_24_S4 12/24/2017 20:10:00 0.007
2017_12_24_S4 12/24/2017 20:15:00 0.0016
2017_12_24_S4 12/24/2017 20:20:00 0.0084
2017_12_24_S4 12/24/2017 20:25:00 0.0097
2017_12_24_S4 12/24/2017 20:30:00 0.0408
2017_12_24_S4 12/24/2017 20:35:00 0.0074
2017_12_24_S4 12/24/2017 20:40:00 0.0044
2017_12_24_S4 12/24/2017 20:45:00 0.0058
2017_12_24_S4 12/24/2017 20:50:00 0.0197
2017_12_24_S4 12/24/2017 20:55:00 0.0402
2017_12_24_S4 12/24/2017 21:00:00 0.0463
2017_12_24_S4 12/24/2017 21:05:00 0.0341
2017_12_24_S4 12/24/2017 21:10:00 0.0232
2017_12_24_S4 12/24/2017 21:15:00 0.0123
2017_12_24_S4 12/24/2017 21:20:00 0.1347
2017_12_24_S4 12/24/2017 21:25:00 0.0066
2017_12_24_S4 12/24/2017 21:30:00 0.0
2017_12_24_S4 12/24/2017 21:35:00 0.0045
2017_12_24_S4 12/24/2017 21:40:00 0.0162
2017_12_24_S4 12/24/2017 21:45:00 0.1411
2017_12_24_S4 12/24/2017 21:50:00 0.0422
2017_12_24_S4 12/24/2017 21:55:00 0.1058
2017_12_24_S4 12/24/2017 22:00:00 0.2989
2017_12_24_S4 12/24/2017 22:05:00 0.0932
2017_12_24_S4 12/24/2017 22:10:00 0.0325
2017_12_24_S4 12/24/2017 22:15:00 0.0166
2017_12_24_S4 12/24/2017 22:20:00 0.0018
2017_12_24_S4 12/24/2017 22:25:00 0.1842
2017_12_24_S4 12/24/2017 22:30:00 0.2199
2017_12_24_S4 12/24/2017 22:35:00 0.0247
2017_12_24_S4 12/24/2017 22:40:00 0.049
2017_12_24_S4 12/24/2017 22:45:00 0.061
2017_12_24_S4 12/24/2017 22:50:00 0.0654
2017_12_24_S4 12/24/2017 22:55:00 0.0404
2017_12_24_S4 12/24/2017 23:00:00 0.0723
2017_12_24_S4 12/24/2017 23:05:00 0.1335
2017_12_24_S4 12/24/2017 23:10:00 0.0669
2017_12_24_S4 12/24/2017 23:15:00 0.1995
2017_12_24_S4 12/24/2017 23:20:00 0.1324
2017_12_24_S4 12/24/2017 23:25:00 0.1183
2017_12_24_S4 12/24/2017 23:30:00 0.2594
2017_12_24_S4 12/24/2017 23:35:00 0.0272
2017_12_24_S4 12/24/2017 23:40:00 0.0057
2017_12_24_S4 12/24/2017 23:45:00 0.0095
2017_12_24_S4 12/24/2017 23:50:00 0.0
2017_12_24_S4 12/24/2017 23:55:00 0.0
2017_12_24_S4 12/25/2017 00:00:00 0.0
2017_12_24_S4 12/25/2017 00:05:00 0.0
2017_12_24_S4 12/25/2017 00:10:00 0.0082
2017_12_24_S4 12/25/2017 00:15:00 0.0211
2017_12_24_S4 12/25/2017 00:20:00 0.3277
2017_12_24_S4 12/25/2017 00:25:00 0.0
2017_12_24_S4 12/25/2017 00:30:00 0.0
2017_12_24_S4 12/25/2017 00:35:00 0.0
2017_12_24_S4 12/25/2017 00:40:00 0.0
2017_12_24_S4 12/25/2017 00:45:00 0.0
2017_12_24_S4 12/25/2017 00:50:00 0.0
2017_12_24_S4 12/25/2017 00:55:00 0.0
2017_12_24_S4 12/25/2017 01:00:00 0.0
2017_12_24_S4 12/25/2017 01:05:00 0.0
2017_12_24_S4 12/25/2017 01:10:00 0.0111
2017_12_24_S4 12/25/2017 01:15:00 0.0354
2017_12_24_S4 12/25/2017 01:20:00 0.0
2017_12_24_S4 12/25/2017 01:25:00 0.0
2017_12_24_S4 12/25/2017 01:30:00 0.0
2017_12_24_S4 12/25/2017 01:35:00 0.0
2017_12_24_S4 12/25/2017 01:40:00 0.0
2017_12_24_S4 12/25/2017 01:45:00 0.0
2017_12_24_S4 12/25/2017 01:50:00 0.0013
2017_12_24_S4 12/25/2017 01:55:00 0.0164
2017_12_24_S4 12/25/2017 02:00:00 0.2766
2017_12_24_S4 12/25/2017 02:05:00 0.1199
2017_12_24_S4 12/25/2017 02:10:00 0.0
2017_12_24_S4 12/25/2017 02:15:00 0.0
2017_12_24_S4 12/25/2017 02:20:00 0.0047
2017_12_24_S4 12/25/2017 02:25:00 0.1687
2017_12_24_S4 12/25/2017 02:30:00 0.0
2017_12_24_S4 12/25/2017 02:35:00 0.0
2017_12_24_S4 12/25/2017 02:40:00 0.0
2017_12_24_S4 12/25/2017 02:45:00 0.0
2017_12_24_S4 12/25/2017 02:50:00 0.0
2017_12_24_S4 12/25/2017 02:55:00 0.0
2017_12_24_S4 12/25/2017 03:00:00 0.001
2017_12_24_S4 12/25/2017 03:05:00 0.0
2017_12_24_S4 12/25/2017 03:10:00 0.0
2017_12_24_S4 12/25/2017 03:15:00 0.0
2017_12_24_S4 12/25/2017 03:20:00 0.0
2017_12_24_S4 12/25/2017 03:25:00 0.1223
2017_12_24_S4 12/25/2017 03:30:00 0.0949
2017_12_24_S4 12/25/2017 03:35:00 0.0
2017_12_24_S4 12/25/2017 03:40:00 0.0
2017_12_24_S4 12/25/2017 03:45:00 0.0
2017_12_24_S4 12/25/2017 03:50:00 0.0
2017_12_24_S4 12/25/2017 03:55:00 0.0
2017_12_24_S4 12/25/2017 04:00:00 0.0
2017_12_24_S4 12/25/2017 04:05:00 0.0
2017_12_24_S4 12/25/2017 04:10:00 0.0
2017_12_24_S4 12/25/2017 04:15:00 0.0
2017_12_24_S4 12/25/2017 04:20:00 0.0
2017_12_24_S4 12/25/2017 04:25:00 0.0
2017_12_24_S4 12/25/2017 04:30:00 0.0
2017_12_24_S4 12/25/2017 04:35:00 0.0
2017_12_24_S4 12/25/2017 04:40:00 0.0
2017_12_24_S4 12/25/2017 04:45:00 0.0
2017_12_24_S4 12/25/2017 04:50:00 0.4864
2017_12_24_S4 12/25/2017 04:55:00 0.6769
2017_12_24_S4 12/25/2017 05:00:00 0.4743
2017_12_24_S4 12/25/2017 05:05:00 0.1902
2017_12_24_S4 12/25/2017 05:10:00 0.0
2017_12_24_S4 12/25/2017 05:15:00 0.0
2017_12_24_S4 12/25/2017 05:20:00 0.0
2017_12_24_S4 12/25/2017 05:25:00 0.0762
2017_12_24_S4 12/25/2017 05:30:00 0.1248
2017_12_24_S4 12/25/2017 05:35:00 0.2731
2017_12_24_S4 12/25/2017 05:40:00 2.1208
2017_12_24_S4 12/25/2017 05:45:00 0.0634
2017_12_24_S4 12/25/2017 05:50:00 0.1718
2017_12_24_S4 12/25/2017 05:55:00 0.0002
2017_12_24_S4 12/25/2017 06:00:00 0.3026
2017_12_24_S4 12/25/2017 06:05:00 0.4039
2017_12_24_S4 12/25/2017 06:10:00 0.0401
2017_12_24_S4 12/25/2017 06:15:00 0.0001
2017_12_24_S4 12/25/2017 06:20:00 0.0
2017_12_24_S4 12/25/2017 06:25:00 0.0
2017_12_24_S4 12/25/2017 06:30:00 0.0
2017_12_24_S4 12/25/2017 06:35:00 0.0
2017_12_24_S4 12/25/2017 06:40:00 0.0
2017_12_24_S4 12/25/2017 06:45:00 0.0
2017_12_24_S4 12/25/2017 06:50:00 0.0
2017_12_24_S4 12/25/2017 06:55:00 0.0
2017_12_24_S4 12/25/2017 07:00:00 0.0
2017_12_24_S4 12/25/2017 07:05:00 0.0
2017_12_24_S4 12/25/2017 07:10:00 0.0
2017_12_24_S4 12/25/2017 07:15:00 0.0
2017_12_24_S4 12/25/2017 07:20:00 0.0
2017_12_24_S4 12/25/2017 07:25:00 0.0
2017_12_24_S4 12/25/2017 07:30:00 0.0
2017_12_24_S4 12/25/2017 07:35:00 0.0
2017_12_24_S4 12/25/2017 07:40:00 0.0
2017_12_24_S4 12/25/2017 07:45:00 0.0
2017_12_24_S4 12/25/2017 07:50:00 0.0
2017_12_24_S4 12/25/2017 07:55:00 0.0
2017_12_24_S4 12/25/2017 08:00:00 0.0

2017_12_24_S5 12/24/2017 12:10:00 0.0373
2017_12_24_S5 12/24/2017 12:15:00 0.5256
2017_12_24_S5 12/24/2017 12:20:00 6.5356
2017_12_24_S5 12/24/2017 12:25:00 1.8874
2017_12_24_S5 12/24/2017 12:30:00 3.4983
2017_12_24_S5 12/24/2017 12:35:00 0.5746
2017_12_24_S5 12/24/2017 12:40:00 1.0286
2017_12_24_S5 12/24/2017 12:45:00 0.3419
2017_12_24_S5 12/24/2017 12:50:00 0.2714
2017_12_24_S5 12/24/2017 12:55:00 0.2081
2017_12_24_S5 12/24/2017 13:00:00 0.0505
2017_12_24_S5 12/24/2017 13:05:00 0.012
2017_12_24_S5 12/24/2017 13:10:00 0.0183
2017_12_24_S5 12/24/2017 13:15:00 0.0382
2017_12_24_S5 12/24/2017 13:20:00 0.0412
2017_12_24_S5 12/24/2017 13:25:00 0.0302
2017_12_24_S5 12/24/2017 13:30:00 0.0472
2017_12_24_S5 12/24/2017 13:35:00 0.008
2017_12_24_S5 12/24/2017 13:40:00 0.0057
2017_12_24_S5 12/24/2017 13:45:00 0.0028
2017_12_24_S5 12/24/2017 13:50:00 0.0
2017_12_24_S5 12/24/2017 13:55:00 0.0
2017_12_24_S5 12/24/2017 14:00:00 0.0
2017_12_24_S5 12/24/2017 14:05:00 0.0
2017_12_24_S5 12/24/2017 14:10:00 0.0
2017_12_24_S5 12/24/2017 14:15:00 0.0
2017_12_24_S5 12/24/2017 14:20:00 0.0
2017_12_24_S5 12/24/2017 14:25:00 0.0
2017_12_24_S5 12/24/2017 14:30:00 0.0
2017_12_24_S5 12/24/2017 14:35:00 0.0
2017_12_24_S5 12/24/2017 14:40:00 0.0
2017_12_24_S5 12/24/2017 14:45:00 0.0
2017_12_24_S5 12/24/2017 14:50:00 0.0
2017_12_24_S5 12/24/2017 14:55:00 0.0
2017_12_24_S5 12/24/2017 15:00:00 0.0
2017_12_24_S5 12/24/2017 15:05:00 0.0
2017_12_24_S5 12/24/2017 15:10:00 0.0027
2017_12_24_S5 12/24/2017 15:15:00 0.0054
2017_12_24_S5 12/24/2017 15:20:00 0.0085
2017_12_24_S5 12/24/2017 15:25:00 0.0478
2017_12_24_S5 12/24/2017 15:30:00 0.08
2017_12_24_S5 12/24/2017 15:35:00 0.9788
2017_12_24_S5 12/24/2017 15:40:00 0.1306
2017_12_24_S5 12/24/2017 15:45:00 0.0012
2017_12_24_S5 12/24/2017 15:50:00 0.0
2017_12_24_S5 12/24/2017 15:55:00 0.0744
2017_12_24_S5 12/24/2017 16:00:00 0.9158
2017_12_24_S5 12/24/2017 16:05:00 0.2733
2017_12_24_S5 12/24/2017 16:10:00 0.0
2017_12_24_S5 12/24/2017 16:15:00 0.0
2017_12_24_S5 12/24/2017 16:20:00 0.24
2017_12_24_S5 12/24/2017 16:25:00 0.0626
2017_12_24_S5 12/24/2017 16:30:00 0.0353
2017_12_24_S5 12/24/2017 16:35:00 0.0486
2017_12_24_S5 12/24/2017 16:40:00 0.0573
2017_12_24_S5 12/24/2017 16:45:00 0.0385
2017_12_24_S5 12/24/2017 16:50:00 0.0197
2017_12_24_S5 12/24/2017 16:55:00 0.0728
2017_12_24_S5 12/24/2017 17:00:00 0.0129
2017_12_24_S5 12/24/2017 17:05:00 0.0
2017_12_24_S5 12/24/2017 17:10:00 0.0526
2017_12_24_S5 12/24/2017 17:15:00 0.1338
2017_12_24_S5 12/24/2017 17:20:00 0.0241
2017_12_24_S5 12/24/2017 17:25:00 0.0376
2017_12_24_S5 12/24/2017 17:30:00 0.0468
2017_12_24_S5 12/24/2017 17:35:00 0.153
2017_12_24_S5 12/24/2017 17:40:00 0.1462
2017_12_24_S5 12/24/2017 17:45:00 0.0249
2017_12_24_S5 12/24/2017 17:50:00 0.0071
2017_12_24_S5 12/24/2017 17:55:00 0.0139
2017_12_24_S5 12/24/2017 18:00:00 0.0268
2017_12_24_S5 12/24/2017 18:05:00 0.0256
2017_12_24_S5 12/24/2017 18:10:00 0.3596
2017_12_24_S5 12/24/2017 18:15:00 0.1389
2017_12_24_S5 12/24/2017 18:20:00 0.0095
2017_12_24_S5 12/24/2017 18:25:00 0.0
2017_12_24_S5 12/24/2017 18:30:00 0.001
2017_12_24_S5 12/24/2017 18:35:00 0.003
2017_12_24_S5 12/24/2017 18:40:00 0.0558
2017_12_24_S5 12/24/2017 18:45:00 0.0021
2017_12_24_S5 12/24/2017 18:50:00 0.0
2017_12_24_S5 12/24/2017 18:55:00 0.0
2017_12_24_S5 12/24/2017 19:00:00 0.0124
2017_12_24_S5 12/24/2017 19:05:00 0.0414
2017_12_24_S5 12/24/2017 19:10:00 0.1182
2017_12_24_S5 12/24/2017 19:15:00 0.1
2017_12_24_S5 12/24/2017 19:20:00 0.0305
2017_12_24_S5 12/24/2017 19:25:00 0.0097
2017_12_24_S5 12/24/2017 19:30:00 0.0
2017_12_24_S5 12/24/2017 19:35:00 0.0109
2017_12_24_S5 12/24/2017 19:40:00 0.0122
2017_12_24_S5 12/24/2017 19:45:00 0.0
2017_12_24_S5 12/24/2017 19:50:00 0.0127
2017_12_24_S5 12/24/2017 19:55:00 0.0916
2017_12_24_S5 12/24/2017 20:00:00 0.0859
2017_12_24_S5 12/24/2017 20:05:00 0.0682
2017_12_24_S5 12/24/2017 20:10:00 0.007
2017_12_24_S5 12/24/2017 20:15:00 0.0
2017_12_24_S5 12/24/2017 20:20:00 0.0077
2017_12_24_S5 12/24/2017 20:25:00 0.0089
2017_12_24_S5 12/24/2017 20:30:00 0.0438
2017_12_24_S5 12/24/2017 20:35:00 0.0068
2017_12_24_S5 12/24/2017 20:40:00 0.0061
2017_12_24_S5 12/24/2017 20:45:00 0.0058
2017_12_24_S5 12/24/2017 20:50:00 0.0162
2017_12_24_S5 12/24/2017 20:55:00 0.0381
2017_12_24_S5 12/24/2017 21:00:00 0.0434
2017_12_24_S5 12/24/2017 21:05:00 0.0315
2017_12_24_S5 12/24/2017 21:10:00 0.0216
2017_12_24_S5 12/24/2017 21:15:00 0.0116
2017_12_24_S5 12/24/2017 21:20:00 0.1416
2017_12_24_S5 12/24/2017 21:25:00 0.0081
2017_12_24_S5 12/24/2017 21:30:00 0.0
2017_12_24_S5 12/24/2017 21:35:00 0.0034
2017_12_24_S5 12/24/2017 21:40:00 0.0148
2017_12_24_S5 12/24/2017 21:45:00 0.1751
2017_12_24_S5 12/24/2017 21:50:00 0.0536
2017_12_24_S5 12/24/2017 21:55:00 0.1261
2017_12_24_S5 12/24/2017 22:00:00 0.2874
2017_12_24_S5 12/24/2017 22:05:00 0.0546
2017_12_24_S5 12/24/2017 22:10:00 0.0348
2017_12_24_S5 12/24/2017 22:15:00 0.0161
2017_12_24_S5 12/24/2017 22:20:00 0.0
2017_12_24_S5 12/24/2017 22:25:00 0.1609
2017_12_24_S5 12/24/2017 22:30:00 0.252
2017_12_24_S5 12/24/2017 22:35:00 0.0252
2017_12_24_S5 12/24/2017 22:40:00 0.0459
2017_12_24_S5 12/24/2017 22:45:00 0.1049
2017_12_24_S5 12/24/2017 22:50:00 0.0722
2017_12_24_S5 12/24/2017 22:55:00 0.0409
2017_12_24_S5 12/24/2017 23:00:00 0.0724
2017_12_24_S5 12/24/2017 23:05:00 0.1258
2017_12_24_S5 12/24/2017 23:10:00 0.063
2017_12_24_S5 12/24/2017 23:15:00 0.1932
2017_12_24_S5 12/24/2017 23:20:00 0.1214
2017_12_24_S5 12/24/2017 23:25:00 0.1068
2017_12_24_S5 12/24/2017 23:30:00 0.2736
2017_12_24_S5 12/24/2017 23:35:00 0.0292
2017_12_24_S5 12/24/2017 23:40:00 0.0058
2017_12_24_S5 12/24/2017 23:45:00 0.0092
2017_12_24_S5 12/24/2017 23:50:00 0.0
2017_12_24_S5 12/24/2017 23:55:00 0.0
2017_12_24_S5 12/25/2017 00:00:00 0.0
2017_12_24_S5 12/25/2017 00:05:00 0.0
2017_12_24_S5 12/25/2017 00:10:00 0.0001
2017_12_24_S5 12/25/2017 00:15:00 0.0167
2017_12_24_S5 12/25/2017 00:20:00 0.3312
2017_12_24_S5 12/25/2017 00:25:00 0.0
2017_12_24_S5 12/25/2017 00:30:00 0.0
2017_12_24_S5 12/25/2017 00:35:00 0.0
2017_12_24_S5 12/25/2017 00:40:00 0.0
2017_12_24_S5 12/25/2017 00:45:00 0.0
2017_12_24_S5 12/25/2017 00:50:00 0.0
2017_12_24_S5 12/25/2017 00:55:00 0.0
2017_12_24_S5 12/25/2017 01:00:00 0.0
2017_12_24_S5 12/25/2017 01:05:00 0.0
2017_12_24_S5 12/25/2017 01:10:00 0.0103
2017_12_24_S5 12/25/2017 01:15:00 0.0376
2017_12_24_S5 12/25/2017 01:20:00 0.0
2017_12_24_S5 12/25/2017 01:25:00 0.0
2017_12_24_S5 12/25/2017 01:30:00 0.0
2017_12_24_S5 12/25/2017 01:35:00 0.0
2017_12_24_S5 12/25/2017 01:40:00 0.0
2017_12_24_S5 12/25/2017 01:45:00 0.0
2017_12_24_S5 12/25/2017 01:50:00 0.0012
2017_12_24_S5 12/25/2017 01:55:00 0.0155
2017_12_24_S5 12/25/2017 02:00:00 0.2637
2017_12_24_S5 12/25/2017 02:05:00 0.1594
2017_12_24_S5 12/25/2017 02:10:00 0.0
2017_12_24_S5 12/25/2017 02:15:00 0.0
2017_12_24_S5 12/25/2017 02:20:00 0.0084
2017_12_24_S5 12/25/2017 02:25:00 0.1756
2017_12_24_S5 12/25/2017 02:30:00 0.0
2017_12_24_S5 12/25/2017 02:35:00 0.0
2017_12_24_S5 12/25/2017 02:40:00 0.0
2017_12_24_S5 12/25/2017 02:45:00 0.0
2017_12_24_S5 12/25/2017 02:50:00 0.0
2017_12_24_S5 12/25/2017 02:55:00 0.0
2017_12_24_S5 12/25/2017 03:00:00 0.0
2017_12_24_S5 12/25/2017 03:05:00 0.0
2017_12_24_S5 12/25/2017 03:10:00 0.0
2017_12_24_S5 12/25/2017 03:15:00 0.0
2017_12_24_S5 12/25/2017 03:20:00 0.0
2017_12_24_S5 12/25/2017 03:25:00 0.0879
2017_12_24_S5 12/25/2017 03:30:00 0.1166
2017_12_24_S5 12/25/2017 03:35:00 0.0
2017_12_24_S5 12/25/2017 03:40:00 0.0
2017_12_24_S5 12/25/2017 03:45:00 0.0
2017_12_24_S5 12/25/2017 03:50:00 0.0
2017_12_24_S5 12/25/2017 03:55:00 0.0
2017_12_24_S5 12/25/2017 04:00:00 0.0
2017_12_24_S5 12/25/2017 04:05:00 0.0
2017_12_24_S5 12/25/2017 04:10:00 0.0
2017_12_24_S5 12/25/2017 04:15:00 0.0
2017_12_24_S5 12/25/2017 04:20:00 0.0
2017_12_24_S5 12/25/2017 04:25:00 0.0
2017_12_24_S5 12/25/2017 04:30:00 0.0
2017_12_24_S5 12/25/2017 04:35:00 0.0
2017_12_24_S5 12/25/2017 04:40:00 0.0
2017_12_24_S5 12/25/2017 04:45:00 0.0
2017_12_24_S5 12/25/2017 04:50:00 0.3949
2017_12_24_S5 12/25/2017 04:55:00 0.6171
2017_12_24_S5 12/25/2017 05:00:00 0.5359
2017_12_24_S5 12/25/2017 05:05:00 0.1966
2017_12_24_S5 12/25/2017 05:10:00 0.0
2017_12_24_S5 12/25/2017 05:15:00 0.0
2017_12_24_S5 12/25/2017 05:20:00 0.001
2017_12_24_S5 12/25/2017 05:25:00 0.0745
2017_12_24_S5 12/25/2017 05:30:00 0.0853
2017_12_24_S5 12/25/2017 05:35:00 0.2425
2017_12_24_S5 12/25/2017 05:40:00 1.7184
2017_12_24_S5 12/25/2017 05:45:00 0.0608
2017_12_24_S5 12/25/2017 05:50:00 0.2105
2017_12_24_S5 12/25/2017 05:55:00 0.0
2017_12_24_S5 12/25/2017 06:00:00 0.294
2017_12_24_S5 12/25/2017 06:05:00 0.4453
2017_12_24_S5 12/25/2017 06:10:00 0.045
2017_12_24_S5 12/25/2017 06:15:00 0.0
2017_12_24_S5 12/25/2017 06:20:00 0.0
2017_12_24_S5 12/25/2017 06:25:00 0.0
2017_12_24_S5 12/25/2017 06:30:00 0.0
2017_12_24_S5 12/25/2017 06:35:00 0.0
2017_12_24_S5 12/25/2017 06:40:00 0.0
2017_12_24_S5 12/25/2017 06:45:00 0.0
2017_12_24_S5 12/25/2017 06:50:00 0.0
2017_12_24_S5 12/25/2017 06:55:00 0.0
2017_12_24_S5 12/25/2017 07:00:00 0.0
2017_12_24_S5 12/25/2017 07:05:00 0.0
2017_12_24_S5 12/25/2017 07:10:00 0.0
2017_12_24_S5 12/25/2017 07:15:00 0.0
2017_12_24_S5 12/25/2017 07:20:00 0.0
2017_12_24_S5 12/25/2017 07:25:00 0.0
2017_12_24_S5 12/25/2017 07:30:00 0.0
2017_12_24_S5 12/25/2017 07:35:00 0.0
2017_12_24_S5 12/25/2017 07:40:00 0.0
2017_12_24_S5 12/25/2017 07:45:00 0.0
2017_12_24_S5 12/25/2017 07:50:00 0.0
2017_12_24_S5 12/25/2017 07:55:00 0.0
2017_12_24_S5 12/25/2017 08:00:00 0.0

2017_12_24_S6 12/24/2017 12:10:00 0.0864
2017_12_24_S6 12/24/2017 12:15:00 2.4391
2017_12_24_S6 12/24/2017 12:20:00 4.196
2017_12_24_S6 12/24/2017 12:25:00 1.2578
2017_12_24_S6 12/24/2017 12:30:00 3.2927
2017_12_24_S6 12/24/2017 12:35:00 0.6079
2017_12_24_S6 12/24/2017 12:40:00 1.1505
2017_12_24_S6 12/24/2017 12:45:00 0.3191
2017_12_24_S6 12/24/2017 12:50:00 0.2693
2017_12_24_S6 12/24/2017 12:55:00 0.1483
2017_12_24_S6 12/24/2017 13:00:00 0.0309
2017_12_24_S6 12/24/2017 13:05:00 0.0111
2017_12_24_S6 12/24/2017 13:10:00 0.0213
2017_12_24_S6 12/24/2017 13:15:00 0.0817
2017_12_24_S6 12/24/2017 13:20:00 0.0947
2017_12_24_S6 12/24/2017 13:25:00 0.0258
2017_12_24_S6 12/24/2017 13:30:00 0.0303
2017_12_24_S6 12/24/2017 13:35:00 0.0108
2017_12_24_S6 12/24/2017 13:40:00 0.0014
2017_12_24_S6 12/24/2017 13:45:00 0.0007
2017_12_24_S6 12/24/2017 13:50:00 0.0
2017_12_24_S6 12/24/2017 13:55:00 0.0
2017_12_24_S6 12/24/2017 14:00:00 0.0
2017_12_24_S6 12/24/2017 14:05:00 0.0
2017_12_24_S6 12/24/2017 14:10:00 0.0
2017_12_24_S6 12/24/2017 14:15:00 0.0
2017_12_24_S6 12/24/2017 14:20:00 0.0
2017_12_24_S6 12/24/2017 14:25:00 0.0
2017_12_24_S6 12/24/2017 14:30:00 0.0
2017_12_24_S6 12/24/2017 14:35:00 0.0
2017_12_24_S6 12/24/2017 14:40:00 0.0
2017_12_24_S6 12/24/2017 14:45:00 0.0
2017_12_24_S6 12/24/2017 14:50:00 0.0
2017_12_24_S6 12/24/2017 14:55:00 0.0
2017_12_24_S6 12/24/2017 15:00:00 0.0
2017_12_24_S6 12/24/2017 15:05:00 0.0
2017_12_24_S6 12/24/2017 15:10:00 0.0044
2017_12_24_S6 12/24/2017 15:15:00 0.0057
2017_12_24_S6 12/24/2017 15:20:00 0.0151
2017_12_24_S6 12/24/2017 15:25:00 0.0499
2017_12_24_S6 12/24/2017 15:30:00 0.1623
2017_12_24_S6 12/24/2017 15:35:00 1.122
2017_12_24_S6 12/24/2017 15:40:00 0.087
2017_12_24_S6 12/24/2017 15:45:00 0.0004
2017_12_24_S6 12/24/2017 15:50:00 0.0068
2017_12_24_S6 12/24/2017 15:55:00 0.1208
2017_12_24_S6 12/24/2017 16:00:00 0.9523
2017_12_24_S6 12/24/2017 16:05:00 0.1583
2017_12_24_S6 12/24/2017 16:10:00 0.0
2017_12_24_S6 12/24/2017 16:15:00 0.0
2017_12_24_S6 12/24/2017 16:20:00 0.2062
2017_12_24_S6 12/24/2017 16:25:00 0.0583
2017_12_24_S6 12/24/2017 16:30:00 0.0387
2017_12_24_S6 12/24/2017 16:35:00 0.0419
2017_12_24_S6 12/24/2017 16:40:00 0.0409
2017_12_24_S6 12/24/2017 16:45:00 0.0341
2017_12_24_S6 12/24/2017 16:50:00 0.0273
2017_12_24_S6 12/24/2017 16:55:00 0.041
2017_12_24_S6 12/24/2017 17:00:00 0.0025
2017_12_24_S6 12/24/2017 17:05:00 0.0
2017_12_24_S6 12/24/2017 17:10:00 0.0504
2017_12_24_S6 12/24/2017 17:15:00 0.1489
2017_12_24_S6 12/24/2017 17:20:00 0.0366
2017_12_24_S6 12/24/2017 17:25:00 0.0373
2017_12_24_S6 12/24/2017 17:30:00 0.0899
2017_12_24_S6 12/24/2017 17:35:00 0.0693
2017_12_24_S6 12/24/2017 17:40:00 0.1161
2017_12_24_S6 12/24/2017 17:45:00 0.0174
2017_12_24_S6 12/24/2017 17:50:00 0.0093
2017_12_24_S6 12/24/2017 17:55:00 0.0163
2017_12_24_S6 12/24/2017 18:00:00 0.0356
2017_12_24_S6 12/24/2017 18:05:00 0.0398
2017_12_24_S6 12/24/2017 18:10:00 0.1659
2017_12_24_S6 12/24/2017 18:15:00 0.0361
2017_12_24_S6 12/24/2017 18:20:00 0.0121
2017_12_24_S6 12/24/2017 18:25:00 0.0
2017_12_24_S6 12/24/2017 18:30:00 0.0011
2017_12_24_S6 12/24/2017 18:35:00 0.0067
2017_12_24_S6 12/24/2017 18:40:00 0.0348
2017_12_24_S6 12/24/2017 18:45:00 0.0002
2017_12_24_S6 12/24/2017 18:50:00 0.0
2017_12_24_S6 12/24/2017 18:55:00 0.0
2017_12_24_S6 12/24/2017 19:00:00 0.0088
2017_12_24_S6 12/24/2017 19:05:00 0.065
2017_12_24_S6 12/24/2017 19:10:00 0.1471
2017_12_24_S6 12/24/2017 19:15:00 0.0782
2017_12_24_S6 12/24/2017 19:20:00 0.0287
2017_12_24_S6 12/24/2017 19:25:00 0.0079
2017_12_24_S6 12/24/2017 19:30:00 0.0
2017_12_24_S6 12/24/2017 19:35:00 0.0112
2017_12_24_S6 12/24/2017 19:40:00 0.0095
2017_12_24_S6 12/24/2017 19:45:00 0.0
2017_12_24_S6 12/24/2017 19:50:00 0.0234
2017_12_24_S6 12/24/2017 19:55:00 0.1058
2017_12_24_S6 12/24/2017 20:00:00 0.0852
2017_12_24_S6 12/24/2017 20:05:00 0.094
2017_12_24_S6 12/24/2017 20:10:00 0.007
2017_12_24_S6 12/24/2017 20:15:00 0.0042
2017_12_24_S6 12/24/2017 20:20:00 0.0127
2017_12_24_S6 12/24/2017 20:25:00 0.0131
2017_12_24_S6 12/24/2017 20:30:00 0.0294
2017_12_24_S6 12/24/2017 20:35:00 0.0063
2017_12_24_S6 12/24/2017 20:40:00 0.0044
2017_12_24_S6 12/24/2017 20:45:00 0.0058
2017_12_24_S6 12/24/2017 20:50:00 0.0311
2017_12_24_S6 12/24/2017 20:55:00 0.0495
2017_12_24_S6 12/24/2017 21:00:00 0.042
2017_12_24_S6 12/24/2017 21:05:00 0.0365
2017_12_24_S6 12/24/2017 21:10:00 0.0252
2017_12_24_S6 12/24/2017 21:15:00 0.0139
2017_12_24_S6 12/24/2017 21:20:00 0.1149
2017_12_24_S6 12/24/2017 21:25:00 0.0026
2017_12_24_S6 12/24/2017 21:30:00 0.0
2017_12_24_S6 12/24/2017 21:35:00 0.0035
2017_12_24_S6 12/24/2017 21:40:00 0.0101
2017_12_24_S6 12/24/2017 21:45:00 0.0946
2017_12_24_S6 12/24/2017 21:50:00 0.035
2017_12_24_S6 12/24/2017 21:55:00 0.1234
2017_12_24_S6 12/24/2017 22:00:00 0.2556
2017_12_24_S6 12/24/2017 22:05:00 0.121
2017_12_24_S6 12/24/2017 22:10:00 0.0294
2017_12_24_S6 12/24/2017 22:15:00 0.0072
2017_12_24_S6 12/24/2017 22:20:00 0.0056
2017_12_24_S6 12/24/2017 22:25:00 0.2448
2017_12_24_S6 12/24/2017 22:30:00 0.1402
2017_12_24_S6 12/24/2017 22:35:00 0.0207
2017_12_24_S6 12/24/2017 22:40:00 0.0918
2017_12_24_S6 12/24/2017 22:45:00 0.099
2017_12_24_S6 12/24/2017 22:50:00 0.0564
2017_12_24_S6 12/24/2017 22:55:00 0.0352
2017_12_24_S6 12/24/2017 23:00:00 0.0856
2017_12_24_S6 12/24/2017 23:05:00 0.167
2017_12_24_S6 12/24/2017 23:10:00 0.086
2017_12_24_S6 12/24/2017 23:15:00 0.1494
2017_12_24_S6 12/24/2017 23:20:00 0.0878
2017_12_24_S6 12/24/2017 23:25:00 0.1193
2017_12_24_S6 12/24/2017 23:30:00 0.1897
2017_12_24_S6 12/24/2017 23:35:00 0.0146
2017_12_24_S6 12/24/2017 23:40:00 0.0079
2017_12_24_S6 12/24/2017 23:45:00 0.0093
2017_12_24_S6 12/24/2017 23:50:00 0.0
2017_12_24_S6 12/24/2017 23:55:00 0.0
2017_12_24_S6 12/25/2017 00:00:00 0.0
2017_12_24_S6 12/25/2017 00:05:00 0.0
2017_12_24_S6 12/25/2017 00:10:00 0.0305
2017_12_24_S6 12/25/2017 00:15:00 0.0504
2017_12_24_S6 12/25/2017 00:20:00 0.2423
2017_12_24_S6 12/25/2017 00:25:00 0.0
2017_12_24_S6 12/25/2017 00:30:00 0.0
2017_12_24_S6 12/25/2017 00:35:00 0.0
2017_12_24_S6 12/25/2017 00:40:00 0.0
2017_12_24_S6 12/25/2017 00:45:00 0.0
2017_12_24_S6 12/25/2017 00:50:00 0.0
2017_12_24_S6 12/25/2017 00:55:00 0.0
2017_12_24_S6 12/25/2017 01:00:00 0.0
2017_12_24_S6 12/25/2017 01:05:00 0.0
2017_12_24_S6 12/25/2017 01:10:00 0.0256
2017_12_24_S6 12/25/2017 01:15:00 0.0049
2017_12_24_S6 12/25/2017 01:20:00 0.0
2017_12_24_S6 12/25/2017 01:25:00 0.0
2017_12_24_S6 12/25/2017 01:30:00 0.0
2017_12_24_S6 12/25/2017 01:35:00 0.0
2017_12_24_S6 12/25/2017 01:40:00 0.0
2017_12_24_S6 12/25/2017 01:45:00 0.0
2017_12_24_S6 12/25/2017 01:50:00 0.0002
2017_12_24_S6 12/25/2017 01:55:00 0.0239
2017_12_24_S6 12/25/2017 02:00:00 0.4383
2017_12_24_S6 12/25/2017 02:05:00 0.1704
2017_12_24_S6 12/25/2017 02:10:00 0.0
2017_12_24_S6 12/25/2017 02:15:00 0.0
2017_12_24_S6 12/25/2017 02:20:00 0.0079
2017_12_24_S6 12/25/2017 02:25:00 0.0533
2017_12_24_S6 12/25/2017 02:30:00 0.0
2017_12_24_S6 12/25/2017 02:35:00 0.0
2017_12_24_S6 12/25/2017 02:40:00 0.0
2017_12_24_S6 12/25/2017 02:45:00 0.0
2017_12_24_S6 12/25/2017 02:50:00 0.0
2017_12_24_S6 12/25/2017 02:55:00 0.0028
2017_12_24_S6 12/25/2017 03:00:00 0.0
2017_12_24_S6 12/25/2017 03:05:00 0.0
2017_12_24_S6 12/25/2017 03:10:00 0.0
2017_12_24_S6 12/25/2017 03:15:00 0.0
2017_12_24_S6 12/25/2017 03:20:00 0.0
2017_12_24_S6 12/25/2017 03:25:00 0.2486
2017_12_24_S6 12/25/2017 03:30:00 0.1583
2017_12_24_S6 12/25/2017 03:35:00 0.0
2017_12_24_S6 12/25/2017 03:40:00 0.0
2017_12_24_S6 12/25/2017 03:45:00 0.0
2017_12_24_S6 12/25/2017 03:50:00 0.0
2017_12_24_S6 12/25/2017 03:55:00 0.0
2017_12_24_S6 12/25/2017 04:00:00 0.0
2017_12_24_S6 12/25/2017 04:05:00 0.0
2017_12_24_S6 12/25/2017 04:10:00 0.0
2017_12_24_S6 12/25/2017 04:15:00 0.0
2017_12_24_S6 12/25/2017 04:20:00 0.0
2017_12_24_S6 12/25/2017 04:25:00 0.0
2017_12_24_S6 12/25/2017 04:30:00 0.0
2017_12_24_S6 12/25/2017 04:35:00 0.0
2017_12_24_S6 12/25/2017 04:40:00 0.0
2017_12_24_S6 12/25/2017 04:45:00 0.0043
2017_12_24_S6 12/25/2017 04:50:00 0.4759
2017_12_24_S6 12/25/2017 04:55:00 0.6506
2017_12_24_S6 12/25/2017 05:00:00 0.3484
2017_12_24_S6 12/25/2017 05:05:00 0.2211
2017_12_24_S6 12/25/2017 05:10:00 0.0
2017_12_24_S6 12/25/2017 05:15:00 0.0
2017_12_24_S6 12/25/2017 05:20:00 0.0024
2017_12_24_S6 12/25/2017 05:25:00 0.1145
2017_12_24_S6 12/25/2017 05:30:00 0.0845
2017_12_24_S6 12/25/2017 05:35:00 0.0329
2017_12_24_S6 12/25/2017 05:40:00 2.2149
2017_12_24_S6 12/25/2017 05:45:00 0.0989
2017_12_24_S6 12/25/2017 05:50:00 0.1284
2017_12_24_S6 12/25/2017 05:55:00 0.006
2017_12_24_S6 12/25/2017 06:00:00 0.3339
2017_12_24_S6 12/25/2017 06:05:00 0.3113
2017_12_24_S6 12/25/2017 06:10:00 0.034
2017_12_24_S6 12/25/2017 06:15:00 0.0
2017_12_24_S6 12/25/2017 06:20:00 0.0
2017_12_24_S6 12/25/2017 06:25:00 0.0
2017_12_24_S6 12/25/2017 06:30:00 0.0
2017_12_24_S6 12/25/2017 06:35:00 0.0
2017_12_24_S6 12/25/2017 06:40:00 0.0
2017_12_24_S6 12/25/2017 06:45:00 0.0
2017_12_24_S6 12/25/2017 06:50:00 0.0
2017_12_24_S6 12/25/2017 06:55:00 0.0
2017_12_24_S6 12/25/2017 07:00:00 0.0
2017_12_24_S6 12/25/2017 07:05:00 0.0
2017_12_24_S6 12/25/2017 07:10:00 0.0
2017_12_24_S6 12/25/2017 07:15:00 0.0
2017_12_24_S6 12/25/2017 07:20:00 0.0
2017_12_24_S6 12/25/2017 07:25:00 0.0
2017_12_24_S6 12/25/2017 07:30:00 0.0
2017_12_24_S6 12/25/2017 07:35:00 0.0
2017_12_24_S6 12/25/2017 07:40:00 0.0
2017_12_24_S6 12/25/2017 07:45:00 0.0
2017_12_24_S6 12/25/2017 07:50:00 0.0
2017_12_24_S6 12/25/2017 07:55:00 0.0
2017_12_24_S6 12/25/2017 08:00:00 0.0

2017_12_24_S7 12/24/2017 12:10:00 0.0708
2017_12_24_S7 12/24/2017 12:15:00 1.1568
2017_12_24_S7 12/24/2017 12:20:00 4.8392
2017_12_24_S7 12/24/2017 12:25:00 2.4029
2017_12_24_S7 12/24/2017 12:30:00 5.4658
2017_12_24_S7 12/24/2017 12:35:00 0.8195
2017_12_24_S7 12/24/2017 12:40:00 1.7726
2017_12_24_S7 12/24/2017 12:45:00 0.5569
2017_12_24_S7 12/24/2017 12:50:00 0.4861
2017_12_24_S7 12/24/2017 12:55:00 0.4129
2017_12_24_S7 12/24/2017 13:00:00 0.0455
2017_12_24_S7 12/24/2017 13:05:00 0.0129
2017_12_24_S7 12/24/2017 13:10:00 0.0176
2017_12_24_S7 12/24/2017 13:15:00 0.078
2017_12_24_S7 12/24/2017 13:20:00 0.0696
2017_12_24_S7 12/24/2017 13:25:00 0.0582
2017_12_24_S7 12/24/2017 13:30:00 0.0474
2017_12_24_S7 12/24/2017 13:35:00 0.0134
2017_12_24_S7 12/24/2017 13:40:00 0.0022
2017_12_24_S7 12/24/2017 13:45:00 0.0011
2017_12_24_S7 12/24/2017 13:50:00 0.0
2017_12_24_S7 12/24/2017 13:55:00 0.0
2017_12_24_S7 12/24/2017 14:00:00 0.0
2017_12_24_S7 12/24/2017 14:05:00 0.0
2017_12_24_S7 12/24/2017 14:10:00 0.0
2017_12_24_S7 12/24/2017 14:15:00 0.0
2017_12_24_S7 12/24/2017 14:20:00 0.0
2017_12_24_S7 12/24/2017 14:25:00 0.0
2017_12_24_S7 12/24/2017 14:30:00 0.0
2017_12_24_S7 12/24/2017 14:35:00 0.0
2017_12_24_S7 12/24/2017 14:40:00 0.0
2017_12_24_S7 12/24/2017 14:45:00 0.0
2017_12_24_S7 12/24/2017 14:50:00 0.0
2017_12_24_S7 12/24/2017 14:55:00 0.0
2017_12_24_S7 12/24/2017 15:00:00 0.0
2017_12_24_S7 12/24/2017 15:05:00 0.0
2017_12_24_S7 12/24/2017 15:10:00 0.0126
2017_12_24_S7 12/24/2017 15:15:00 0.0045
2017_12_24_S7 12/24/2017 15:20:00 0.0091
2017_12_24_S7 12/24/2017 15:25:00 0.054
2017_12_24_S7 12/24/2017 15:30:00 0.1538
2017_12_24_S7 12/24/2017 15:35:00 1.1471
2017_12_24_S7 12/24/2017 15:40:00 0.1309
2017_12_24_S7 12/24/2017 15:45:00 0.0
2017_12_24_S7 12/24/2017 15:50:00 0.0049
2017_12_24_S7 12/24/2017 15:55:00 0.0935
2017_12_24_S7 12/24/2017 16:00:00 0.9327
2017_12_24_S7 12/24/2017 16:05:00 0.3201
2017_12_24_S7 12/24/2017 16:10:00 0.0
2017_12_24_S7 12/24/2017 16:15:00 0.0
2017_12_24_S7 12/24/2017 16:20:00 0.1578
2017_12_24_S7 12/24/2017 16:25:00 0.0617
2017_12_24_S7 12/24/2017 16:30:00 0.0303
2017_12_24_S7 12/24/2017 16:35:00 0.0572
2017_12_24_S7 12/24/2017 16:40:00 0.0418
2017_12_24_S7 12/24/2017 16:45:00 0.0325
2017_12_24_S7 12/24/2017 16:50:00 0.0232
2017_12_24_S7 12/24/2017 16:55:00 0.0372
2017_12_24_S7 12/24/2017 17:00:00 0.0031
2017_12_24_S7 12/24/2017 17:05:00 0.0
2017_12_24_S7 12/24/2017 17:10:00 0.0593
2017_12_24_S7 12/24/2017 17:15:00 0.1423
2017_12_24_S7 12/24/2017 17:20:00 0.0275
2017_12_24_S7 12/24/2017 17:25:00 0.0493
2017_12_24_S7 12/24/2017 17:30:00 0.0765
2017_12_24_S7 12/24/2017 17:35:00 0.0878
2017_12_24_S7 12/24/2017 17:40:00 0.1152
2017_12_24_S7 12/24/2017 17:45:00 0.0193
2017_12_24_S7 12/24/2017 17:50:00 0.0087
2017_12_24_S7 12/24/2017 17:55:00 0.0172
2017_12_24_S7 12/24/2017 18:00:00 0.0438
2017_12_24_S7 12/24/2017 18:05:00 0.0424
2017_12_24_S7 12/24/2017 18:10:00 0.2829
2017_12_24_S7 12/24/2017 18:15:00 0.0881
2017_12_24_S7 12/24/2017 18:20:00 0.0202
2017_12_24_S7 12/24/2017 18:25:00 0.0005
2017_12_24_S7 12/24/2017 18:30:00 0.0007
2017_12_24_S7 12/24/2017 18:35:00 0.0073
2017_12_24_S7 12/24/2017 18:40:00 0.0218
2017_12_24_S7 12/24/2017 18:45:00 0.0
2017_12_24_S7 12/24/2017 18:50:00 0.0
2017_12_24_S7 12/24/2017 18:55:00 0.0006
2017_12_24_S7 12/24/2017 19:00:00 0.0075
2017_12_24_S7 12/24/2017 19:05:00 0.0695
2017_12_24_S7 12/24/2017 19:10:00 0.1352
2017_12_24_S7 12/24/2017 19:15:00 0.0764
2017_12_24_S7 12/24/2017 19:20:00 0.0298
2017_12_24_S7 12/24/2017 19:25:00 0.008
2017_12_24_S7 12/24/2017 19:30:00 0.0
2017_12_24_S7 12/24/2017 19:35:00 0.012
2017_12_24_S7 12/24/2017 19:40:00 0.0187
2017_12_24_S7 12/24/2017 19:45:00 0.0
2017_12_24_S7 12/24/2017 19:50:00 0.0234
2017_12_24_S7 12/24/2017 19:55:00 0.12
2017_12_24_S7 12/24/2017 20:00:00 0.0858
2017_12_24_S7 12/24/2017 20:05:00 0.0852
2017_12_24_S7 12/24/2017 20:10:00 0.0106
2017_12_24_S7 12/24/2017 20:15:00 0.0028
2017_12_24_S7 12/24/2017 20:20:00 0.013
2017_12_24_S7 12/24/2017 20:25:00 0.0176
2017_12_24_S7 12/24/2017 20:30:00 0.0295
2017_12_24_S7 12/24/2017 20:35:00 0.0043
2017_12_24_S7 12/24/2017 20:40:00 0.0059
2017_12_24_S7 12/24/2017 20:45:00 0.0051
2017_12_24_S7 12/24/2017 20:50:00 0.0255
2017_12_24_S7 12/24/2017 20:55:00 0.0471
2017_12_24_S7 12/24/2017 21:00:00 0.0324
2017_12_24_S7 12/24/2017 21:05:00 0.0276
2017_12_24_S7 12/24/2017 21:10:00 0.021
2017_12_24_S7 12/24/2017 21:15:00 0.0144
2017_12_24_S7 12/24/2017 21:20:00 0.1214
2017_12_24_S7 12/24/2017 21:25:00 0.0007
2017_12_24_S7 12/24/2017 21:30:00 0.0
2017_12_24_S7 12/24/2017 21:35:00 0.0025
2017_12_24_S7 12/24/2017 21:40:00 0.0082
2017_12_24_S7 12/24/2017 21:45:00 0.1612
2017_12_24_S7 12/24/2017 21:50:00 0.0557
2017_12_24_S7 12/24/2017 21:55:00 0.1746
2017_12_24_S7 12/24/2017 22:00:00 0.2449
2017_12_24_S7 12/24/2017 22:05:00 0.0829
2017_12_24_S7 12/24/2017 22:10:00 0.0278
2017_12_24_S7 12/24/2017 22:15:00 0.0066
2017_12_24_S7 12/24/2017 22:20:00 0.0046
2017_12_24_S7 12/24/2017 22:25:00 0.2841
2017_12_24_S7 12/24/2017 22:30:00 0.1427
2017_12_24_S7 12/24/2017 22:35:00 0.0198
2017_12_24_S7 12/24/2017 22:40:00 0.1678
2017_12_24_S7 12/24/2017 22:45:00 0.137
2017_12_24_S7 12/24/2017 22:50:00 0.0695
2017_12_24_S7 12/24/2017 22:55:00 0.0414
2017_12_24_S7 12/24/2017 23:00:00 0.0791
2017_12_24_S7 12/24/2017 23:05:00 0.1629
2017_12_24_S7 12/24/2017 23:10:00 0.0886
2017_12_24_S7 12/24/2017 23:15:00 0.1274
2017_12_24_S7 12/24/2017 23:20:00 0.0723
2017_12_24_S7 12/24/2017 23:25:00 0.1065
2017_12_24_S7 12/24/2017 23:30:00 0.1791
2017_12_24_S7 12/24/2017 23:35:00 0.0128
2017_12_24_S7 12/24/2017 23:40:00 0.0087
2017_12_24_S7 12/24/2017 23:45:00 0.0094
2017_12_24_S7 12/24/2017 23:50:00 0.0
2017_12_24_S7 12/24/2017 23:55:00 0.0
2017_12_24_S7 12/25/2017 00:00:00 0.0
2017_12_24_S7 12/25/2017 00:05:00 0.0
2017_12_24_S7 12/25/2017 00:10:00 0.0129
2017_12_24_S7 12/25/2017 00:15:00 0.0574
2017_12_24_S7 12/25/2017 00:20:00 0.2094
2017_12_24_S7 12/25/2017 00:25:00 0.0
2017_12_24_S7 12/25/2017 00:30:00 0.0
2017_12_24_S7 12/25/2017 00:35:00 0.0
2017_12_24_S7 12/25/2017 00:40:00 0.0
2017_12_24_S7 12/25/2017 00:45:00 0.0
2017_12_24_S7 12/25/2017 00:50:00 0.0
2017_12_24_S7 12/25/2017 00:55:00 0.0
2017_12_24_S7 12/25/2017 01:00:00 0.0
2017_12_24_S7 12/25/2017 01:05:00 0.0
2017_12_24_S7 12/25/2017 01:10:00 0.0658
2017_12_24_S7 12/25/2017 01:15:00 0.0022
2017_12_24_S7 12/25/2017 01:20:00 0.0
2017_12_24_S7 12/25/2017 01:25:00 0.0
2017_12_24_S7 12/25/2017 01:30:00 0.0
2017_12_24_S7 12/25/2017 01:35:00 0.0
2017_12_24_S7 12/25/2017 01:40:00 0.0
2017_12_24_S7 12/25/2017 01:45:00 0.0
2017_12_24_S7 12/25/2017 01:50:00 0.0
2017_12_24_S7 12/25/2017 01:55:00 0.0202
2017_12_24_S7 12/25/2017 02:00:00 0.4144
2017_12_24_S7 12/25/2017 02:05:00 0.2099
2017_12_24_S7 12/25/2017 02:10:00 0.0
2017_12_24_S7 12/25/2017 02:15:00 0.0
2017_12_24_S7 12/25/2017 02:20:00 0.0213
2017_12_24_S7 12/25/2017 02:25:00 0.0195
2017_12_24_S7 12/25/2017 02:30:00 0.0
2017_12_24_S7 12/25/2017 02:35:00 0.0
2017_12_24_S7 12/25/2017 02:40:00 0.0
2017_12_24_S7 12/25/2017 02:45:00 0.0
2017_12_24_S7 12/25/2017 02:50:00 0.0
2017_12_24_S7 12/25/2017 02:55:00 0.0008
2017_12_24_S7 12/25/2017 03:00:00 0.0
2017_12_24_S7 12/25/2017 03:05:00 0.0
2017_12_24_S7 12/25/2017 03:10:00 0.0
2017_12_24_S7 12/25/2017 03:15:00 0.0
2017_12_24_S7 12/25/2017 03:20:00 0.0
2017_12_24_S7 12/25/2017 03:25:00 0.2313
2017_12_24_S7 12/25/2017 03:30:00 0.2098
2017_12_24_S7 12/25/2017 03:35:00 0.0
2017_12_24_S7 12/25/2017 03:40:00 0.0
2017_12_24_S7 12/25/2017 03:45:00 0.0
2017_12_24_S7 12/25/2017 03:50:00 0.0
2017_12_24_S7 12/25/2017 03:55:00 0.0
2017_12_24_S7 12/25/2017 04:00:00 0.0
2017_12_24_S7 12/25/2017 04:05:00 0.0
2017_12_24_S7 12/25/2017 04:10:00 0.0
2017_12_24_S7 12/25/2017 04:15:00 0.0
2017_12_24_S7 12/25/2017 04:20:00 0.0
2017_12_24_S7 12/25/2017 04:25:00 0.0
2017_12_24_S7 12/25/2017 04:30:00 0.0
2017_12_24_S7 12/25/2017 04:35:00 0.0
2017_12_24_S7 12/25/2017 04:40:00 0.0
2017_12_24_S7 12/25/2017 04:45:00 0.0017
2017_12_24_S7 12/25/2017 04:50:00 0.3732
2017_12_24_S7 12/25/2017 04:55:00 0.6461
2017_12_24_S7 12/25/2017 05:00:00 0.4927
2017_12_24_S7 12/25/2017 05:05:00 0.2746
2017_12_24_S7 12/25/2017 05:10:00 0.0
2017_12_24_S7 12/25/2017 05:15:00 0.0
2017_12_24_S7 12/25/2017 05:20:00 0.0039
2017_12_24_S7 12/25/2017 05:25:00 0.1323
2017_12_24_S7 12/25/2017 05:30:00 0.0276
2017_12_24_S7 12/25/2017 05:35:00 0.0241
2017_12_24_S7 12/25/2017 05:40:00 1.0958
2017_12_24_S7 12/25/2017 05:45:00 0.1245
2017_12_24_S7 12/25/2017 05:50:00 0.241
2017_12_24_S7 12/25/2017 05:55:00 0.0022
2017_12_24_S7 12/25/2017 06:00:00 0.3488
2017_12_24_S7 12/25/2017 06:05:00 0.324
2017_12_24_S7 12/25/2017 06:10:00 0.0342
2017_12_24_S7 12/25/2017 06:15:00 0.0
2017_12_24_S7 12/25/2017 06:20:00 0.0
2017_12_24_S7 12/25/2017 06:25:00 0.0
2017_12_24_S7 12/25/2017 06:30:00 0.0
2017_12_24_S7 12/25/2017 06:35:00 0.0
2017_12_24_S7 12/25/2017 06:40:00 0.0
2017_12_24_S7 12/25/2017 06:45:00 0.0
2017_12_24_S7 12/25/2017 06:50:00 0.0
2017_12_24_S7 12/25/2017 06:55:00 0.0
2017_12_24_S7 12/25/2017 07:00:00 0.0
2017_12_24_S7 12/25/2017 07:05:00 0.0
2017_12_24_S7 12/25/2017 07:10:00 0.0
2017_12_24_S7 12/25/2017 07:15:00 0.0
2017_12_24_S7 12/25/2017 07:20:00 0.0
2017_12_24_S7 12/25/2017 07:25:00 0.0
2017_12_24_S7 12/25/2017 07:30:00 0.0
2017_12_24_S7 12/25/2017 07:35:00 0.0
2017_12_24_S7 12/25/2017 07:40:00 0.0
2017_12_24_S7 12/25/2017 07:45:00 0.0
2017_12_24_S7 12/25/2017 07:50:00 0.0
2017_12_24_S7 12/25/2017 07:55:00 0.0
2017_12_24_S7 12/25/2017 08:00:00 0.0

2017_12_24_S8 12/24/2017 12:10:00 0.066
2017_12_24_S8 12/24/2017 12:15:00 0.363
2017_12_24_S8 12/24/2017 12:20:00 4.6387
2017_12_24_S8 12/24/2017 12:25:00 3.123
2017_12_24_S8 12/24/2017 12:30:00 7.4444
2017_12_24_S8 12/24/2017 12:35:00 1.6686
2017_12_24_S8 12/24/2017 12:40:00 2.9948
2017_12_24_S8 12/24/2017 12:45:00 1.1515
2017_12_24_S8 12/24/2017 12:50:00 0.8956
2017_12_24_S8 12/24/2017 12:55:00 0.6744
2017_12_24_S8 12/24/2017 13:00:00 0.0816
2017_12_24_S8 12/24/2017 13:05:00 0.0145
2017_12_24_S8 12/24/2017 13:10:00 0.0174
2017_12_24_S8 12/24/2017 13:15:00 0.0609
2017_12_24_S8 12/24/2017 13:20:00 0.0612
2017_12_24_S8 12/24/2017 13:25:00 0.0893
2017_12_24_S8 12/24/2017 13:30:00 0.0626
2017_12_24_S8 12/24/2017 13:35:00 0.0136
2017_12_24_S8 12/24/2017 13:40:00 0.0016
2017_12_24_S8 12/24/2017 13:45:00 0.0008
2017_12_24_S8 12/24/2017 13:50:00 0.0
2017_12_24_S8 12/24/2017 13:55:00 0.0
2017_12_24_S8 12/24/2017 14:00:00 0.0
2017_12_24_S8 12/24/2017 14:05:00 0.0
2017_12_24_S8 12/24/2017 14:10:00 0.0
2017_12_24_S8 12/24/2017 14:15:00 0.0
2017_12_24_S8 12/24/2017 14:20:00 0.0
2017_12_24_S8 12/24/2017 14:25:00 0.0
2017_12_24_S8 12/24/2017 14:30:00 0.0
2017_12_24_S8 12/24/2017 14:35:00 0.0
2017_12_24_S8 12/24/2017 14:40:00 0.0
2017_12_24_S8 12/24/2017 14:45:00 0.0
2017_12_24_S8 12/24/2017 14:50:00 0.0
2017_12_24_S8 12/24/2017 14:55:00 0.0
2017_12_24_S8 12/24/2017 15:00:00 0.0
2017_12_24_S8 12/24/2017 15:05:00 0.0
2017_12_24_S8 12/24/2017 15:10:00 0.0161
2017_12_24_S8 12/24/2017 15:15:00 0.0011
2017_12_24_S8 12/24/2017 15:20:00 0.0101
2017_12_24_S8 12/24/2017 15:25:00 0.0562
2017_12_24_S8 12/24/2017 15:30:00 0.137
2017_12_24_S8 12/24/2017 15:35:00 1.0994
2017_12_24_S8 12/24/2017 15:40:00 0.1552
2017_12_24_S8 12/24/2017 15:45:00 0.0
2017_12_24_S8 12/24/2017 15:50:00 0.0012
2017_12_24_S8 12/24/2017 15:55:00 0.0861
2017_12_24_S8 12/24/2017 16:00:00 0.9194
2017_12_24_S8 12/24/2017 16:05:00 0.431
2017_12_24_S8 12/24/2017 16:10:00 0.0
2017_12_24_S8 12/24/2017 16:15:00 0.0
2017_12_24_S8 12/24/2017 16:20:00 0.1346
2017_12_24_S8 12/24/2017 16:25:00 0.0747
2017_12_24_S8 12/24/2017 16:30:00 0.0252
2017_12_24_S8 12/24/2017 16:35:00 0.0687
2017_12_24_S8 12/24/2017 16:40:00 0.0424
2017_12_24_S8 12/24/2017 16:45:00 0.0305
2017_12_24_S8 12/24/2017 16:50:00 0.0185
2017_12_24_S8 12/24/2017 16:55:00 0.0429
2017_12_24_S8 12/24/2017 17:00:00 0.0006
2017_12_24_S8 12/24/2017 17:05:00 0.0
2017_12_24_S8 12/24/2017 17:10:00 0.0565
2017_12_24_S8 12/24/2017 17:15:00 0.1164
2017_12_24_S8 12/24/2017 17:20:00 0.0195
2017_12_24_S8 12/24/2017 17:25:00 0.0601
2017_12_24_S8 12/24/2017 17:30:00 0.0614
2017_12_24_S8 12/24/2017 17:35:00 0.1034
2017_12_24_S8 12/24/2017 17:40:00 0.1403
2017_12_24_S8 12/24/2017 17:45:00 0.0201
2017_12_24_S8 12/24/2017 17:50:00 0.0085
2017_12_24_S8 12/24/2017 17:55:00 0.0246
2017_12_24_S8 12/24/2017 18:00:00 0.0521
2017_12_24_S8 12/24/2017 18:05:00 0.0642
2017_12_24_S8 12/24/2017 18:10:00 0.349
2017_12_24_S8 12/24/2017 18:15:00 0.0969
2017_12_24_S8 12/24/2017 18:20:00 0.0255
2017_12_24_S8 12/24/2017 18:25:00 0.0007
2017_12_24_S8 12/24/2017 18:30:00 0.0019
2017_12_24_S8 12/24/2017 18:35:00 0.0076
2017_12_24_S8 12/24/2017 18:40:00 0.0144
2017_12_24_S8 12/24/2017 18:45:00 0.0
2017_12_24_S8 12/24/2017 18:50:00 0.0
2017_12_24_S8 12/24/2017 18:55:00 0.0009
2017_12_24_S8 12/24/2017 19:00:00 0.0044
2017_12_24_S8 12/24/2017 19:05:00 0.0731
2017_12_24_S8 12/24/2017 19:10:00 0.1354
2017_12_24_S8 12/24/2017 19:15:00 0.0808
2017_12_24_S8 12/24/2017 19:20:00 0.0366
2017_12_24_S8 12/24/2017 19:25:00 0.0077
2017_12_24_S8 12/24/2017 19:30:00 0.0
2017_12_24_S8 12/24/2017 19:35:00 0.0123
2017_12_24_S8 12/24/2017 19:40:00 0.0231
2017_12_24_S8 12/24/2017 19:45:00 0.0
2017_12_24_S8 12/24/2017 19:50:00 0.0246
2017_12_24_S8 12/24/2017 19:55:00 0.1202
2017_12_24_S8 12/24/2017 20:00:00 0.0867
2017_12_24_S8 12/24/2017 20:05:00 0.0775
2017_12_24_S8 12/24/2017 20:10:00 0.0084
2017_12_24_S8 12/24/2017 20:15:00 0.0026
2017_12_24_S8 12/24/2017 20:20:00 0.0104
2017_12_24_S8 12/24/2017 20:25:00 0.0204
2017_12_24_S8 12/24/2017 20:30:00 0.0251
2017_12_24_S8 12/24/2017 20:35:00 0.0042
2017_12_24_S8 12/24/2017 20:40:00 0.0061
2017_12_24_S8 12/24/2017 20:45:00 0.0029
2017_12_24_S8 12/24/2017 20:50:00 0.023
2017_12_24_S8 12/24/2017 20:55:00 0.0476
2017_12_24_S8 12/24/2017 21:00:00 0.0274
2017_12_24_S8 12/24/2017 21:05:00 0.0238
2017_12_24_S8 12/24/2017 21:10:00 0.0199
2017_12_24_S8 12/24/2017 21:15:00 0.016
2017_12_24_S8 12/24/2017 21:20:00 0.1329
2017_12_24_S8 12/24/2017 21:25:00 0.0011
2017_12_24_S8 12/24/2017 21:30:00 0.001
2017_12_24_S8 12/24/2017 21:35:00 0.0006
2017_12_24_S8 12/24/2017 21:40:00 0.0108
2017_12_24_S8 12/24/2017 21:45:00 0.1562
2017_12_24_S8 12/24/2017 21:50:00 0.0682
2017_12_24_S8 12/24/2017 21:55:00 0.2015
2017_12_24_S8 12/24/2017 22:00:00 0.2541
2017_12_24_S8 12/24/2017 22:05:00 0.0645
2017_12_24_S8 12/24/2017 22:10:00 0.0229
2017_12_24_S8 12/24/2017 22:15:00 0.0069
2017_12_24_S8 12/24/2017 22:20:00 0.005
2017_12_24_S8 12/24/2017 22:25:00 0.3785
2017_12_24_S8 12/24/2017 22:30:00 0.1254
2017_12_24_S8 12/24/2017 22:35:00 0.0195
2017_12_24_S8 12/24/2017 22:40:00 0.2636
2017_12_24_S8 12/24/2017 22:45:00 0.0913
2017_12_24_S8 12/24/2017 22:50:00 0.0782
2017_12_24_S8 12/24/2017 22:55:00 0.0537
2017_12_24_S8 12/24/2017 23:00:00 0.0796
2017_12_24_S8 12/24/2017 23:05:00 0.1795
2017_12_24_S8 12/24/2017 23:10:00 0.0881
2017_12_24_S8 12/24/2017 23:15:00 0.1309
2017_12_24_S8 12/24/2017 23:20:00 0.0852
2017_12_24_S8 12/24/2017 23:25:00 0.0974
2017_12_24_S8 12/24/2017 23:30:00 0.1898
2017_12_24_S8 12/24/2017 23:35:00 0.0112
2017_12_24_S8 12/24/2017 23:40:00 0.0093
2017_12_24_S8 12/24/2017 23:45:00 0.0092
2017_12_24_S8 12/24/2017 23:50:00 0.0
2017_12_24_S8 12/24/2017 23:55:00 0.0
2017_12_24_S8 12/25/2017 00:00:00 0.0
2017_12_24_S8 12/25/2017 00:05:00 0.0
2017_12_24_S8 12/25/2017 00:10:00 0.0083
2017_12_24_S8 12/25/2017 00:15:00 0.0546
2017_12_24_S8 12/25/2017 00:20:00 0.2075
2017_12_24_S8 12/25/2017 00:25:00 0.0
2017_12_24_S8 12/25/2017 00:30:00 0.0
2017_12_24_S8 12/25/2017 00:35:00 0.0
2017_12_24_S8 12/25/2017 00:40:00 0.0
2017_12_24_S8 12/25/2017 00:45:00 0.0
2017_12_24_S8 12/25/2017 00:50:00 0.0
2017_12_24_S8 12/25/2017 00:55:00 0.0
2017_12_24_S8 12/25/2017 01:00:00 0.0
2017_12_24_S8 12/25/2017 01:05:00 0.0
2017_12_24_S8 12/25/2017 01:10:00 0.1493
2017_12_24_S8 12/25/2017 01:15:00 0.0
2017_12_24_S8 12/25/2017 01:20:00 0.0
2017_12_24_S8 12/25/2017 01:25:00 0.0
2017_12_24_S8 12/25/2017 01:30:00 0.0
2017_12_24_S8 12/25/2017 01:35:00 0.0
2017_12_24_S8 12/25/2017 01:40:00 0.0
2017_12_24_S8 12/25/2017 01:45:00 0.0
2017_12_24_S8 12/25/2017 01:50:00 0.0
2017_12_24_S8 12/25/2017 01:55:00 0.0076
2017_12_24_S8 12/25/2017 02:00:00 0.3214
2017_12_24_S8 12/25/2017 02:05:00 0.161
2017_12_24_S8 12/25/2017 02:10:00 0.0
2017_12_24_S8 12/25/2017 02:15:00 0.0
2017_12_24_S8 12/25/2017 02:20:00 0.0361
2017_12_24_S8 12/25/2017 02:25:00 0.0
2017_12_24_S8 12/25/2017 02:30:00 0.0
2017_12_24_S8 12/25/2017 02:35:00 0.0
2017_12_24_S8 12/25/2017 02:40:00 0.0
2017_12_24_S8 12/25/2017 02:45:00 0.0
2017_12_24_S8 12/25/2017 02:50:00 0.0
2017_12_24_S8 12/25/2017 02:55:00 0.0012
2017_12_24_S8 12/25/2017 03:00:00 0.0
2017_12_24_S8 12/25/2017 03:05:00 0.0
2017_12_24_S8 12/25/2017 03:10:00 0.0
2017_12_24_S8 12/25/2017 03:15:00 0.0
2017_12_24_S8 12/25/2017 03:20:00 0.0
2017_12_24_S8 12/25/2017 03:25:00 0.248
2017_12_24_S8 12/25/2017 03:30:00 0.2386
2017_12_24_S8 12/25/2017 03:35:00 0.0
2017_12_24_S8 12/25/2017 03:40:00 0.0026
2017_12_24_S8 12/25/2017 03:45:00 0.0
2017_12_24_S8 12/25/2017 03:50:00 0.0
2017_12_24_S8 12/25/2017 03:55:00 0.0
2017_12_24_S8 12/25/2017 04:00:00 0.0
2017_12_24_S8 12/25/2017 04:05:00 0.0
2017_12_24_S8 12/25/2017 04:10:00 0.0
2017_12_24_S8 12/25/2017 04:15:00 0.0
2017_12_24_S8 12/25/2017 04:20:00 0.0
2017_12_24_S8 12/25/2017 04:25:00 0.0
2017_12_24_S8 12/25/2017 04:30:00 0.0
2017_12_24_S8 12/25/2017 04:35:00 0.0
2017_12_24_S8 12/25/2017 04:40:00 0.0
2017_12_24_S8 12/25/2017 04:45:00 0.0007
2017_12_24_S8 12/25/2017 04:50:00 0.3455
2017_12_24_S8 12/25/2017 04:55:00 1.078
2017_12_24_S8 12/25/2017 05:00:00 0.5459
2017_12_24_S8 12/25/2017 05:05:00 0.3811
2017_12_24_S8 12/25/2017 05:10:00 0.0
2017_12_24_S8 12/25/2017 05:15:00 0.0
2017_12_24_S8 12/25/2017 05:20:00 0.0056
2017_12_24_S8 12/25/2017 05:25:00 0.149
2017_12_24_S8 12/25/2017 05:30:00 0.034
2017_12_24_S8 12/25/2017 05:35:00 0.0344
2017_12_24_S8 12/25/2017 05:40:00 0.6248
2017_12_24_S8 12/25/2017 05:45:00 0.1598
2017_12_24_S8 12/25/2017 05:50:00 0.3618
2017_12_24_S8 12/25/2017 05:55:00 0.0027
2017_12_24_S8 12/25/2017 06:00:00 0.3417
2017_12_24_S8 12/25/2017 06:05:00 0.2576
2017_12_24_S8 12/25/2017 06:10:00 0.0307
2017_12_24_S8 12/25/2017 06:15:00 0.0
2017_12_24_S8 12/25/2017 06:20:00 0.0
2017_12_24_S8 12/25/2017 06:25:00 0.0
2017_12_24_S8 12/25/2017 06:30:00 0.0
2017_12_24_S8 12/25/2017 06:35:00 0.0
2017_12_24_S8 12/25/2017 06:40:00 0.0
2017_12_24_S8 12/25/2017 06:45:00 0.0
2017_12_24_S8 12/25/2017 06:50:00 0.0
2017_12_24_S8 12/25/2017 06:55:00 0.0
2017_12_24_S8 12/25/2017 07:00:00 0.0
2017_12_24_S8 12/25/2017 07:05:00 0.0
2017_12_24_S8 12/25/2017 07:10:00 0.0
2017_12_24_S8 12/25/2017 07:15:00 0.0
2017_12_24_S8 12/25/2017 07:20:00 0.0
2017_12_24_S8 12/25/2017 07:25:00 0.0
2017_12_24_S8 12/25/2017 07:30:00 0.0
2017_12_24_S8 12/25/2017 07:35:00 0.0
2017_12_24_S8 12/25/2017 07:40:00 0.0
2017_12_24_S8 12/25/2017 07:45:00 0.0
2017_12_24_S8 12/25/2017 07:50:00 0.0
2017_12_24_S8 12/25/2017 07:55:00 0.0
2017_12_24_S8 12/25/2017 08:00:00 0.0

2017_12_24_S9 12/24/2017 12:10:00 0.0621
2017_12_24_S9 12/24/2017 12:15:00 0.3554
2017_12_24_S9 12/24/2017 12:20:00 4.9034
2017_12_24_S9 12/24/2017 12:25:00 4.0509
2017_12_24_S9 12/24/2017 12:30:00 8.668
2017_12_24_S9 12/24/2017 12:35:00 2.3292
2017_12_24_S9 12/24/2017 12:40:00 3.4473
2017_12_24_S9 12/24/2017 12:45:00 0.9149
2017_12_24_S9 12/24/2017 12:50:00 1.1666
2017_12_24_S9 12/24/2017 12:55:00 0.394
2017_12_24_S9 12/24/2017 13:00:00 0.0488
2017_12_24_S9 12/24/2017 13:05:00 0.0158
2017_12_24_S9 12/24/2017 13:10:00 0.0234
2017_12_24_S9 12/24/2017 13:15:00 0.0586
2017_12_24_S9 12/24/2017 13:20:00 0.0725
2017_12_24_S9 12/24/2017 13:25:00 0.1105
2017_12_24_S9 12/24/2017 13:30:00 0.0446
2017_12_24_S9 12/24/2017 13:35:00 0.0104
2017_12_24_S9 12/24/2017 13:40:00 0.0
2017_12_24_S9 12/24/2017 13:45:00 0.0
2017_12_24_S9 12/24/2017 13:50:00 0.0
2017_12_24_S9 12/24/2017 13:55:00 0.0
2017_12_24_S9 12/24/2017 14:00:00 0.0
2017_12_24_S9 12/24/2017 14:05:00 0.0
2017_12_24_S9 12/24/2017 14:10:00 0.0
2017_12_24_S9 12/24/2017 14:15:00 0.0
2017_12_24_S9 12/24/2017 14:20:00 0.0
2017_12_24_S9 12/24/2017 14:25:00 0.0
2017_12_24_S9 12/24/2017 14:30:00 0.0
2017_12_24_S9 12/24/2017 14:35:00 0.0
2017_12_24_S9 12/24/2017 14:40:00 0.0
2017_12_24_S9 12/24/2017 14:45:00 0.0
2017_12_24_S9 12/24/2017 14:50:00 0.0
2017_12_24_S9 12/24/2017 14:55:00 0.0
2017_12_24_S9 12/24/2017 15:00:00 0.0
2017_12_24_S9 12/24/2017 15:05:00 0.0
2017_12_24_S9 12/24/2017 15:10:00 0.0108
2017_12_24_S9 12/24/2017 15:15:00 0.0005
2017_12_24_S9 12/24/2017 15:20:00 0.0111
2017_12_24_S9 12/24/2017 15:25:00 0.0613
2017_12_24_S9 12/24/2017 15:30:00 0.2104
2017_12_24_S9 12/24/2017 15:35:00 0.9868
2017_12_24_S9 12/24/2017 15:40:00 0.1476
2017_12_24_S9 12/24/2017 15:45:00 0.0
2017_12_24_S9 12/24/2017 15:50:00 0.0011
2017_12_24_S9 12/24/2017 15:55:00 0.132
2017_12_24_S9 12/24/2017 16:00:00 1.1018
2017_12_24_S9 12/24/2017 16:05:00 0.3236
2017_12_24_S9 12/24/2017 16:10:00 0.0
2017_12_24_S9 12/24/2017 16:15:00 0.0
2017_12_24_S9 12/24/2017 16:20:00 0.122
2017_12_24_S9 12/24/2017 16:25:00 0.076
2017_12_24_S9 12/24/2017 16:30:00 0.0223
2017_12_24_S9 12/24/2017 16:35:00 0.0516
2017_12_24_S9 12/24/2017 16:40:00 0.0406
2017_12_24_S9 12/24/2017 16:45:00 0.029
2017_12_24_S9 12/24/2017 16:50:00 0.0173
2017_12_24_S9 12/24/2017 16:55:00 0.0363
2017_12_24_S9 12/24/2017 17:00:00 0.0
2017_12_24_S9 12/24/2017 17:05:00 0.0004
2017_12_24_S9 12/24/2017 17:10:00 0.052
2017_12_24_S9 12/24/2017 17:15:00 0.1078
2017_12_24_S9 12/24/2017 17:20:00 0.0189
2017_12_24_S9 12/24/2017 17:25:00 0.063
2017_12_24_S9 12/24/2017 17:30:00 0.0853
2017_12_24_S9 12/24/2017 17:35:00 0.1182
2017_12_24_S9 12/24/2017 17:40:00 0.0941
2017_12_24_S9 12/24/2017 17:45:00 0.0197
2017_12_24_S9 12/24/2017 17:50:00 0.0088
2017_12_24_S9 12/24/2017 17:55:00 0.039
2017_12_24_S9 12/24/2017 18:00:00 0.073
2017_12_24_S9 12/24/2017 18:05:00 0.0578
2017_12_24_S9 12/24/2017 18:10:00 0.2535
2017_12_24_S9 12/24/2017 18:15:00 0.0476
2017_12_24_S9 12/24/2017 18:20:00 0.0345
2017_12_24_S9 12/24/2017 18:25:00 0.0032
2017_12_24_S9 12/24/2017 18:30:00 0.0043
2017_12_24_S9 12/24/2017 18:35:00 0.0029
2017_12_24_S9 12/24/2017 18:40:00 0.0044
2017_12_24_S9 12/24/2017 18:45:00 0.0
2017_12_24_S9 12/24/2017 18:50:00 0.0
2017_12_24_S9 12/24/2017 18:55:00 0.0065
2017_12_24_S9 12/24/2017 19:00:00 0.0064
2017_12_24_S9 12/24/2017 19:05:00 0.0853
2017_12_24_S9 12/24/2017 19:10:00 0.1239
2017_12_24_S9 12/24/2017 19:15:00 0.0763
2017_12_24_S9 12/24/2017 19:20:00 0.0362
2017_12_24_S9 12/24/2017 19:25:00 0.0069
2017_12_24_S9 12/24/2017 19:30:00 0.0
2017_12_24_S9 12/24/2017 19:35:00 0.016
2017_12_24_S9 12/24/2017 19:40:00 0.0182
2017_12_24_S9 12/24/2017 19:45:00 0.0
2017_12_24_S9 12/24/2017 19:50:00 0.03
2017_12_24_S9 12/24/2017 19:55:00 0.1529
2017_12_24_S9 12/24/2017 20:00:00 0.1074
2017_12_24_S9 12/24/2017 20:05:00 0.0599
2017_12_24_S9 12/24/2017 20:10:00 0.0069
2017_12_24_S9 12/24/2017 20:15:00 0.0027
2017_12_24_S9 12/24/2017 20:20:00 0.0103
2017_12_24_S9 12/24/2017 20:25:00 0.0224
2017_12_24_S9 12/24/2017 20:30:00 0.0143
2017_12_24_S9 12/24/2017 20:35:00 0.0059
2017_12_24_S9 12/24/2017 20:40:00 0.0031
2017_12_24_S9 12/24/2017 20:45:00 0.0001
2017_12_24_S9 12/24/2017 20:50:00 0.031
2017_12_24_S9 12/24/2017 20:55:00 0.046
2017_12_24_S9 12/24/2017 21:00:00 0.0239
2017_12_24_S9 12/24/2017 21:05:00 0.023
2017_12_24_S9 12/24/2017 21:10:00 0.0191
2017_12_24_S9 12/24/2017 21:15:00 0.0152
2017_12_24_S9 12/24/2017 21:20:00 0.1237
2017_12_24_S9 12/24/2017 21:25:00 0.0002
2017_12_24_S9 12/24/2017 21:30:00 0.0
2017_12_24_S9 12/24/2017 21:35:00 0.0007
2017_12_24_S9 12/24/2017 21:40:00 0.0186
2017_12_24_S9 12/24/2017 21:45:00 0.0836
2017_12_24_S9 12/24/2017 21:50:00 0.0438
2017_12_24_S9 12/24/2017 21:55:00 0.1301
2017_12_24_S9 12/24/2017 22:00:00 0.2177
2017_12_24_S9 12/24/2017 22:05:00 0.0834
2017_12_24_S9 12/24/2017 22:10:00 0.0143
2017_12_24_S9 12/24/2017 22:15:00 0.0063
2017_12_24_S9 12/24/2017 22:20:00 0.0112
2017_12_24_S9 12/24/2017 22:25:00 0.3666
2017_12_24_S9 12/24/2017 22:30:00 0.0736
2017_12_24_S9 12/24/2017 22:35:00 0.0215
2017_12_24_S9 12/24/2017 22:40:00 0.2693
2017_12_24_S9 12/24/2017 22:45:00 0.0567
2017_12_24_S9 12/24/2017 22:50:00 0.0767
2017_12_24_S9 12/24/2017 22:55:00 0.0633
2017_12_24_S9 12/24/2017 23:00:00 0.1186
2017_12_24_S9 12/24/2017 23:05:00 0.1293
2017_12_24_S9 12/24/2017 23:10:00 0.0847
2017_12_24_S9 12/24/2017 23:15:00 0.1114
2017_12_24_S9 12/24/2017 23:20:00 0.0932
2017_12_24_S9 12/24/2017 23:25:00 0.108
2017_12_24_S9 12/24/2017 23:30:00 0.1627
2017_12_24_S9 12/24/2017 23:35:00 0.0035
2017_12_24_S9 12/24/2017 23:40:00 0.0114
2017_12_24_S9 12/24/2017 23:45:00 0.009
2017_12_24_S9 12/24/2017 23:50:00 0.0
2017_12_24_S9 12/24/2017 23:55:00 0.0
2017_12_24_S9 12/25/2017 00:00:00 0.0
2017_12_24_S9 12/25/2017 00:05:00 0.0
2017_12_24_S9 12/25/2017 00:10:00 0.0133
2017_12_24_S9 12/25/2017 00:15:00 0.0686
2017_12_24_S9 12/25/2017 00:20:00 0.1637
2017_12_24_S9 12/25/2017 00:25:00 0.0
2017_12_24_S9 12/25/2017 00:30:00 0.0
2017_12_24_S9 12/25/2017 00:35:00 0.0
2017_12_24_S9 12/25/2017 00:40:00 0.0
2017_12_24_S9 12/25/2017 00:45:00 0.0
2017_12_24_S9 12/25/2017 00:50:00 0.0
2017_12_24_S9 12/25/2017 00:55:00 0.0
2017_12_24_S9 12/25/2017 01:00:00 0.0
2017_12_24_S9 12/25/2017 01:05:00 0.0
2017_12_24_S9 12/25/2017 01:10:00 0.3641
2017_12_24_S9 12/25/2017 01:15:00 0.0
2017_12_24_S9 12/25/2017 01:20:00 0.0
2017_12_24_S9 12/25/2017 01:25:00 0.0
2017_12_24_S9 12/25/2017 01:30:00 0.0
2017_12_24_S9 12/25/2017 01:35:00 0.0
2017_12_24_S9 12/25/2017 01:40:00 0.0
2017_12_24_S9 12/25/2017 01:45:00 0.0
2017_12_24_S9 12/25/2017 01:50:00 0.0
2017_12_24_S9 12/25/2017 01:55:00 0.0061
2017_12_24_S9 12/25/2017 02:00:00 0.1813
2017_12_24_S9 12/25/2017 02:05:00 0.0911
2017_12_24_S9 12/25/2017 02:10:00 0.0
2017_12_24_S9 12/25/2017 02:15:00 0.0
2017_12_24_S9 12/25/2017 02:20:00 0.0574
2017_12_24_S9 12/25/2017 02:25:00 0.0
2017_12_24_S9 12/25/2017 02:30:00 0.0
2017_12_24_S9 12/25/2017 02:35:00 0.0
2017_12_24_S9 12/25/2017 02:40:00 0.0
2017_12_24_S9 12/25/2017 02:45:00 0.0
2017_12_24_S9 12/25/2017 02:50:00 0.0
2017_12_24_S9 12/25/2017 02:55:00 0.0006
2017_12_24_S9 12/25/2017 03:00:00 0.0
2017_12_24_S9 12/25/2017 03:05:00 0.0
2017_12_24_S9 12/25/2017 03:10:00 0.0
2017_12_24_S9 12/25/2017 03:15:00 0.0
2017_12_24_S9 12/25/2017 03:20:00 0.0
2017_12_24_S9 12/25/2017 03:25:00 0.2747
2017_12_24_S9 12/25/2017 03:30:00 0.2005
2017_12_24_S9 12/25/2017 03:35:00 0.0
2017_12_24_S9 12/25/2017 03:40:00 0.0055
2017_12_24_S9 12/25/2017 03:45:00 0.0
2017_12_24_S9 12/25/2017 03:50:00 0.0
2017_12_24_S9 12/25/2017 03:55:00 0.0
2017_12_24_S9 12/25/2017 04:00:00 0.0
2017_12_24_S9 12/25/2017 04:05:00 0.0
2017_12_24_S9 12/25/2017 04:10:00 0.0
2017_12_24_S9 12/25/2017 04:15:00 0.0
2017_12_24_S9 12/25/2017 04:20:00 0.0
2017_12_24_S9 12/25/2017 04:25:00 0.0
2017_12_24_S9 12/25/2017 04:30:00 0.0
2017_12_24_S9 12/25/2017 04:35:00 0.0
2017_12_24_S9 12/25/2017 04:40:00 0.0
2017_12_24_S9 12/25/2017 04:45:00 0.0036
2017_12_24_S9 12/25/2017 04:50:00 0.2531
2017_12_24_S9 12/25/2017 04:55:00 2.0883
2017_12_24_S9 12/25/2017 05:00:00 0.455
2017_12_24_S9 12/25/2017 05:05:00 0.4762
2017_12_24_S9 12/25/2017 05:10:00 0.0
2017_12_24_S9 12/25/2017 05:15:00 0.0
2017_12_24_S9 12/25/2017 05:20:00 0.006
2017_12_24_S9 12/25/2017 05:25:00 0.1152
2017_12_24_S9 12/25/2017 05:30:00 0.0719
2017_12_24_S9 12/25/2017 05:35:00 0.0247
2017_12_24_S9 12/25/2017 05:40:00 0.3848
2017_12_24_S9 12/25/2017 05:45:00 0.1971
2017_12_24_S9 12/25/2017 05:50:00 0.2796
2017_12_24_S9 12/25/2017 05:55:00 0.0085
2017_12_24_S9 12/25/2017 06:00:00 0.3723
2017_12_24_S9 12/25/2017 06:05:00 0.1833
2017_12_24_S9 12/25/2017 06:10:00 0.0293
2017_12_24_S9 12/25/2017 06:15:00 0.0001
2017_12_24_S9 12/25/2017 06:20:00 0.0
2017_12_24_S9 12/25/2017 06:25:00 0.0
2017_12_24_S9 12/25/2017 06:30:00 0.0
2017_12_24_S9 12/25/2017 06:35:00 0.0
2017_12_24_S9 12/25/2017 06:40:00 0.0
2017_12_24_S9 12/25/2017 06:45:00 0.0
2017_12_24_S9 12/25/2017 06:50:00 0.0
2017_12_24_S9 12/25/2017 06:55:00 0.0
2017_12_24_S9 12/25/2017 07:00:00 0.0
2017_12_24_S9 12/25/2017 07:05:00 0.0
2017_12_24_S9 12/25/2017 07:10:00 0.0
2017_12_24_S9 12/25/2017 07:15:00 0.0
2017_12_24_S9 12/25/2017 07:20:00 0.0
2017_12_24_S9 12/25/2017 07:25:00 0.0
2017_12_24_S9 12/25/2017 07:30:00 0.0
2017_12_24_S9 12/25/2017 07:35:00 0.0
2017_12_24_S9 12/25/2017 07:40:00 0.0
2017_12_24_S9 12/25/2017 07:45:00 0.0
2017_12_24_S9 12/25/2017 07:50:00 0.0
2017_12_24_S9 12/25/2017 07:55:00 0.0
2017_12_24_S9 12/25/2017 08:00:00 0.0

2017_12_24_S10 12/24/2017 12:10:00 0.0522
2017_12_24_S10 12/24/2017 12:15:00 0.0643
2017_12_24_S10 12/24/2017 12:20:00 2.0968
2017_12_24_S10 12/24/2017 12:25:00 5.5984
2017_12_24_S10 12/24/2017 12:30:00 7.8215
2017_12_24_S10 12/24/2017 12:35:00 6.3189
2017_12_24_S10 12/24/2017 12:40:00 4.2465
2017_12_24_S10 12/24/2017 12:45:00 0.7061
2017_12_24_S10 12/24/2017 12:50:00 1.1275
2017_12_24_S10 12/24/2017 12:55:00 0.3651
2017_12_24_S10 12/24/2017 13:00:00 0.0157
2017_12_24_S10 12/24/2017 13:05:00 0.0188
2017_12_24_S10 12/24/2017 13:10:00 0.0292
2017_12_24_S10 12/24/2017 13:15:00 0.0631
2017_12_24_S10 12/24/2017 13:20:00 0.0587
2017_12_24_S10 12/24/2017 13:25:00 0.3364
2017_12_24_S10 12/24/2017 13:30:00 0.0297
2017_12_24_S10 12/24/2017 13:35:00 0.0059
2017_12_24_S10 12/24/2017 13:40:00 0.0
2017_12_24_S10 12/24/2017 13:45:00 0.0
2017_12_24_S10 12/24/2017 13:50:00 0.0
2017_12_24_S10 12/24/2017 13:55:00 0.0
2017_12_24_S10 12/24/2017 14:00:00 0.0
2017_12_24_S10 12/24/2017 14:05:00 0.0
2017_12_24_S10 12/24/2017 14:10:00 0.0
2017_12_24_S10 12/24/2017 14:15:00 0.0
2017_12_24_S10 12/24/2017 14:20:00 0.0
2017_12_24_S10 12/24/2017 14:25:00 0.0
2017_12_24_S10 12/24/2017 14:30:00 0.0
2017_12_24_S10 12/24/2017 14:35:00 0.0
2017_12_24_S10 12/24/2017 14:40:00 0.0
2017_12_24_S10 12/24/2017 14:45:00 0.0
2017_12_24_S10 12/24/2017 14:50:00 0.0
2017_12_24_S10 12/24/2017 14:55:00 0.0
2017_12_24_S10 12/24/2017 15:00:00 0.0
2017_12_24_S10 12/24/2017 15:05:00 0.0
2017_12_24_S10 12/24/2017 15:10:00 0.0067
2017_12_24_S10 12/24/2017 15:15:00 0.0
2017_12_24_S10 12/24/2017 15:20:00 0.0077
2017_12_24_S10 12/24/2017 15:25:00 0.0761
2017_12_24_S10 12/24/2017 15:30:00 0.2572
2017_12_24_S10 12/24/2017 15:35:00 1.1392
2017_12_24_S10 12/24/2017 15:40:00 0.1509
2017_12_24_S10 12/24/2017 15:45:00 0.0
2017_12_24_S10 12/24/2017 15:50:00 0.0011
2017_12_24_S10 12/24/2017 15:55:00 0.177
2017_12_24_S10 12/24/2017 16:00:00 1.6347
2017_12_24_S10 12/24/2017 16:05:00 0.3297
2017_12_24_S10 12/24/2017 16:10:00 0.0
2017_12_24_S10 12/24/2017 16:15:00 0.0
2017_12_24_S10 12/24/2017 16:20:00 0.1215
2017_12_24_S10 12/24/2017 16:25:00 0.0656
2017_12_24_S10 12/24/2017 16:30:00 0.0181
2017_12_24_S10 12/24/2017 16:35:00 0.0674
2017_12_24_S10 12/24/2017 16:40:00 0.0626
2017_12_24_S10 12/24/2017 16:45:00 0.0409
2017_12_24_S10 12/24/2017 16:50:00 0.0192
2017_12_24_S10 12/24/2017 16:55:00 0.0349
2017_12_24_S10 12/24/2017 17:00:00 0.0
2017_12_24_S10 12/24/2017 17:05:00 0.0015
2017_12_24_S10 12/24/2017 17:10:00 0.0645
2017_12_24_S10 12/24/2017 17:15:00 0.0797
2017_12_24_S10 12/24/2017 17:20:00 0.0187
2017_12_24_S10 12/24/2017 17:25:00 0.048
2017_12_24_S10 12/24/2017 17:30:00 0.1495
2017_12_24_S10 12/24/2017 17:35:00 0.1669
2017_12_24_S10 12/24/2017 17:40:00 0.0764
2017_12_24_S10 12/24/2017 17:45:00 0.0255
2017_12_24_S10 12/24/2017 17:50:00 0.008
2017_12_24_S10 12/24/2017 17:55:00 0.0475
2017_12_24_S10 12/24/2017 18:00:00 0.0888
2017_12_24_S10 12/24/2017 18:05:00 0.0524
2017_12_24_S10 12/24/2017 18:10:00 0.2465
2017_12_24_S10 12/24/2017 18:15:00 0.0025
2017_12_24_S10 12/24/2017 18:20:00 0.037
2017_12_24_S10 12/24/2017 18:25:00 0.0011
2017_12_24_S10 12/24/2017 18:30:00 0.0014
2017_12_24_S10 12/24/2017 18:35:00 0.0007
2017_12_24_S10 12/24/2017 18:40:00 0.0
2017_12_24_S10 12/24/2017 18:45:00 0.0
2017_12_24_S10 12/24/2017 18:50:00 0.0
2017_12_24_S10 12/24/2017 18:55:00 0.0205
2017_12_24_S10 12/24/2017 19:00:00 0.0114
2017_12_24_S10 12/24/2017 19:05:00 0.1141
2017_12_24_S10 12/24/2017 19:10:00 0.1258
2017_12_24_S10 12/24/2017 19:15:00 0.0826
2017_12_24_S10 12/24/2017 19:20:00 0.0359
2017_12_24_S10 12/24/2017 19:25:00 0.005
2017_12_24_S10 12/24/2017 19:30:00 0.0
2017_12_24_S10 12/24/2017 19:35:00 0.0224
2017_12_24_S10 12/24/2017 19:40:00 0.0079
2017_12_24_S10 12/24/2017 19:45:00 0.0007
2017_12_24_S10 12/24/2017 19:50:00 0.0354
2017_12_24_S10 12/24/2017 19:55:00 0.15
2017_12_24_S10 12/24/2017 20:00:00 0.1222
2017_12_24_S10 12/24/2017 20:05:00 0.0544
2017_12_24_S10 12/24/2017 20:10:00 0.0069
2017_12_24_S10 12/24/2017 20:15:00 0.0045
2017_12_24_S10 12/24/2017 20:20:00 0.0081
2017_12_24_S10 12/24/2017 20:25:00 0.0209
2017_12_24_S10 12/24/2017 20:30:00 0.0073
2017_12_24_S10 12/24/2017 20:35:00 0.0057
2017_12_24_S10 12/24/2017 20:40:00 0.005
2017_12_24_S10 12/24/2017 20:45:00 0.0
2017_12_24_S10 12/24/2017 20:50:00 0.0376
2017_12_24_S10 12/24/2017 20:55:00 0.0619
2017_12_24_S10 12/24/2017 21:00:00 0.0226
2017_12_24_S10 12/24/2017 21:05:00 0.0203
2017_12_24_S10 12/24/2017 21:10:00 0.0192
2017_12_24_S10 12/24/2017 21:15:00 0.018
2017_12_24_S10 12/24/2017 21:20:00 0.0948
2017_12_24_S10 12/24/2017 21:25:00 0.0001
2017_12_24_S10 12/24/2017 21:30:00 0.0006
2017_12_24_S10 12/24/2017 21:35:00 0.0042
2017_12_24_S10 12/24/2017 21:40:00 0.048
2017_12_24_S10 12/24/2017 21:45:00 0.0614
2017_12_24_S10 12/24/2017 21:50:00 0.0134
2017_12_24_S10 12/24/2017 21:55:00 0.12
2017_12_24_S10 12/24/2017 22:00:00 0.169
2017_12_24_S10 12/24/2017 22:05:00 0.0854
2017_12_24_S10 12/24/2017 22:10:00 0.0147
2017_12_24_S10 12/24/2017 22:15:00 0.0054
2017_12_24_S10 12/24/2017 22:20:00 0.0203
2017_12_24_S10 12/24/2017 22:25:00 0.3833
2017_12_24_S10 12/24/2017 22:30:00 0.0467
2017_12_24_S10 12/24/2017 22:35:00 0.0306
2017_12_24_S10 12/24/2017 22:40:00 0.1566
2017_12_24_S10 12/24/2017 22:45:00 0.0381
2017_12_24_S10 12/24/2017 22:50:00 0.0458
2017_12_24_S10 12/24/2017 22:55:00 0.0531
2017_12_24_S10 12/24/2017 23:00:00 0.0964
2017_12_24_S10 12/24/2017 23:05:00 0.1055
2017_12_24_S10 12/24/2017 23:10:00 0.0999
2017_12_24_S10 12/24/2017 23:15:00 0.1343
2017_12_24_S10 12/24/2017 23:20:00 0.2868
2017_12_24_S10 12/24/2017 23:25:00 0.1251
2017_12_24_S10 12/24/2017 23:30:00 0.1449
2017_12_24_S10 12/24/2017 23:35:00 0.0001
2017_12_24_S10 12/24/2017 23:40:00 0.0063
2017_12_24_S10 12/24/2017 23:45:00 0.0117
2017_12_24_S10 12/24/2017 23:50:00 0.0
2017_12_24_S10 12/24/2017 23:55:00 0.0
2017_12_24_S10 12/25/2017 00:00:00 0.0
2017_12_24_S10 12/25/2017 00:05:00 0.0
2017_12_24_S10 12/25/2017 00:10:00 0.0156
2017_12_24_S10 12/25/2017 00:15:00 0.0893
2017_12_24_S10 12/25/2017 00:20:00 0.1252
2017_12_24_S10 12/25/2017 00:25:00 0.0
2017_12_24_S10 12/25/2017 00:30:00 0.0
2017_12_24_S10 12/25/2017 00:35:00 0.0
2017_12_24_S10 12/25/2017 00:40:00 0.0
2017_12_24_S10 12/25/2017 00:45:00 0.0
2017_12_24_S10 12/25/2017 00:50:00 0.0
2017_12_24_S10 12/25/2017 00:55:00 0.0
2017_12_24_S10 12/25/2017 01:00:00 0.0
2017_12_24_S10 12/25/2017 01:05:00 0.0
2017_12_24_S10 12/25/2017 01:10:00 0.411
2017_12_24_S10 12/25/2017 01:15:00 0.0
2017_12_24_S10 12/25/2017 01:20:00 0.0
2017_12_24_S10 12/25/2017 01:25:00 0.0
2017_12_24_S10 12/25/2017 01:30:00 0.0
2017_12_24_S10 12/25/2017 01:35:00 0.0
2017_12_24_S10 12/25/2017 01:40:00 0.0
2017_12_24_S10 12/25/2017 01:45:00 0.0
2017_12_24_S10 12/25/2017 01:50:00 0.0
2017_12_24_S10 12/25/2017 01:55:00 0.0005
2017_12_24_S10 12/25/2017 02:00:00 0.1561
2017_12_24_S10 12/25/2017 02:05:00 0.0193
2017_12_24_S10 12/25/2017 02:10:00 0.0
2017_12_24_S10 12/25/2017 02:15:00 0.0
2017_12_24_S10 12/25/2017 02:20:00 0.0936
2017_12_24_S10 12/25/2017 02:25:00 0.0
2017_12_24_S10 12/25/2017 02:30:00 0.0
2017_12_24_S10 12/25/2017 02:35:00 0.0
2017_12_24_S10 12/25/2017 02:40:00 0.0
2017_12_24_S10 12/25/2017 02:45:00 0.0
2017_12_24_S10 12/25/2017 02:50:00 0.0
2017_12_24_S10 12/25/2017 02:55:00 0.0062
2017_12_24_S10 12/25/2017 03:00:00 0.0
2017_12_24_S10 12/25/2017 03:05:00 0.0
2017_12_24_S10 12/25/2017 03:10:00 0.0
2017_12_24_S10 12/25/2017 03:15:00 0.0
2017_12_24_S10 12/25/2017 03:20:00 0.0
2017_12_24_S10 12/25/2017 03:25:00 0.2047
2017_12_24_S10 12/25/2017 03:30:00 0.0596
2017_12_24_S10 12/25/2017 03:35:00 0.0
2017_12_24_S10 12/25/2017 03:40:00 0.0129
2017_12_24_S10 12/25/2017 03:45:00 0.0
2017_12_24_S10 12/25/2017 03:50:00 0.0
2017_12_24_S10 12/25/2017 03:55:00 0.0
2017_12_24_S10 12/25/2017 04:00:00 0.0
2017_12_24_S10 12/25/2017 04:05:00 0.0
2017_12_24_S10 12/25/2017 04:10:00 0.0
2017_12_24_S10 12/25/2017 04:15:00 0.0
2017_12_24_S10 12/25/2017 04:20:00 0.0
2017_12_24_S10 12/25/2017 04:25:00 0.0
2017_12_24_S10 12/25/2017 04:30:00 0.0
2017_12_24_S10 12/25/2017 04:35:00 0.0
2017_12_24_S10 12/25/2017 04:40:00 0.0
2017_12_24_S10 12/25/2017 04:45:00 0.0154
2017_12_24_S10 12/25/2017 04:50:00 0.3016
2017_12_24_S10 12/25/2017 04:55:00 2.3677
2017_12_24_S10 12/25/2017 05:00:00 0.3725
2017_12_24_S10 12/25/2017 05:05:00 0.4226
2017_12_24_S10 12/25/2017 05:10:00 0.0
2017_12_24_S10 12/25/2017 05:15:00 0.0
2017_12_24_S10 12/25/2017 05:20:00 0.0055
2017_12_24_S10 12/25/2017 05:25:00 0.1
2017_12_24_S10 12/25/2017 05:30:00 0.1043
2017_12_24_S10 12/25/2017 05:35:00 0.0061
2017_12_24_S10 12/25/2017 05:40:00 0.1969
2017_12_24_S10 12/25/2017 05:45:00 0.2653
2017_12_24_S10 12/25/2017 05:50:00 0.1677
2017_12_24_S10 12/25/2017 05:55:00 0.0006
2017_12_24_S10 12/25/2017 06:00:00 0.2806
2017_12_24_S10 12/25/2017 06:05:00 0.1604
2017_12_24_S10 12/25/2017 06:10:00 0.0475
2017_12_24_S10 12/25/2017 06:15:00 0.0031
2017_12_24_S10 12/25/2017 06:20:00 0.0
2017_12_24_S10 12/25/2017 06:25:00 0.0
2017_12_24_S10 12/25/2017 06:30:00 0.0
2017_12_24_S10 12/25/2017 06:35:00 0.0
2017_12_24_S10 12/25/2017 06:40:00 0.0
2017_12_24_S10 12/25/2017 06:45:00 0.0
2017_12_24_S10 12/25/2017 06:50:00 0.0
2017_12_24_S10 12/25/2017 06:55:00 0.0
2017_12_24_S10 12/25/2017 07:00:00 0.0
2017_12_24_S10 12/25/2017 07:05:00 0.0
2017_12_24_S10 12/25/2017 07:10:00 0.0
2017_12_24_S10 12/25/2017 07:15:00 0.0
2017_12_24_S10 12/25/2017 07:20:00 0.0
2017_12_24_S10 12/25/2017 07:25:00 0.0
2017_12_24_S10 12/25/2017 07:30:00 0.0
2017_12_24_S10 12/25/2017 07:35:00 0.0
2017_12_24_S10 12/25/2017 07:40:00 0.0
2017_12_24_S10 12/25/2017 07:45:00 0.0
2017_12_24_S10 12/25/2017 07:50:00 0.0
2017_12_24_S10 12/25/2017 07:55:00 0.0
2017_12_24_S10 12/25/2017 08:00:00 0.0

2017_12_24_S11 12/24/2017 12:10:00 0.015
2017_12_24_S11 12/24/2017 12:15:00 0.0078
2017_12_24_S11 12/24/2017 12:20:00 0.1208
2017_12_24_S11 12/24/2017 12:25:00 1.2488
2017_12_24_S11 12/24/2017 12:30:00 2.406
2017_12_24_S11 12/24/2017 12:35:00 6.7208
2017_12_24_S11 12/24/2017 12:40:00 3.1431
2017_12_24_S11 12/24/2017 12:45:00 1.0346
2017_12_24_S11 12/24/2017 12:50:00 2.866
2017_12_24_S11 12/24/2017 12:55:00 0.7828
2017_12_24_S11 12/24/2017 13:00:00 0.0375
2017_12_24_S11 12/24/2017 13:05:00 0.0209
2017_12_24_S11 12/24/2017 13:10:00 0.044
2017_12_24_S11 12/24/2017 13:15:00 0.0823
2017_12_24_S11 12/24/2017 13:20:00 0.0611
2017_12_24_S11 12/24/2017 13:25:00 0.3981
2017_12_24_S11 12/24/2017 13:30:00 0.0495
2017_12_24_S11 12/24/2017 13:35:00 0.0039
2017_12_24_S11 12/24/2017 13:40:00 0.0038
2017_12_24_S11 12/24/2017 13:45:00 0.0019
2017_12_24_S11 12/24/2017 13:50:00 0.0
2017_12_24_S11 12/24/2017 13:55:00 0.0
2017_12_24_S11 12/24/2017 14:00:00 0.0
2017_12_24_S11 12/24/2017 14:05:00 0.0
2017_12_24_S11 12/24/2017 14:10:00 0.0
2017_12_24_S11 12/24/2017 14:15:00 0.0
2017_12_24_S11 12/24/2017 14:20:00 0.0
2017_12_24_S11 12/24/2017 14:25:00 0.0
2017_12_24_S11 12/24/2017 14:30:00 0.0
2017_12_24_S11 12/24/2017 14:35:00 0.0
2017_12_24_S11 12/24/2017 14:40:00 0.0
2017_12_24_S11 12/24/2017 14:45:00 0.0
2017_12_24_S11 12/24/2017 14:50:00 0.0
2017_12_24_S11 12/24/2017 14:55:00 0.0
2017_12_24_S11 12/24/2017 15:00:00 0.0
2017_12_24_S11 12/24/2017 15:05:00 0.0
2017_12_24_S11 12/24/2017 15:10:00 0.0088
2017_12_24_S11 12/24/2017 15:15:00 0.0
2017_12_24_S11 12/24/2017 15:20:00 0.0075
2017_12_24_S11 12/24/2017 15:25:00 0.0883
2017_12_24_S11 12/24/2017 15:30:00 0.1531
2017_12_24_S11 12/24/2017 15:35:00 0.9836
2017_12_24_S11 12/24/2017 15:40:00 0.1666
2017_12_24_S11 12/24/2017 15:45:00 0.0
2017_12_24_S11 12/24/2017 15:50:00 0.0
2017_12_24_S11 12/24/2017 15:55:00 0.1077
2017_12_24_S11 12/24/2017 16:00:00 1.1117
2017_12_24_S11 12/24/2017 16:05:00 0.443
2017_12_24_S11 12/24/2017 16:10:00 0.0
2017_12_24_S11 12/24/2017 16:15:00 0.0
2017_12_24_S11 12/24/2017 16:20:00 0.1057
2017_12_24_S11 12/24/2017 16:25:00 0.1045
2017_12_24_S11 12/24/2017 16:30:00 0.0272
2017_12_24_S11 12/24/2017 16:35:00 0.124
2017_12_24_S11 12/24/2017 16:40:00 0.104
2017_12_24_S11 12/24/2017 16:45:00 0.0585
2017_12_24_S11 12/24/2017 16:50:00 0.013
2017_12_24_S11 12/24/2017 16:55:00 0.0403
2017_12_24_S11 12/24/2017 17:00:00 0.0
2017_12_24_S11 12/24/2017 17:05:00 0.015
2017_12_24_S11 12/24/2017 17:10:00 0.0634
2017_12_24_S11 12/24/2017 17:15:00 0.0463
2017_12_24_S11 12/24/2017 17:20:00 0.0175
2017_12_24_S11 12/24/2017 17:25:00 0.0476
2017_12_24_S11 12/24/2017 17:30:00 0.2027
2017_12_24_S11 12/24/2017 17:35:00 0.1802
2017_12_24_S11 12/24/2017 17:40:00 0.1785
2017_12_24_S11 12/24/2017 17:45:00 0.0313
2017_12_24_S11 12/24/2017 17:50:00 0.0104
2017_12_24_S11 12/24/2017 17:55:00 0.0387
2017_12_24_S11 12/24/2017 18:00:00 0.067
2017_12_24_S11 12/24/2017 18:05:00 0.0092
2017_12_24_S11 12/24/2017 18:10:00 0.3269
2017_12_24_S11 12/24/2017 18:15:00 0.0602
2017_12_24_S11 12/24/2017 18:20:00 0.0521
2017_12_24_S11 12/24/2017 18:25:00 0.0081
2017_12_24_S11 12/24/2017 18:30:00 0.0081
2017_12_24_S11 12/24/2017 18:35:00 0.0055
2017_12_24_S11 12/24/2017 18:40:00 0.0
2017_12_24_S11 12/24/2017 18:45:00 0.0
2017_12_24_S11 12/24/2017 18:50:00 0.0
2017_12_24_S11 12/24/2017 18:55:00 0.0182
2017_12_24_S11 12/24/2017 19:00:00 0.0044
2017_12_24_S11 12/24/2017 19:05:00 0.091
2017_12_24_S11 12/24/2017 19:10:00 0.1785
2017_12_24_S11 12/24/2017 19:15:00 0.0981
2017_12_24_S11 12/24/2017 19:20:00 0.0256
2017_12_24_S11 12/24/2017 19:25:00 0.0065
2017_12_24_S11 12/24/2017 19:30:00 0.0
2017_12_24_S11 12/24/2017 19:35:00 0.0153
2017_12_24_S11 12/24/2017 19:40:00 0.0124
2017_12_24_S11 12/24/2017 19:45:00 0.0023
2017_12_24_S11 12/24/2017 19:50:00 0.0446
2017_12_24_S11 12/24/2017 19:55:00 0.133
2017_12_24_S11 12/24/2017 20:00:00 0.098
2017_12_24_S11 12/24/2017 20:05:00 0.0524
2017_12_24_S11 12/24/2017 20:10:00 0.0067
2017_12_24_S11 12/24/2017 20:15:00 0.0001
2017_12_24_S11 12/24/2017 20:20:00 0.0057
2017_12_24_S11 12/24/2017 20:25:00 0.0186
2017_12_24_S11 12/24/2017 20:30:00 0.0084
2017_12_24_S11 12/24/2017 20:35:00 0.0034
2017_12_24_S11 12/24/2017 20:40:00 0.0033
2017_12_24_S11 12/24/2017 20:45:00 0.0
2017_12_24_S11 12/24/2017 20:50:00 0.0218
2017_12_24_S11 12/24/2017 20:55:00 0.049
2017_12_24_S11 12/24/2017 21:00:00 0.0244
2017_12_24_S11 12/24/2017 21:05:00 0.0189
2017_12_24_S11 12/24/2017 21:10:00 0.0207
2017_12_24_S11 12/24/2017 21:15:00 0.0225
2017_12_24_S11 12/24/2017 21:20:00 0.0978
2017_12_24_S11 12/24/2017 21:25:00 0.0033
2017_12_24_S11 12/24/2017 21:30:00 0.0053
2017_12_24_S11 12/24/2017 21:35:00 0.0072
2017_12_24_S11 12/24/2017 21:40:00 0.0367
2017_12_24_S11 12/24/2017 21:45:00 0.0932
2017_12_24_S11 12/24/2017 21:50:00 0.0603
2017_12_24_S11 12/24/2017 21:55:00 0.2164
2017_12_24_S11 12/24/2017 22:00:00 0.1726
2017_12_24_S11 12/24/2017 22:05:00 0.0488
2017_12_24_S11 12/24/2017 22:10:00 0.0294
2017_12_24_S11 12/24/2017 22:15:00 0.0017
2017_12_24_S11 12/24/2017 22:20:00 0.0164
2017_12_24_S11 12/24/2017 22:25:00 0.465
2017_12_24_S11 12/24/2017 22:30:00 0.0575
2017_12_24_S11 12/24/2017 22:35:00 0.0409
2017_12_24_S11 12/24/2017 22:40:00 0.1741
2017_12_24_S11 12/24/2017 22:45:00 0.0816
2017_12_24_S11 12/24/2017 22:50:00 0.0614
2017_12_24_S11 12/24/2017 22:55:00 0.063
2017_12_24_S11 12/24/2017 23:00:00 0.0865
2017_12_24_S11 12/24/2017 23:05:00 0.1783
2017_12_24_S11 12/24/2017 23:10:00 0.0784
2017_12_24_S11 12/24/2017 23:15:00 0.117
2017_12_24_S11 12/24/2017 23:20:00 0.2994
2017_12_24_S11 12/24/2017 23:25:00 0.1023
2017_12_24_S11 12/24/2017 23:30:00 0.1289
2017_12_24_S11 12/24/2017 23:35:00 0.0051
2017_12_24_S11 12/24/2017 23:40:00 0.0054
2017_12_24_S11 12/24/2017 23:45:00 0.0066
2017_12_24_S11 12/24/2017 23:50:00 0.0
2017_12_24_S11 12/24/2017 23:55:00 0.0
2017_12_24_S11 12/25/2017 00:00:00 0.0
2017_12_24_S11 12/25/2017 00:05:00 0.0
2017_12_24_S11 12/25/2017 00:10:00 0.0148
2017_12_24_S11 12/25/2017 00:15:00 0.0386
2017_12_24_S11 12/25/2017 00:20:00 0.1481
2017_12_24_S11 12/25/2017 00:25:00 0.0
2017_12_24_S11 12/25/2017 00:30:00 0.0
2017_12_24_S11 12/25/2017 00:35:00 0.0
2017_12_24_S11 12/25/2017 00:40:00 0.0
2017_12_24_S11 12/25/2017 00:45:00 0.0
2017_12_24_S11 12/25/2017 00:50:00 0.0
2017_12_24_S11 12/25/2017 00:55:00 0.0
2017_12_24_S11 12/25/2017 01:00:00 0.0
2017_12_24_S11 12/25/2017 01:05:00 0.0
2017_12_24_S11 12/25/2017 01:10:00 0.2326
2017_12_24_S11 12/25/2017 01:15:00 0.0
2017_12_24_S11 12/25/2017 01:20:00 0.0
2017_12_24_S11 12/25/2017 01:25:00 0.0
2017_12_24_S11 12/25/2017 01:30:00 0.0
2017_12_24_S11 12/25/2017 01:35:00 0.0
2017_12_24_S11 12/25/2017 01:40:00 0.0
2017_12_24_S11 12/25/2017 01:45:00 0.0
2017_12_24_S11 12/25/2017 01:50:00 0.0013
2017_12_24_S11 12/25/2017 01:55:00 0.0
2017_12_24_S11 12/25/2017 02:00:00 0.1215
2017_12_24_S11 12/25/2017 02:05:00 0.012
2017_12_24_S11 12/25/2017 02:10:00 0.0
2017_12_24_S11 12/25/2017 02:15:00 0.0
2017_12_24_S11 12/25/2017 02:20:00 0.1209
2017_12_24_S11 12/25/2017 02:25:00 0.0074
2017_12_24_S11 12/25/2017 02:30:00 0.0
2017_12_24_S11 12/25/2017 02:35:00 0.0
2017_12_24_S11 12/25/2017 02:40:00 0.0
2017_12_24_S11 12/25/2017 02:45:00 0.0
2017_12_24_S11 12/25/2017 02:50:00 0.0
2017_12_24_S11 12/25/2017 02:55:00 0.0178
2017_12_24_S11 12/25/2017 03:00:00 0.0
2017_12_24_S11 12/25/2017 03:05:00 0.0
2017_12_24_S11 12/25/2017 03:10:00 0.0
2017_12_24_S11 12/25/2017 03:15:00 0.0
2017_12_24_S11 12/25/2017 03:20:00 0.0
2017_12_24_S11 12/25/2017 03:25:00 0.1619
2017_12_24_S11 12/25/2017 03:30:00 0.0336
2017_12_24_S11 12/25/2017 03:35:00 0.0
2017_12_24_S11 12/25/2017 03:40:00 0.0423
2017_12_24_S11 12/25/2017 03:45:00 0.0
2017_12_24_S11 12/25/2017 03:50:00 0.0
2017_12_24_S11 12/25/2017 03:55:00 0.0
2017_12_24_S11 12/25/2017 04:00:00 0.0
2017_12_24_S11 12/25/2017 04:05:00 0.0
2017_12_24_S11 12/25/2017 04:10:00 0.0
2017_12_24_S11 12/25/2017 04:15:00 0.0
2017_12_24_S11 12/25/2017 04:20:00 0.0
2017_12_24_S11 12/25/2017 04:25:00 0.0
2017_12_24_S11 12/25/2017 04:30:00 0.0
2017_12_24_S11 12/25/2017 04:35:00 0.0
2017_12_24_S11 12/25/2017 04:40:00 0.0
2017_12_24_S11 12/25/2017 04:45:00 0.0033
2017_12_24_S11 12/25/2017 04:50:00 0.2704
2017_12_24_S11 12/25/2017 04:55:00 3.4074
2017_12_24_S11 12/25/2017 05:00:00 0.4169
2017_12_24_S11 12/25/2017 05:05:00 0.4831
2017_12_24_S11 12/25/2017 05:10:00 0.0027
2017_12_24_S11 12/25/2017 05:15:00 0.0
2017_12_24_S11 12/25/2017 05:20:00 0.0148
2017_12_24_S11 12/25/2017 05:25:00 0.0719
2017_12_24_S11 12/25/2017 05:30:00 0.023
2017_12_24_S11 12/25/2017 05:35:00 0.0073
2017_12_24_S11 12/25/2017 05:40:00 0.0844
2017_12_24_S11 12/25/2017 05:45:00 0.5896
2017_12_24_S11 12/25/2017 05:50:00 0.3369
2017_12_24_S11 12/25/2017 05:55:00 0.0
2017_12_24_S11 12/25/2017 06:00:00 0.2577
2017_12_24_S11 12/25/2017 06:05:00 0.2856
2017_12_24_S11 12/25/2017 06:10:00 0.0379
2017_12_24_S11 12/25/2017 06:15:00 0.0001
2017_12_24_S11 12/25/2017 06:20:00 0.0
2017_12_24_S11 12/25/2017 06:25:00 0.0
2017_12_24_S11 12/25/2017 06:30:00 0.0
2017_12_24_S11 12/25/2017 06:35:00 0.0
2017_12_24_S11 12/25/2017 06:40:00 0.0
2017_12_24_S11 12/25/2017 06:45:00 0.0
2017_12_24_S11 12/25/2017 06:50:00 0.0
2017_12_24_S11 12/25/2017 06:55:00 0.0
2017_12_24_S11 12/25/2017 07:00:00 0.0
2017_12_24_S11 12/25/2017 07:05:00 0.0
2017_12_24_S11 12/25/2017 07:10:00 0.0
2017_12_24_S11 12/25/2017 07:15:00 0.0
2017_12_24_S11 12/25/2017 07:20:00 0.0
2017_12_24_S11 12/25/2017 07:25:00 0.0
2017_12_24_S11 12/25/2017 07:30:00 0.0
2017_12_24_S11 12/25/2017 07:35:00 0.0
2017_12_24_S11 12/25/2017 07:40:00 0.0
2017_12_24_S11 12/25/2017 07:45:00 0.0
2017_12_24_S11 12/25/2017 07:50:00 0.0
2017_12_24_S11 12/25/2017 07:55:00 0.0
2017_12_24_S11 12/25/2017 08:00:00 0.0

2017_12_24_S12 12/24/2017 12:10:00 0.0032
2017_12_24_S12 12/24/2017 12:15:00 0.0047
2017_12_24_S12 12/24/2017 12:20:00 0.0433
2017_12_24_S12 12/24/2017 12:25:00 0.0576
2017_12_24_S12 12/24/2017 12:30:00 0.1593
2017_12_24_S12 12/24/2017 12:35:00 1.0179
2017_12_24_S12 12/24/2017 12:40:00 0.6001
2017_12_24_S12 12/24/2017 12:45:00 0.5574
2017_12_24_S12 12/24/2017 12:50:00 2.9032
2017_12_24_S12 12/24/2017 12:55:00 0.8806
2017_12_24_S12 12/24/2017 13:00:00 0.0306
2017_12_24_S12 12/24/2017 13:05:00 0.0284
2017_12_24_S12 12/24/2017 13:10:00 0.058
2017_12_24_S12 12/24/2017 13:15:00 0.1427
2017_12_24_S12 12/24/2017 13:20:00 0.0801
2017_12_24_S12 12/24/2017 13:25:00 0.2957
2017_12_24_S12 12/24/2017 13:30:00 0.08
2017_12_24_S12 12/24/2017 13:35:00 0.0025
2017_12_24_S12 12/24/2017 13:40:00 0.0061
2017_12_24_S12 12/24/2017 13:45:00 0.003
2017_12_24_S12 12/24/2017 13:50:00 0.0
2017_12_24_S12 12/24/2017 13:55:00 0.0
2017_12_24_S12 12/24/2017 14:00:00 0.0
2017_12_24_S12 12/24/2017 14:05:00 0.0
2017_12_24_S12 12/24/2017 14:10:00 0.0
2017_12_24_S12 12/24/2017 14:15:00 0.0
2017_12_24_S12 12/24/2017 14:20:00 0.0
2017_12_24_S12 12/24/2017 14:25:00 0.0
2017_12_24_S12 12/24/2017 14:30:00 0.0
2017_12_24_S12 12/24/2017 14:35:00 0.0
2017_12_24_S12 12/24/2017 14:40:00 0.0
2017_12_24_S12 12/24/2017 14:45:00 0.0
2017_12_24_S12 12/24/2017 14:50:00 0.0
2017_12_24_S12 12/24/2017 14:55:00 0.0
2017_12_24_S12 12/24/2017 15:00:00 0.0
2017_12_24_S12 12/24/2017 15:05:00 0.0
2017_12_24_S12 12/24/2017 15:10:00 0.0038
2017_12_24_S12 12/24/2017 15:15:00 0.0
2017_12_24_S12 12/24/2017 15:20:00 0.0088
2017_12_24_S12 12/24/2017 15:25:00 0.067
2017_12_24_S12 12/24/2017 15:30:00 0.1849
2017_12_24_S12 12/24/2017 15:35:00 1.0594
2017_12_24_S12 12/24/2017 15:40:00 0.1252
2017_12_24_S12 12/24/2017 15:45:00 0.0
2017_12_24_S12 12/24/2017 15:50:00 0.0
2017_12_24_S12 12/24/2017 15:55:00 0.0203
2017_12_24_S12 12/24/2017 16:00:00 1.1686
2017_12_24_S12 12/24/2017 16:05:00 0.5166
2017_12_24_S12 12/24/2017 16:10:00 0.0
2017_12_24_S12 12/24/2017 16:15:00 0.0
2017_12_24_S12 12/24/2017 16:20:00 0.0878
2017_12_24_S12 12/24/2017 16:25:00 0.1162
2017_12_24_S12 12/24/2017 16:30:00 0.0755
2017_12_24_S12 12/24/2017 16:35:00 0.1632
2017_12_24_S12 12/24/2017 16:40:00 0.0701
2017_12_24_S12 12/24/2017 16:45:00 0.0436
2017_12_24_S12 12/24/2017 16:50:00 0.0171
2017_12_24_S12 12/24/2017 16:55:00 0.0223
2017_12_24_S12 12/24/2017 17:00:00 0.0
2017_12_24_S12 12/24/2017 17:05:00 0.0369
2017_12_24_S12 12/24/2017 17:10:00 0.0719
2017_12_24_S12 12/24/2017 17:15:00 0.0444
2017_12_24_S12 12/24/2017 17:20:00 0.0189
2017_12_24_S12 12/24/2017 17:25:00 0.1279
2017_12_24_S12 12/24/2017 17:30:00 0.223
2017_12_24_S12 12/24/2017 17:35:00 0.1711
2017_12_24_S12 12/24/2017 17:40:00 0.1421
2017_12_24_S12 12/24/2017 17:45:00 0.0546
2017_12_24_S12 12/24/2017 17:50:00 0.0082
2017_12_24_S12 12/24/2017 17:55:00 0.0383
2017_12_24_S12 12/24/2017 18:00:00 0.0639
2017_12_24_S12 12/24/2017 18:05:00 0.0037
2017_12_24_S12 12/24/2017 18:10:00 0.2404
2017_12_24_S12 12/24/2017 18:15:00 0.0413
2017_12_24_S12 12/24/2017 18:20:00 0.0732
2017_12_24_S12 12/24/2017 18:25:00 0.0045
2017_12_24_S12 12/24/2017 18:30:00 0.0144
2017_12_24_S12 12/24/2017 18:35:00 0.0033
2017_12_24_S12 12/24/2017 18:40:00 0.0
2017_12_24_S12 12/24/2017 18:45:00 0.0
2017_12_24_S12 12/24/2017 18:50:00 0.0
2017_12_24_S12 12/24/2017 18:55:00 0.0207
2017_12_24_S12 12/24/2017 19:00:00 0.0093
2017_12_24_S12 12/24/2017 19:05:00 0.0985
2017_12_24_S12 12/24/2017 19:10:00 0.2192
2017_12_24_S12 12/24/2017 19:15:00 0.1015
2017_12_24_S12 12/24/2017 19:20:00 0.0152
2017_12_24_S12 12/24/2017 19:25:00 0.0015
2017_12_24_S12 12/24/2017 19:30:00 0.0
2017_12_24_S12 12/24/2017 19:35:00 0.0225
2017_12_24_S12 12/24/2017 19:40:00 0.0106
2017_12_24_S12 12/24/2017 19:45:00 0.0043
2017_12_24_S12 12/24/2017 19:50:00 0.051
2017_12_24_S12 12/24/2017 19:55:00 0.1031
2017_12_24_S12 12/24/2017 20:00:00 0.1209
2017_12_24_S12 12/24/2017 20:05:00 0.0314
2017_12_24_S12 12/24/2017 20:10:00 0.0066
2017_12_24_S12 12/24/2017 20:15:00 0.0
2017_12_24_S12 12/24/2017 20:20:00 0.0034
2017_12_24_S12 12/24/2017 20:25:00 0.0114
2017_12_24_S12 12/24/2017 20:30:00 0.0053
2017_12_24_S12 12/24/2017 20:35:00 0.0056
2017_12_24_S12 12/24/2017 20:40:00 0.0055
2017_12_24_S12 12/24/2017 20:45:00 0.0
2017_12_24_S12 12/24/2017 20:50:00 0.0206
2017_12_24_S12 12/24/2017 20:55:00 0.0461
2017_12_24_S12 12/24/2017 21:00:00 0.0382
2017_12_24_S12 12/24/2017 21:05:00 0.0168
2017_12_24_S12 12/24/2017 21:10:00 0.0222
2017_12_24_S12 12/24/2017 21:15:00 0.0277
2017_12_24_S12 12/24/2017 21:20:00 0.09
2017_12_24_S12 12/24/2017 21:25:00 0.0068
2017_12_24_S12 12/24/2017 21:30:00 0.0074
2017_12_24_S12 12/24/2017 21:35:00 0.019
2017_12_24_S12 12/24/2017 21:40:00 0.0356
2017_12_24_S12 12/24/2017 21:45:00 0.038
2017_12_24_S12 12/24/2017 21:50:00 0.0376
2017_12_24_S12 12/24/2017 21:55:00 0.3437
2017_12_24_S12 12/24/2017 22:00:00 0.1518
2017_12_24_S12 12/24/2017 22:05:00 0.0481
2017_12_24_S12 12/24/2017 22:10:00 0.0664
2017_12_24_S12 12/24/2017 22:15:00 0.0017
2017_12_24_S12 12/24/2017 22:20:00 0.013
2017_12_24_S12 12/24/2017 22:25:00 0.5684
2017_12_24_S12 12/24/2017 22:30:00 0.0713
2017_12_24_S12 12/24/2017 22:35:00 0.082
2017_12_24_S12 12/24/2017 22:40:00 0.1904
2017_12_24_S12 12/24/2017 22:45:00 0.1281
2017_12_24_S12 12/24/2017 22:50:00 0.0787
2017_12_24_S12 12/24/2017 22:55:00 0.0545
2017_12_24_S12 12/24/2017 23:00:00 0.0704
2017_12_24_S12 12/24/2017 23:05:00 0.2901
2017_12_24_S12 12/24/2017 23:10:00 0.0685
2017_12_24_S12 12/24/2017 23:15:00 0.0847
2017_12_24_S12 12/24/2017 23:20:00 0.3974
2017_12_24_S12 12/24/2017 23:25:00 0.1035
2017_12_24_S12 12/24/2017 23:30:00 0.088
2017_12_24_S12 12/24/2017 23:35:00 0.0065
2017_12_24_S12 12/24/2017 23:40:00 0.0
2017_12_24_S12 12/24/2017 23:45:00 0.0061
2017_12_24_S12 12/24/2017 23:50:00 0.0
2017_12_24_S12 12/24/2017 23:55:00 0.0
2017_12_24_S12 12/25/2017 00:00:00 0.0
2017_12_24_S12 12/25/2017 00:05:00 0.0
2017_12_24_S12 12/25/2017 00:10:00 0.031
2017_12_24_S12 12/25/2017 00:15:00 0.0225
2017_12_24_S12 12/25/2017 00:20:00 0.1291
2017_12_24_S12 12/25/2017 00:25:00 0.0
2017_12_24_S12 12/25/2017 00:30:00 0.0
2017_12_24_S12 12/25/2017 00:35:00 0.0
2017_12_24_S12 12/25/2017 00:40:00 0.0
2017_12_24_S12 12/25/2017 00:45:00 0.0
2017_12_24_S12 12/25/2017 00:50:00 0.0
2017_12_24_S12 12/25/2017 00:55:00 0.0
2017_12_24_S12 12/25/2017 01:00:00 0.0
2017_12_24_S12 12/25/2017 01:05:00 0.0
2017_12_24_S12 12/25/2017 01:10:00 0.0775
2017_12_24_S12 12/25/2017 01:15:00 0.0
2017_12_24_S12 12/25/2017 01:20:00 0.0
2017_12_24_S12 12/25/2017 01:25:00 0.0
2017_12_24_S12 12/25/2017 01:30:00 0.0
2017_12_24_S12 12/25/2017 01:35:00 0.0
2017_12_24_S12 12/25/2017 01:40:00 0.0
2017_12_24_S12 12/25/2017 01:45:00 0.0
2017_12_24_S12 12/25/2017 01:50:00 0.0005
2017_12_24_S12 12/25/2017 01:55:00 0.0
2017_12_24_S12 12/25/2017 02:00:00 0.0714
2017_12_24_S12 12/25/2017 02:05:00 0.0005
2017_12_24_S12 12/25/2017 02:10:00 0.0
2017_12_24_S12 12/25/2017 02:15:00 0.0
2017_12_24_S12 12/25/2017 02:20:00 0.1911
2017_12_24_S12 12/25/2017 02:25:00 0.0241
2017_12_24_S12 12/25/2017 02:30:00 0.0
2017_12_24_S12 12/25/2017 02:35:00 0.0
2017_12_24_S12 12/25/2017 02:40:00 0.0
2017_12_24_S12 12/25/2017 02:45:00 0.0
2017_12_24_S12 12/25/2017 02:50:00 0.0
2017_12_24_S12 12/25/2017 02:55:00 0.0035
2017_12_24_S12 12/25/2017 03:00:00 0.0
2017_12_24_S12 12/25/2017 03:05:00 0.0
2017_12_24_S12 12/25/2017 03:10:00 0.0
2017_12_24_S12 12/25/2017 03:15:00 0.0
2017_12_24_S12 12/25/2017 03:20:00 0.0
2017_12_24_S12 12/25/2017 03:25:00 0.1616
2017_12_24_S12 12/25/2017 03:30:00 0.0999
2017_12_24_S12 12/25/2017 03:35:00 0.0021
2017_12_24_S12 12/25/2017 03:40:00 0.2288
2017_12_24_S12 12/25/2017 03:45:00 0.0
2017_12_24_S12 12/25/2017 03:50:00 0.0
2017_12_24_S12 12/25/2017 03:55:00 0.0
2017_12_24_S12 12/25/2017 04:00:00 0.0
2017_12_24_S12 12/25/2017 04:05:00 0.0
2017_12_24_S12 12/25/2017 04:10:00 0.0
2017_12_24_S12 12/25/2017 04:15:00 0.0
2017_12_24_S12 12/25/2017 04:20:00 0.0
2017_12_24_S12 12/25/2017 04:25:00 0.0
2017_12_24_S12 12/25/2017 04:30:00 0.0
2017_12_24_S12 12/25/2017 04:35:00 0.0
2017_12_24_S12 12/25/2017 04:40:00 0.0
2017_12_24_S12 12/25/2017 04:45:00 0.0
2017_12_24_S12 12/25/2017 04:50:00 0.3928
2017_12_24_S12 12/25/2017 04:55:00 2.5065
2017_12_24_S12 12/25/2017 05:00:00 0.5704
2017_12_24_S12 12/25/2017 05:05:00 0.3724
2017_12_24_S12 12/25/2017 05:10:00 0.0541
2017_12_24_S12 12/25/2017 05:15:00 0.0
2017_12_24_S12 12/25/2017 05:20:00 0.0581
2017_12_24_S12 12/25/2017 05:25:00 0.11
2017_12_24_S12 12/25/2017 05:30:00 0.0
2017_12_24_S12 12/25/2017 05:35:00 0.0006
2017_12_24_S12 12/25/2017 05:40:00 0.0421
2017_12_24_S12 12/25/2017 05:45:00 1.0473
2017_12_24_S12 12/25/2017 05:50:00 0.2989
2017_12_24_S12 12/25/2017 05:55:00 0.0
2017_12_24_S12 12/25/2017 06:00:00 0.1426
2017_12_24_S12 12/25/2017 06:05:00 0.3016
2017_12_24_S12 12/25/2017 06:10:00 0.0323
2017_12_24_S12 12/25/2017 06:15:00 0.0
2017_12_24_S12 12/25/2017 06:20:00 0.0
2017_12_24_S12 12/25/2017 06:25:00 0.0
2017_12_24_S12 12/25/2017 06:30:00 0.0
2017_12_24_S12 12/25/2017 06:35:00 0.0
2017_12_24_S12 12/25/2017 06:40:00 0.0
2017_12_24_S12 12/25/2017 06:45:00 0.0
2017_12_24_S12 12/25/2017 06:50:00 0.0
2017_12_24_S12 12/25/2017 06:55:00 0.0
2017_12_24_S12 12/25/2017 07:00:00 0.0
2017_12_24_S12 12/25/2017 07:05:00 0.0
2017_12_24_S12 12/25/2017 07:10:00 0.0
2017_12_24_S12 12/25/2017 07:15:00 0.0
2017_12_24_S12 12/25/2017 07:20:00 0.0
2017_12_24_S12 12/25/2017 07:25:00 0.0
2017_12_24_S12 12/25/2017 07:30:00 0.0
2017_12_24_S12 12/25/2017 07:35:00 0.0
2017_12_24_S12 12/25/2017 07:40:00 0.0
2017_12_24_S12 12/25/2017 07:45:00 0.0
2017_12_24_S12 12/25/2017 07:50:00 0.0
2017_12_24_S12 12/25/2017 07:55:00 0.0
2017_12_24_S12 12/25/2017 08:00:00 0.0

2017_12_24_S13 12/24/2017 12:10:00 0.0047
2017_12_24_S13 12/24/2017 12:15:00 0.0424
2017_12_24_S13 12/24/2017 12:20:00 0.3019
2017_12_24_S13 12/24/2017 12:25:00 1.8376
2017_12_24_S13 12/24/2017 12:30:00 2.4568
2017_12_24_S13 12/24/2017 12:35:00 5.5973
2017_12_24_S13 12/24/2017 12:40:00 2.4422
2017_12_24_S13 12/24/2017 12:45:00 1.7223
2017_12_24_S13 12/24/2017 12:50:00 1.4706
2017_12_24_S13 12/24/2017 12:55:00 0.9081
2017_12_24_S13 12/24/2017 13:00:00 0.2107
2017_12_24_S13 12/24/2017 13:05:00 0.0151
2017_12_24_S13 12/24/2017 13:10:00 0.0254
2017_12_24_S13 12/24/2017 13:15:00 0.1029
2017_12_24_S13 12/24/2017 13:20:00 0.0982
2017_12_24_S13 12/24/2017 13:25:00 0.2539
2017_12_24_S13 12/24/2017 13:30:00 0.1841
2017_12_24_S13 12/24/2017 13:35:00 0.014
2017_12_24_S13 12/24/2017 13:40:00 0.0041
2017_12_24_S13 12/24/2017 13:45:00 0.002
2017_12_24_S13 12/24/2017 13:50:00 0.0
2017_12_24_S13 12/24/2017 13:55:00 0.0
2017_12_24_S13 12/24/2017 14:00:00 0.0
2017_12_24_S13 12/24/2017 14:05:00 0.0
2017_12_24_S13 12/24/2017 14:10:00 0.0
2017_12_24_S13 12/24/2017 14:15:00 0.0
2017_12_24_S13 12/24/2017 14:20:00 0.0
2017_12_24_S13 12/24/2017 14:25:00 0.0
2017_12_24_S13 12/24/2017 14:30:00 0.0
2017_12_24_S13 12/24/2017 14:35:00 0.0
2017_12_24_S13 12/24/2017 14:40:00 0.0
2017_12_24_S13 12/24/2017 14:45:00 0.0
2017_12_24_S13 12/24/2017 14:50:00 0.0
2017_12_24_S13 12/24/2017 14:55:00 0.0
2017_12_24_S13 12/24/2017 15:00:00 0.0
2017_12_24_S13 12/24/2017 15:05:00 0.0
2017_12_24_S13 12/24/2017 15:10:00 0.009
2017_12_24_S13 12/24/2017 15:15:00 0.0
2017_12_24_S13 12/24/2017 15:20:00 0.0038
2017_12_24_S13 12/24/2017 15:25:00 0.0659
2017_12_24_S13 12/24/2017 15:30:00 0.1323
2017_12_24_S13 12/24/2017 15:35:00 0.7502
2017_12_24_S13 12/24/2017 15:40:00 0.2257
2017_12_24_S13 12/24/2017 15:45:00 0.0
2017_12_24_S13 12/24/2017 15:50:00 0.0
2017_12_24_S13 12/24/2017 15:55:00 0.0456
2017_12_24_S13 12/24/2017 16:00:00 0.9033
2017_12_24_S13 12/24/2017 16:05:00 0.8344
2017_12_24_S13 12/24/2017 16:10:00 0.0
2017_12_24_S13 12/24/2017 16:15:00 0.0
2017_12_24_S13 12/24/2017 16:20:00 0.0912
2017_12_24_S13 12/24/2017 16:25:00 0.1405
2017_12_24_S13 12/24/2017 16:30:00 0.0359
2017_12_24_S13 12/24/2017 16:35:00 0.1536
2017_12_24_S13 12/24/2017 16:40:00 0.0635
2017_12_24_S13 12/24/2017 16:45:00 0.0365
2017_12_24_S13 12/24/2017 16:50:00 0.0095
2017_12_24_S13 12/24/2017 16:55:00 0.0419
2017_12_24_S13 12/24/2017 17:00:00 0.0
2017_12_24_S13 12/24/2017 17:05:00 0.0107
2017_12_24_S13 12/24/2017 17:10:00 0.0581
2017_12_24_S13 12/24/2017 17:15:00 0.0672
2017_12_24_S13 12/24/2017 17:20:00 0.0233
2017_12_24_S13 12/24/2017 17:25:00 0.0654
2017_12_24_S13 12/24/2017 17:30:00 0.1783
2017_12_24_S13 12/24/2017 17:35:00 0.212
2017_12_24_S13 12/24/2017 17:40:00 0.261
2017_12_24_S13 12/24/2017 17:45:00 0.0339
2017_12_24_S13 12/24/2017 17:50:00 0.0096
2017_12_24_S13 12/24/2017 17:55:00 0.0491
2017_12_24_S13 12/24/2017 18:00:00 0.0618
2017_12_24_S13 12/24/2017 18:05:00 0.0242
2017_12_24_S13 12/24/2017 18:10:00 0.5612
2017_12_24_S13 12/24/2017 18:15:00 0.1256
2017_12_24_S13 12/24/2017 18:20:00 0.0684
2017_12_24_S13 12/24/2017 18:25:00 0.0044
2017_12_24_S13 12/24/2017 18:30:00 0.0076
2017_12_24_S13 12/24/2017 18:35:00 0.0019
2017_12_24_S13 12/24/2017 18:40:00 0.0036
2017_12_24_S13 12/24/2017 18:45:00 0.0001
2017_12_24_S13 12/24/2017 18:50:00 0.0
2017_12_24_S13 12/24/2017 18:55:00 0.0016
2017_12_24_S13 12/24/2017 19:00:00 0.0035
2017_12_24_S13 12/24/2017 19:05:00 0.1115
2017_12_24_S13 12/24/2017 19:10:00 0.1748
2017_12_24_S13 12/24/2017 19:15:00 0.1435
2017_12_24_S13 12/24/2017 19:20:00 0.0426
2017_12_24_S13 12/24/2017 19:25:00 0.006
2017_12_24_S13 12/24/2017 19:30:00 0.0
2017_12_24_S13 12/24/2017 19:35:00 0.0234
2017_12_24_S13 12/24/2017 19:40:00 0.0192
2017_12_24_S13 12/24/2017 19:45:00 0.0
2017_12_24_S13 12/24/2017 19:50:00 0.0292
2017_12_24_S13 12/24/2017 19:55:00 0.0898
2017_12_24_S13 12/24/2017 20:00:00 0.1404
2017_12_24_S13 12/24/2017 20:05:00 0.0487
2017_12_24_S13 12/24/2017 20:10:00 0.0067
2017_12_24_S13 12/24/2017 20:15:00 0.0007
2017_12_24_S13 12/24/2017 20:20:00 0.0026
2017_12_24_S13 12/24/2017 20:25:00 0.022
2017_12_24_S13 12/24/2017 20:30:00 0.0189
2017_12_24_S13 12/24/2017 20:35:00 0.0033
2017_12_24_S13 12/24/2017 20:40:00 0.005
2017_12_24_S13 12/24/2017 20:45:00 0.0008
2017_12_24_S13 12/24/2017 20:50:00 0.0159
2017_12_24_S13 12/24/2017 20:55:00 0.0604
2017_12_24_S13 12/24/2017 21:00:00 0.0293
2017_12_24_S13 12/24/2017 21:05:00 0.0197
2017_12_24_S13 12/24/2017 21:10:00 0.0248
2017_12_24_S13 12/24/2017 21:15:00 0.0299
2017_12_24_S13 12/24/2017 21:20:00 0.0943
2017_12_24_S13 12/24/2017 21:25:00 0.0065
2017_12_24_S13 12/24/2017 21:30:00 0.0088
2017_12_24_S13 12/24/2017 21:35:00 0.0041
2017_12_24_S13 12/24/2017 21:40:00 0.0237
2017_12_24_S13 12/24/2017 21:45:00 0.193
2017_12_24_S13 12/24/2017 21:50:00 0.1013
2017_12_24_S13 12/24/2017 21:55:00 0.2368
2017_12_24_S13 12/24/2017 22:00:00 0.3757
2017_12_24_S13 12/24/2017 22:05:00 0.0339
2017_12_24_S13 12/24/2017 22:10:00 0.0317
2017_12_24_S13 12/24/2017 22:15:00 0.003
2017_12_24_S13 12/24/2017 22:20:00 0.008
2017_12_24_S13 12/24/2017 22:25:00 0.4157
2017_12_24_S13 12/24/2017 22:30:00 0.1366
2017_12_24_S13 12/24/2017 22:35:00 0.0351
2017_12_24_S13 12/24/2017 22:40:00 0.1829
2017_12_24_S13 12/24/2017 22:45:00 0.1609
2017_12_24_S13 12/24/2017 22:50:00 0.0767
2017_12_24_S13 12/24/2017 22:55:00 0.0703
2017_12_24_S13 12/24/2017 23:00:00 0.0653
2017_12_24_S13 12/24/2017 23:05:00 0.2651
2017_12_24_S13 12/24/2017 23:10:00 0.0868
2017_12_24_S13 12/24/2017 23:15:00 0.0706
2017_12_24_S13 12/24/2017 23:20:00 0.1133
2017_12_24_S13 12/24/2017 23:25:00 0.0901
2017_12_24_S13 12/24/2017 23:30:00 0.2541
2017_12_24_S13 12/24/2017 23:35:00 0.0134
2017_12_24_S13 12/24/2017 23:40:00 0.0118
2017_12_24_S13 12/24/2017 23:45:00 0.0077
2017_12_24_S13 12/24/2017 23:50:00 0.0
2017_12_24_S13 12/24/2017 23:55:00 0.0
2017_12_24_S13 12/25/2017 00:00:00 0.0
2017_12_24_S13 12/25/2017 00:05:00 0.0
2017_12_24_S13 12/25/2017 00:10:00 0.006
2017_12_24_S13 12/25/2017 00:15:00 0.0216
2017_12_24_S13 12/25/2017 00:20:00 0.1985
2017_12_24_S13 12/25/2017 00:25:00 0.0
2017_12_24_S13 12/25/2017 00:30:00 0.0
2017_12_24_S13 12/25/2017 00:35:00 0.0
2017_12_24_S13 12/25/2017 00:40:00 0.0
2017_12_24_S13 12/25/2017 00:45:00 0.0
2017_12_24_S13 12/25/2017 00:50:00 0.0
2017_12_24_S13 12/25/2017 00:55:00 0.0
2017_12_24_S13 12/25/2017 01:00:00 0.0
2017_12_24_S13 12/25/2017 01:05:00 0.0
2017_12_24_S13 12/25/2017 01:10:00 0.1043
2017_12_24_S13 12/25/2017 01:15:00 0.0
2017_12_24_S13 12/25/2017 01:20:00 0.0
2017_12_24_S13 12/25/2017 01:25:00 0.0
2017_12_24_S13 12/25/2017 01:30:00 0.0
2017_12_24_S13 12/25/2017 01:35:00 0.0
2017_12_24_S13 12/25/2017 01:40:00 0.0
2017_12_24_S13 12/25/2017 01:45:00 0.0
2017_12_24_S13 12/25/2017 01:50:00 0.0028
2017_12_24_S13 12/25/2017 01:55:00 0.0
2017_12_24_S13 12/25/2017 02:00:00 0.1102
2017_12_24_S13 12/25/2017 02:05:00 0.0364
2017_12_24_S13 12/25/2017 02:10:00 0.0
2017_12_24_S13 12/25/2017 02:15:00 0.0
2017_12_24_S13 12/25/2017 02:20:00 0.0391
2017_12_24_S13 12/25/2017 02:25:00 0.0237
2017_12_24_S13 12/25/2017 02:30:00 0.0
2017_12_24_S13 12/25/2017 02:35:00 0.0
2017_12_24_S13 12/25/2017 02:40:00 0.0
2017_12_24_S13 12/25/2017 02:45:00 0.0
2017_12_24_S13 12/25/2017 02:50:00 0.0
2017_12_24_S13 12/25/2017 02:55:00 0.0134
2017_12_24_S13 12/25/2017 03:00:00 0.0
2017_12_24_S13 12/25/2017 03:05:00 0.0
2017_12_24_S13 12/25/2017 03:10:00 0.0
2017_12_24_S13 12/25/2017 03:15:00 0.0
2017_12_24_S13 12/25/2017 03:20:00 0.0
2017_12_24_S13 12/25/2017 03:25:00 0.1478
2017_12_24_S13 12/25/2017 03:30:00 0.1238
2017_12_24_S13 12/25/2017 03:35:00 0.0
2017_12_24_S13 12/25/2017 03:40:00 0.0435
2017_12_24_S13 12/25/2017 03:45:00 0.0004
2017_12_24_S13 12/25/2017 03:50:00 0.0
2017_12_24_S13 12/25/2017 03:55:00 0.0
2017_12_24_S13 12/25/2017 04:00:00 0.0
2017_12_24_S13 12/25/2017 04:05:00 0.0
2017_12_24_S13 12/25/2017 04:10:00 0.0
2017_12_24_S13 12/25/2017 04:15:00 0.0
2017_12_24_S13 12/25/2017 04:20:00 0.0
2017_12_24_S13 12/25/2017 04:25:00 0.0
2017_12_24_S13 12/25/2017 04:30:00 0.0
2017_12_24_S13 12/25/2017 04:35:00 0.0
2017_12_24_S13 12/25/2017 04:40:00 0.0
2017_12_24_S13 12/25/2017 04:45:00 0.0
2017_12_24_S13 12/25/2017 04:50:00 0.1777
2017_12_24_S13 12/25/2017 04:55:00 1.7275
2017_12_24_S13 12/25/2017 05:00:00 0.5238
2017_12_24_S13 12/25/2017 05:05:00 1.2627
2017_12_24_S13 12/25/2017 05:10:00 0.0449
2017_12_24_S13 12/25/2017 05:15:00 0.0
2017_12_24_S13 12/25/2017 05:20:00 0.0229
2017_12_24_S13 12/25/2017 05:25:00 0.053
2017_12_24_S13 12/25/2017 05:30:00 0.0315
2017_12_24_S13 12/25/2017 05:35:00 0.0325
2017_12_24_S13 12/25/2017 05:40:00 0.0401
2017_12_24_S13 12/25/2017 05:45:00 0.8458
2017_12_24_S13 12/25/2017 05:50:00 0.536
2017_12_24_S13 12/25/2017 05:55:00 0.0011
2017_12_24_S13 12/25/2017 06:00:00 0.2723
2017_12_24_S13 12/25/2017 06:05:00 0.3197
2017_12_24_S13 12/25/2017 06:10:00 0.0446
2017_12_24_S13 12/25/2017 06:15:00 0.0008
2017_12_24_S13 12/25/2017 06:20:00 0.0
2017_12_24_S13 12/25/2017 06:25:00 0.0
2017_12_24_S13 12/25/2017 06:30:00 0.0
2017_12_24_S13 12/25/2017 06:35:00 0.0
2017_12_24_S13 12/25/2017 06:40:00 0.0
2017_12_24_S13 12/25/2017 06:45:00 0.0
2017_12_24_S13 12/25/2017 06:50:00 0.0
2017_12_24_S13 12/25/2017 06:55:00 0.0
2017_12_24_S13 12/25/2017 07:00:00 0.0
2017_12_24_S13 12/25/2017 07:05:00 0.0
2017_12_24_S13 12/25/2017 07:10:00 0.0
2017_12_24_S13 12/25/2017 07:15:00 0.0
2017_12_24_S13 12/25/2017 07:20:00 0.0
2017_12_24_S13 12/25/2017 07:25:00 0.0
2017_12_24_S13 12/25/2017 07:30:00 0.0
2017_12_24_S13 12/25/2017 07:35:00 0.0
2017_12_24_S13 12/25/2017 07:40:00 0.0
2017_12_24_S13 12/25/2017 07:45:00 0.0
2017_12_24_S13 12/25/2017 07:50:00 0.0
2017_12_24_S13 12/25/2017 07:55:00 0.0
2017_12_24_S13 12/25/2017 08:00:00 0.0

2017_12_24_S14 12/24/2017 12:10:00 0.0088
2017_12_24_S14 12/24/2017 12:15:00 0.1887
2017_12_24_S14 12/24/2017 12:20:00 0.7666
2017_12_24_S14 12/24/2017 12:25:00 7.9133
2017_12_24_S14 12/24/2017 12:30:00 5.0838
2017_12_24_S14 12/24/2017 12:35:00 7.2956
2017_12_24_S14 12/24/2017 12:40:00 5.0385
2017_12_24_S14 12/24/2017 12:45:00 3.0025
2017_12_24_S14 12/24/2017 12:50:00 0.9131
2017_12_24_S14 12/24/2017 12:55:00 1.4269
2017_12_24_S14 12/24/2017 13:00:00 0.2365
2017_12_24_S14 12/24/2017 13:05:00 0.0135
2017_12_24_S14 12/24/2017 13:10:00 0.0192
2017_12_24_S14 12/24/2017 13:15:00 0.062
2017_12_24_S14 12/24/2017 13:20:00 0.0835
2017_12_24_S14 12/24/2017 13:25:00 0.1389
2017_12_24_S14 12/24/2017 13:30:00 0.1634
2017_12_24_S14 12/24/2017 13:35:00 0.018
2017_12_24_S14 12/24/2017 13:40:00 0.0059
2017_12_24_S14 12/24/2017 13:45:00 0.0032
2017_12_24_S14 12/24/2017 13:50:00 0.0004
2017_12_24_S14 12/24/2017 13:55:00 0.0
2017_12_24_S14 12/24/2017 14:00:00 0.0
2017_12_24_S14 12/24/2017 14:05:00 0.0
2017_12_24_S14 12/24/2017 14:10:00 0.0
2017_12_24_S14 12/24/2017 14:15:00 0.0
2017_12_24_S14 12/24/2017 14:20:00 0.0
2017_12_24_S14 12/24/2017 14:25:00 0.0
2017_12_24_S14 12/24/2017 14:30:00 0.0
2017_12_24_S14 12/24/2017 14:35:00 0.0
2017_12_24_S14 12/24/2017 14:40:00 0.0
2017_12_24_S14 12/24/2017 14:45:00 0.0
2017_12_24_S14 12/24/2017 14:50:00 0.0
2017_12_24_S14 12/24/2017 14:55:00 0.0
2017_12_24_S14 12/24/2017 15:00:00 0.0
2017_12_24_S14 12/24/2017 15:05:00 0.0
2017_12_24_S14 12/24/2017 15:10:00 0.0197
2017_12_24_S14 12/24/2017 15:15:00 0.0004
2017_12_24_S14 12/24/2017 15:20:00 0.0082
2017_12_24_S14 12/24/2017 15:25:00 0.0507
2017_12_24_S14 12/24/2017 15:30:00 0.1059
2017_12_24_S14 12/24/2017 15:35:00 0.7521
2017_12_24_S14 12/24/2017 15:40:00 0.258
2017_12_24_S14 12/24/2017 15:45:00 0.0006
2017_12_24_S14 12/24/2017 15:50:00 0.0
2017_12_24_S14 12/24/2017 15:55:00 0.0111
2017_12_24_S14 12/24/2017 16:00:00 0.7946
2017_12_24_S14 12/24/2017 16:05:00 1.1867
2017_12_24_S14 12/24/2017 16:10:00 0.0
2017_12_24_S14 12/24/2017 16:15:00 0.0
2017_12_24_S14 12/24/2017 16:20:00 0.1003
2017_12_24_S14 12/24/2017 16:25:00 0.1033
2017_12_24_S14 12/24/2017 16:30:00 0.0151
2017_12_24_S14 12/24/2017 16:35:00 0.1351
2017_12_24_S14 12/24/2017 16:40:00 0.0458
2017_12_24_S14 12/24/2017 16:45:00 0.0299
2017_12_24_S14 12/24/2017 16:50:00 0.0141
2017_12_24_S14 12/24/2017 16:55:00 0.061
2017_12_24_S14 12/24/2017 17:00:00 0.001
2017_12_24_S14 12/24/2017 17:05:00 0.0
2017_12_24_S14 12/24/2017 17:10:00 0.0357
2017_12_24_S14 12/24/2017 17:15:00 0.0571
2017_12_24_S14 12/24/2017 17:20:00 0.0253
2017_12_24_S14 12/24/2017 17:25:00 0.0406
2017_12_24_S14 12/24/2017 17:30:00 0.0802
2017_12_24_S14 12/24/2017 17:35:00 0.1703
2017_12_24_S14 12/24/2017 17:40:00 0.3041
2017_12_24_S14 12/24/2017 17:45:00 0.0266
2017_12_24_S14 12/24/2017 17:50:00 0.0087
2017_12_24_S14 12/24/2017 17:55:00 0.041
2017_12_24_S14 12/24/2017 18:00:00 0.0509
2017_12_24_S14 12/24/2017 18:05:00 0.1037
2017_12_24_S14 12/24/2017 18:10:00 0.4517
2017_12_24_S14 12/24/2017 18:15:00 0.1962
2017_12_24_S14 12/24/2017 18:20:00 0.039
2017_12_24_S14 12/24/2017 18:25:00 0.0
2017_12_24_S14 12/24/2017 18:30:00 0.0056
2017_12_24_S14 12/24/2017 18:35:00 0.0067
2017_12_24_S14 12/24/2017 18:40:00 0.0166
2017_12_24_S14 12/24/2017 18:45:00 0.0065
2017_12_24_S14 12/24/2017 18:50:00 0.0
2017_12_24_S14 12/24/2017 18:55:00 0.0
2017_12_24_S14 12/24/2017 19:00:00 0.0061
2017_12_24_S14 12/24/2017 19:05:00 0.0835
2017_12_24_S14 12/24/2017 19:10:00 0.1653
2017_12_24_S14 12/24/2017 19:15:00 0.1164
2017_12_24_S14 12/24/2017 19:20:00 0.0575
2017_12_24_S14 12/24/2017 19:25:00 0.008
2017_12_24_S14 12/24/2017 19:30:00 0.0
2017_12_24_S14 12/24/2017 19:35:00 0.0128
2017_12_24_S14 12/24/2017 19:40:00 0.0202
2017_12_24_S14 12/24/2017 19:45:00 0.0
2017_12_24_S14 12/24/2017 19:50:00 0.0194
2017_12_24_S14 12/24/2017 19:55:00 0.0744
2017_12_24_S14 12/24/2017 20:00:00 0.1141
2017_12_24_S14 12/24/2017 20:05:00 0.0439
2017_12_24_S14 12/24/2017 20:10:00 0.0127
2017_12_24_S14 12/24/2017 20:15:00 0.0
2017_12_24_S14 12/24/2017 20:20:00 0.0068
2017_12_24_S14 12/24/2017 20:25:00 0.0133
2017_12_24_S14 12/24/2017 20:30:00 0.0364
2017_12_24_S14 12/24/2017 20:35:00 0.0004
2017_12_24_S14 12/24/2017 20:40:00 0.0061
2017_12_24_S14 12/24/2017 20:45:00 0.0042
2017_12_24_S14 12/24/2017 20:50:00 0.016
2017_12_24_S14 12/24/2017 20:55:00 0.0554
2017_12_24_S14 12/24/2017 21:00:00 0.046
2017_12_24_S14 12/24/2017 21:05:00 0.0179
2017_12_24_S14 12/24/2017 21:10:00 0.0185
2017_12_24_S14 12/24/2017 21:15:00 0.019
2017_12_24_S14 12/24/2017 21:20:00 0.1038
2017_12_24_S14 12/24/2017 21:25:00 0.0088
2017_12_24_S14 12/24/2017 21:30:00 0.0057
2017_12_24_S14 12/24/2017 21:35:00 0.0
2017_12_24_S14 12/24/2017 21:40:00 0.0153
2017_12_24_S14 12/24/2017 21:45:00 0.2564
2017_12_24_S14 12/24/2017 21:50:00 0.0952
2017_12_24_S14 12/24/2017 21:55:00 0.2102
2017_12_24_S14 12/24/2017 22:00:00 0.3585
2017_12_24_S14 12/24/2017 22:05:00 0.0301
2017_12_24_S14 12/24/2017 22:10:00 0.0423
2017_12_24_S14 12/24/2017 22:15:00 0.0095
2017_12_24_S14 12/24/2017 22:20:00 0.0
2017_12_24_S14 12/24/2017 22:25:00 0.4864
2017_12_24_S14 12/24/2017 22:30:00 0.2258
2017_12_24_S14 12/24/2017 22:35:00 0.0296
2017_12_24_S14 12/24/2017 22:40:00 0.0986
2017_12_24_S14 12/24/2017 22:45:00 0.185
2017_12_24_S14 12/24/2017 22:50:00 0.083
2017_12_24_S14 12/24/2017 22:55:00 0.0607
2017_12_24_S14 12/24/2017 23:00:00 0.0497
2017_12_24_S14 12/24/2017 23:05:00 0.2164
2017_12_24_S14 12/24/2017 23:10:00 0.0781
2017_12_24_S14 12/24/2017 23:15:00 0.0819
2017_12_24_S14 12/24/2017 23:20:00 0.0868
2017_12_24_S14 12/24/2017 23:25:00 0.0685
2017_12_24_S14 12/24/2017 23:30:00 0.2569
2017_12_24_S14 12/24/2017 23:35:00 0.0196
2017_12_24_S14 12/24/2017 23:40:00 0.0138
2017_12_24_S14 12/24/2017 23:45:00 0.0078
2017_12_24_S14 12/24/2017 23:50:00 0.0
2017_12_24_S14 12/24/2017 23:55:00 0.0
2017_12_24_S14 12/25/2017 00:00:00 0.0
2017_12_24_S14 12/25/2017 00:05:00 0.0
2017_12_24_S14 12/25/2017 00:10:00 0.0
2017_12_24_S14 12/25/2017 00:15:00 0.0107
2017_12_24_S14 12/25/2017 00:20:00 0.1653
2017_12_24_S14 12/25/2017 00:25:00 0.0
2017_12_24_S14 12/25/2017 00:30:00 0.0
2017_12_24_S14 12/25/2017 00:35:00 0.0
2017_12_24_S14 12/25/2017 00:40:00 0.0
2017_12_24_S14 12/25/2017 00:45:00 0.0
2017_12_24_S14 12/25/2017 00:50:00 0.0
2017_12_24_S14 12/25/2017 00:55:00 0.0
2017_12_24_S14 12/25/2017 01:00:00 0.0
2017_12_24_S14 12/25/2017 01:05:00 0.0
2017_12_24_S14 12/25/2017 01:10:00 0.0454
2017_12_24_S14 12/25/2017 01:15:00 0.0037
2017_12_24_S14 12/25/2017 01:20:00 0.0
2017_12_24_S14 12/25/2017 01:25:00 0.0
2017_12_24_S14 12/25/2017 01:30:00 0.0
2017_12_24_S14 12/25/2017 01:35:00 0.0
2017_12_24_S14 12/25/2017 01:40:00 0.0
2017_12_24_S14 12/25/2017 01:45:00 0.0001
2017_12_24_S14 12/25/2017 01:50:00 0.0
2017_12_24_S14 12/25/2017 01:55:00 0.0004
2017_12_24_S14 12/25/2017 02:00:00 0.2198
2017_12_24_S14 12/25/2017 02:05:00 0.0816
2017_12_24_S14 12/25/2017 02:10:00 0.0
2017_12_24_S14 12/25/2017 02:15:00 0.0
2017_12_24_S14 12/25/2017 02:20:00 0.0218
2017_12_24_S14 12/25/2017 02:25:00 0.0
2017_12_24_S14 12/25/2017 02:30:00 0.0
2017_12_24_S14 12/25/2017 02:35:00 0.0
2017_12_24_S14 12/25/2017 02:40:00 0.0
2017_12_24_S14 12/25/2017 02:45:00 0.0
2017_12_24_S14 12/25/2017 02:50:00 0.0
2017_12_24_S14 12/25/2017 02:55:00 0.0016
2017_12_24_S14 12/25/2017 03:00:00 0.0
2017_12_24_S14 12/25/2017 03:05:00 0.0
2017_12_24_S14 12/25/2017 03:10:00 0.0
2017_12_24_S14 12/25/2017 03:15:00 0.0
2017_12_24_S14 12/25/2017 03:20:00 0.0
2017_12_24_S14 12/25/2017 03:25:00 0.0836
2017_12_24_S14 12/25/2017 03:30:00 0.3171
2017_12_24_S14 12/25/2017 03:35:00 0.0
2017_12_24_S14 12/25/2017 03:40:00 0.0102
2017_12_24_S14 12/25/2017 03:45:00 0.0
2017_12_24_S14 12/25/2017 03:50:00 0.0
2017_12_24_S14 12/25/2017 03:55:00 0.0
2017_12_24_S14 12/25/2017 04:00:00 0.0
2017_12_24_S14 12/25/2017 04:05:00 0.0
2017_12_24_S14 12/25/2017 04:10:00 0.0
2017_12_24_S14 12/25/2017 04:15:00 0.0
2017_12_24_S14 12/25/2017 04:20:00 0.0
2017_12_24_S14 12/25/2017 04:25:00 0.0
2017_12_24_S14 12/25/2017 04:30:00 0.0
2017_12_24_S14 12/25/2017 04:35:00 0.0
2017_12_24_S14 12/25/2017 04:40:00 0.0
2017_12_24_S14 12/25/2017 04:45:00 0.0
2017_12_24_S14 12/25/2017 04:50:00 0.1769
2017_12_24_S14 12/25/2017 04:55:00 0.4416
2017_12_24_S14 12/25/2017 05:00:00 0.4879
2017_12_24_S14 12/25/2017 05:05:00 0.7784
2017_12_24_S14 12/25/2017 05:10:00 0.0
2017_12_24_S14 12/25/2017 05:15:00 0.0
2017_12_24_S14 12/25/2017 05:20:00 0.0
2017_12_24_S14 12/25/2017 05:25:00 0.064
2017_12_24_S14 12/25/2017 05:30:00 0.0479
2017_12_24_S14 12/25/2017 05:35:00 0.0765
2017_12_24_S14 12/25/2017 05:40:00 0.0753
2017_12_24_S14 12/25/2017 05:45:00 0.1853
2017_12_24_S14 12/25/2017 05:50:00 0.6366
2017_12_24_S14 12/25/2017 05:55:00 0.0013
2017_12_24_S14 12/25/2017 06:00:00 0.2871
2017_12_24_S14 12/25/2017 06:05:00 0.4817
2017_12_24_S14 12/25/2017 06:10:00 0.0295
2017_12_24_S14 12/25/2017 06:15:00 0.0
2017_12_24_S14 12/25/2017 06:20:00 0.0
2017_12_24_S14 12/25/2017 06:25:00 0.0
2017_12_24_S14 12/25/2017 06:30:00 0.0
2017_12_24_S14 12/25/2017 06:35:00 0.0
2017_12_24_S14 12/25/2017 06:40:00 0.0
2017_12_24_S14 12/25/2017 06:45:00 0.0
2017_12_24_S14 12/25/2017 06:50:00 0.0
2017_12_24_S14 12/25/2017 06:55:00 0.0
2017_12_24_S14 12/25/2017 07:00:00 0.0
2017_12_24_S14 12/25/2017 07:05:00 0.0
2017_12_24_S14 12/25/2017 07:10:00 0.0
2017_12_24_S14 12/25/2017 07:15:00 0.0
2017_12_24_S14 12/25/2017 07:20:00 0.0
2017_12_24_S14 12/25/2017 07:25:00 0.0
2017_12_24_S14 12/25/2017 07:30:00 0.0
2017_12_24_S14 12/25/2017 07:35:00 0.0
2017_12_24_S14 12/25/2017 07:40:00 0.0
2017_12_24_S14 12/25/2017 07:45:00 0.0
2017_12_24_S14 12/25/2017 07:50:00 0.0
2017_12_24_S14 12/25/2017 07:55:00 0.0
2017_12_24_S14 12/25/2017 08:00:00 0.0

2017_12_24_S15 12/24/2017 12:10:00 0.0002
2017_12_24_S15 12/24/2017 12:15:00 0.0193
2017_12_24_S15 12/24/2017 12:20:00 0.0177
2017_12_24_S15 12/24/2017 12:25:00 1.2125
2017_12_24_S15 12/24/2017 12:30:00 1.49
2017_12_24_S15 12/24/2017 12:35:00 2.4482
2017_12_24_S15 12/24/2017 12:40:00 3.4148
2017_12_24_S15 12/24/2017 12:45:00 3.5408
2017_12_24_S15 12/24/2017 12:50:00 1.0215
2017_12_24_S15 12/24/2017 12:55:00 1.5256
2017_12_24_S15 12/24/2017 13:00:00 0.4917
2017_12_24_S15 12/24/2017 13:05:00 0.019
2017_12_24_S15 12/24/2017 13:10:00 0.022
2017_12_24_S15 12/24/2017 13:15:00 0.0475
2017_12_24_S15 12/24/2017 13:20:00 0.1506
2017_12_24_S15 12/24/2017 13:25:00 0.125
2017_12_24_S15 12/24/2017 13:30:00 0.7919
2017_12_24_S15 12/24/2017 13:35:00 0.0269
2017_12_24_S15 12/24/2017 13:40:00 0.0045
2017_12_24_S15 12/24/2017 13:45:00 0.0027
2017_12_24_S15 12/24/2017 13:50:00 0.0009
2017_12_24_S15 12/24/2017 13:55:00 0.0032
2017_12_24_S15 12/24/2017 14:00:00 0.0
2017_12_24_S15 12/24/2017 14:05:00 0.0
2017_12_24_S15 12/24/2017 14:10:00 0.0
2017_12_24_S15 12/24/2017 14:15:00 0.0007
2017_12_24_S15 12/24/2017 14:20:00 0.0
2017_12_24_S15 12/24/2017 14:25:00 0.0
2017_12_24_S15 12/24/2017 14:30:00 0.0
2017_12_24_S15 12/24/2017 14:35:00 0.0
2017_12_24_S15 12/24/2017 14:40:00 0.0
2017_12_24_S15 12/24/2017 14:45:00 0.0
2017_12_24_S15 12/24/2017 14:50:00 0.0
2017_12_24_S15 12/24/2017 14:55:00 0.0
2017_12_24_S15 12/24/2017 15:00:00 0.0
2017_12_24_S15 12/24/2017 15:05:00 0.0
2017_12_24_S15 12/24/2017 15:10:00 0.006
2017_12_24_S15 12/24/2017 15:15:00 0.0
2017_12_24_S15 12/24/2017 15:20:00 0.0066
2017_12_24_S15 12/24/2017 15:25:00 0.0493
2017_12_24_S15 12/24/2017 15:30:00 0.0897
2017_12_24_S15 12/24/2017 15:35:00 0.5326
2017_12_24_S15 12/24/2017 15:40:00 0.7937
2017_12_24_S15 12/24/2017 15:45:00 0.0058
2017_12_24_S15 12/24/2017 15:50:00 0.0
2017_12_24_S15 12/24/2017 15:55:00 0.0003
2017_12_24_S15 12/24/2017 16:00:00 0.2823
2017_12_24_S15 12/24/2017 16:05:00 2.997
2017_12_24_S15 12/24/2017 16:10:00 0.0047
2017_12_24_S15 12/24/2017 16:15:00 0.0
2017_12_24_S15 12/24/2017 16:20:00 0.0557
2017_12_24_S15 12/24/2017 16:25:00 0.1232
2017_12_24_S15 12/24/2017 16:30:00 0.0358
2017_12_24_S15 12/24/2017 16:35:00 0.1454
2017_12_24_S15 12/24/2017 16:40:00 0.0477
2017_12_24_S15 12/24/2017 16:45:00 0.0245
2017_12_24_S15 12/24/2017 16:50:00 0.0012
2017_12_24_S15 12/24/2017 16:55:00 0.0356
2017_12_24_S15 12/24/2017 17:00:00 0.0019
2017_12_24_S15 12/24/2017 17:05:00 0.0046
2017_12_24_S15 12/24/2017 17:10:00 0.05
2017_12_24_S15 12/24/2017 17:15:00 0.0811
2017_12_24_S15 12/24/2017 17:20:00 0.0189
2017_12_24_S15 12/24/2017 17:25:00 0.0556
2017_12_24_S15 12/24/2017 17:30:00 0.1305
2017_12_24_S15 12/24/2017 17:35:00 0.2195
2017_12_24_S15 12/24/2017 17:40:00 0.1851
2017_12_24_S15 12/24/2017 17:45:00 0.0536
2017_12_24_S15 12/24/2017 17:50:00 0.0207
2017_12_24_S15 12/24/2017 17:55:00 0.0821
2017_12_24_S15 12/24/2017 18:00:00 0.0527
2017_12_24_S15 12/24/2017 18:05:00 0.0128
2017_12_24_S15 12/24/2017 18:10:00 0.4854
2017_12_24_S15 12/24/2017 18:15:00 0.1725
2017_12_24_S15 12/24/2017 18:20:00 0.0746
2017_12_24_S15 12/24/2017 18:25:00 0.0099
2017_12_24_S15 12/24/2017 18:30:00 0.006
2017_12_24_S15 12/24/2017 18:35:00 0.0004
2017_12_24_S15 12/24/2017 18:40:00 0.007
2017_12_24_S15 12/24/2017 18:45:00 0.0015
2017_12_24_S15 12/24/2017 18:50:00 0.0
2017_12_24_S15 12/24/2017 18:55:00 0.0
2017_12_24_S15 12/24/2017 19:00:00 0.0178
2017_12_24_S15 12/24/2017 19:05:00 0.1451
2017_12_24_S15 12/24/2017 19:10:00 0.1664
2017_12_24_S15 12/24/2017 19:15:00 0.1458
2017_12_24_S15 12/24/2017 19:20:00 0.0888
2017_12_24_S15 12/24/2017 19:25:00 0.0039
2017_12_24_S15 12/24/2017 19:30:00 0.0
2017_12_24_S15 12/24/2017 19:35:00 0.0076
2017_12_24_S15 12/24/2017 19:40:00 0.0125
2017_12_24_S15 12/24/2017 19:45:00 0.0
2017_12_24_S15 12/24/2017 19:50:00 0.0249
2017_12_24_S15 12/24/2017 19:55:00 0.0527
2017_12_24_S15 12/24/2017 20:00:00 0.2099
2017_12_24_S15 12/24/2017 20:05:00 0.0474
2017_12_24_S15 12/24/2017 20:10:00 0.015
2017_12_24_S15 12/24/2017 20:15:00 0.0
2017_12_24_S15 12/24/2017 20:20:00 0.0003
2017_12_24_S15 12/24/2017 20:25:00 0.0101
2017_12_24_S15 12/24/2017 20:30:00 0.0238
2017_12_24_S15 12/24/2017 20:35:00 0.0013
2017_12_24_S15 12/24/2017 20:40:00 0.0059
2017_12_24_S15 12/24/2017 20:45:00 0.0056
2017_12_24_S15 12/24/2017 20:50:00 0.0137
2017_12_24_S15 12/24/2017 20:55:00 0.0559
2017_12_24_S15 12/24/2017 21:00:00 0.0335
2017_12_24_S15 12/24/2017 21:05:00 0.0231
2017_12_24_S15 12/24/2017 21:10:00 0.0212
2017_12_24_S15 12/24/2017 21:15:00 0.0193
2017_12_24_S15 12/24/2017 21:20:00 0.0398
2017_12_24_S15 12/24/2017 21:25:00 0.0255
2017_12_24_S15 12/24/2017 21:30:00 0.0099
2017_12_24_S15 12/24/2017 21:35:00 0.0099
2017_12_24_S15 12/24/2017 21:40:00 0.0142
2017_12_24_S15 12/24/2017 21:45:00 0.263
2017_12_24_S15 12/24/2017 21:50:00 0.123
2017_12_24_S15 12/24/2017 21:55:00 0.0795
2017_12_24_S15 12/24/2017 22:00:00 0.5111
2017_12_24_S15 12/24/2017 22:05:00 0.0732
2017_12_24_S15 12/24/2017 22:10:00 0.0461
2017_12_24_S15 12/24/2017 22:15:00 0.0176
2017_12_24_S15 12/24/2017 22:20:00 0.0011
2017_12_24_S15 12/24/2017 22:25:00 0.2706
2017_12_24_S15 12/24/2017 22:30:00 0.2299
2017_12_24_S15 12/24/2017 22:35:00 0.0628
2017_12_24_S15 12/24/2017 22:40:00 0.1236
2017_12_24_S15 12/24/2017 22:45:00 0.2916
2017_12_24_S15 12/24/2017 22:50:00 0.1063
2017_12_24_S15 12/24/2017 22:55:00 0.0522
2017_12_24_S15 12/24/2017 23:00:00 0.0371
2017_12_24_S15 12/24/2017 23:05:00 0.2264
2017_12_24_S15 12/24/2017 23:10:00 0.1354
2017_12_24_S15 12/24/2017 23:15:00 0.0597
2017_12_24_S15 12/24/2017 23:20:00 0.062
2017_12_24_S15 12/24/2017 23:25:00 0.0828
2017_12_24_S15 12/24/2017 23:30:00 0.2349
2017_12_24_S15 12/24/2017 23:35:00 0.0393
2017_12_24_S15 12/24/2017 23:40:00 0.0371
2017_12_24_S15 12/24/2017 23:45:00 0.01
2017_12_24_S15 12/24/2017 23:50:00 0.0035
2017_12_24_S15 12/24/2017 23:55:00 0.0
2017_12_24_S15 12/25/2017 00:00:00 0.0
2017_12_24_S15 12/25/2017 00:05:00 0.0
2017_12_24_S15 12/25/2017 00:10:00 0.0019
2017_12_24_S15 12/25/2017 00:15:00 0.0109
2017_12_24_S15 12/25/2017 00:20:00 0.0938
2017_12_24_S15 12/25/2017 00:25:00 0.0
2017_12_24_S15 12/25/2017 00:30:00 0.0
2017_12_24_S15 12/25/2017 00:35:00 0.0
2017_12_24_S15 12/25/2017 00:40:00 0.0
2017_12_24_S15 12/25/2017 00:45:00 0.0
2017_12_24_S15 12/25/2017 00:50:00 0.0
2017_12_24_S15 12/25/2017 00:55:00 0.0
2017_12_24_S15 12/25/2017 01:00:00 0.0
2017_12_24_S15 12/25/2017 01:05:00 0.0
2017_12_24_S15 12/25/2017 01:10:00 0.0371
2017_12_24_S15 12/25/2017 01:15:00 0.0009
2017_12_24_S15 12/25/2017 01:20:00 0.0
2017_12_24_S15 12/25/2017 01:25:00 0.0
2017_12_24_S15 12/25/2017 01:30:00 0.0
2017_12_24_S15 12/25/2017 01:35:00 0.0
2017_12_24_S15 12/25/2017 01:40:00 0.0
2017_12_24_S15 12/25/2017 01:45:00 0.0068
2017_12_24_S15 12/25/2017 01:50:00 0.0027
2017_12_24_S15 12/25/2017 01:55:00 0.0
2017_12_24_S15 12/25/2017 02:00:00 0.0942
2017_12_24_S15 12/25/2017 02:05:00 0.3958
2017_12_24_S15 12/25/2017 02:10:00 0.0
2017_12_24_S15 12/25/2017 02:15:00 0.0
2017_12_24_S15 12/25/2017 02:20:00 0.0068
2017_12_24_S15 12/25/2017 02:25:00 0.0263
2017_12_24_S15 12/25/2017 02:30:00 0.0
2017_12_24_S15 12/25/2017 02:35:00 0.0
2017_12_24_S15 12/25/2017 02:40:00 0.0
2017_12_24_S15 12/25/2017 02:45:00 0.0
2017_12_24_S15 12/25/2017 02:50:00 0.0
2017_12_24_S15 12/25/2017 02:55:00 0.0042
2017_12_24_S15 12/25/2017 03:00:00 0.0
2017_12_24_S15 12/25/2017 03:05:00 0.0
2017_12_24_S15 12/25/2017 03:10:00 0.0
2017_12_24_S15 12/25/2017 03:15:00 0.0
2017_12_24_S15 12/25/2017 03:20:00 0.0
2017_12_24_S15 12/25/2017 03:25:00 0.0294
2017_12_24_S15 12/25/2017 03:30:00 0.1523
2017_12_24_S15 12/25/2017 03:35:00 0.0
2017_12_24_S15 12/25/2017 03:40:00 0.0244
2017_12_24_S15 12/25/2017 03:45:00 0.0014
2017_12_24_S15 12/25/2017 03:50:00 0.0
2017_12_24_S15 12/25/2017 03:55:00 0.0
2017_12_24_S15 12/25/2017 04:00:00 0.0
2017_12_24_S15 12/25/2017 04:05:00 0.0
2017_12_24_S15 12/25/2017 04:10:00 0.0
2017_12_24_S15 12/25/2017 04:15:00 0.0
2017_12_24_S15 12/25/2017 04:20:00 0.0
2017_12_24_S15 12/25/2017 04:25:00 0.0
2017_12_24_S15 12/25/2017 04:30:00 0.0
2017_12_24_S15 12/25/2017 04:35:00 0.0
2017_12_24_S15 12/25/2017 04:40:00 0.0
2017_12_24_S15 12/25/2017 04:45:00 0.0
2017_12_24_S15 12/25/2017 04:50:00 0.0979
2017_12_24_S15 12/25/2017 04:55:00 0.4043
2017_12_24_S15 12/25/2017 05:00:00 1.2999
2017_12_24_S15 12/25/2017 05:05:00 1.5598
2017_12_24_S15 12/25/2017 05:10:00 0.0539
2017_12_24_S15 12/25/2017 05:15:00 0.0
2017_12_24_S15 12/25/2017 05:20:00 0.012
2017_12_24_S15 12/25/2017 05:25:00 0.0309
2017_12_24_S15 12/25/2017 05:30:00 0.0543
2017_12_24_S15 12/25/2017 05:35:00 0.0595
2017_12_24_S15 12/25/2017 05:40:00 0.0019
2017_12_24_S15 12/25/2017 05:45:00 0.8702
2017_12_24_S15 12/25/2017 05:50:00 0.4019
2017_12_24_S15 12/25/2017 05:55:00 0.0
2017_12_24_S15 12/25/2017 06:00:00 0.2129
2017_12_24_S15 12/25/2017 06:05:00 0.4193
2017_12_24_S15 12/25/2017 06:10:00 0.0931
2017_12_24_S15 12/25/2017 06:15:00 0.0079
2017_12_24_S15 12/25/2017 06:20:00 0.0
2017_12_24_S15 12/25/2017 06:25:00 0.0
2017_12_24_S15 12/25/2017 06:30:00 0.0
2017_12_24_S15 12/25/2017 06:35:00 0.0
2017_12_24_S15 12/25/2017 06:40:00 0.0
2017_12_24_S15 12/25/2017 06:45:00 0.0
2017_12_24_S15 12/25/2017 06:50:00 0.0
2017_12_24_S15 12/25/2017 06:55:00 0.0
2017_12_24_S15 12/25/2017 07:00:00 0.0
2017_12_24_S15 12/25/2017 07:05:00 0.0
2017_12_24_S15 12/25/2017 07:10:00 0.0
2017_12_24_S15 12/25/2017 07:15:00 0.0
2017_12_24_S15 12/25/2017 07:20:00 0.0
2017_12_24_S15 12/25/2017 07:25:00 0.0
2017_12_24_S15 12/25/2017 07:30:00 0.0
2017_12_24_S15 12/25/2017 07:35:00 0.0
2017_12_24_S15 12/25/2017 07:40:00 0.0
2017_12_24_S15 12/25/2017 07:45:00 0.0
2017_12_24_S15 12/25/2017 07:50:00 0.0
2017_12_24_S15 12/25/2017 07:55:00 0.0
2017_12_24_S15 12/25/2017 08:00:00 0.0

2017_12_24_S16 12/24/2017 12:10:00 0.0
2017_12_24_S16 12/24/2017 12:15:00 0.0074
2017_12_24_S16 12/24/2017 12:20:00 0.0108
2017_12_24_S16 12/24/2017 12:25:00 0.3932
2017_12_24_S16 12/24/2017 12:30:00 0.8848
2017_12_24_S16 12/24/2017 12:35:00 1.6742
2017_12_24_S16 12/24/2017 12:40:00 3.4891
2017_12_24_S16 12/24/2017 12:45:00 2.2951
2017_12_24_S16 12/24/2017 12:50:00 0.5459
2017_12_24_S16 12/24/2017 12:55:00 1.5255
2017_12_24_S16 12/24/2017 13:00:00 0.4887
2017_12_24_S16 12/24/2017 13:05:00 0.0506
2017_12_24_S16 12/24/2017 13:10:00 0.0137
2017_12_24_S16 12/24/2017 13:15:00 0.0559
2017_12_24_S16 12/24/2017 13:20:00 0.1283
2017_12_24_S16 12/24/2017 13:25:00 0.1112
2017_12_24_S16 12/24/2017 13:30:00 0.6733
2017_12_24_S16 12/24/2017 13:35:00 0.0296
2017_12_24_S16 12/24/2017 13:40:00 0.0043
2017_12_24_S16 12/24/2017 13:45:00 0.0025
2017_12_24_S16 12/24/2017 13:50:00 0.0006
2017_12_24_S16 12/24/2017 13:55:00 0.0
2017_12_24_S16 12/24/2017 14:00:00 0.0
2017_12_24_S16 12/24/2017 14:05:00 0.0
2017_12_24_S16 12/24/2017 14:10:00 0.0
2017_12_24_S16 12/24/2017 14:15:00 0.0
2017_12_24_S16 12/24/2017 14:20:00 0.0
2017_12_24_S16 12/24/2017 14:25:00 0.0
2017_12_24_S16 12/24/2017 14:30:00 0.0
2017_12_24_S16 12/24/2017 14:35:00 0.0
2017_12_24_S16 12/24/2017 14:40:00 0.0
2017_12_24_S16 12/24/2017 14:45:00 0.0
2017_12_24_S16 12/24/2017 14:50:00 0.0
2017_12_24_S16 12/24/2017 14:55:00 0.0
2017_12_24_S16 12/24/2017 15:00:00 0.0
2017_12_24_S16 12/24/2017 15:05:00 0.0
2017_12_24_S16 12/24/2017 15:10:00 0.0051
2017_12_24_S16 12/24/2017 15:15:00 0.0
2017_12_24_S16 12/24/2017 15:20:00 0.0033
2017_12_24_S16 12/24/2017 15:25:00 0.0302
2017_12_24_S16 12/24/2017 15:30:00 0.0756
2017_12_24_S16 12/24/2017 15:35:00 0.3517
2017_12_24_S16 12/24/2017 15:40:00 1.3058
2017_12_24_S16 12/24/2017 15:45:00 0.0149
2017_12_24_S16 12/24/2017 15:50:00 0.0
2017_12_24_S16 12/24/2017 15:55:00 0.0
2017_12_24_S16 12/24/2017 16:00:00 0.1842
2017_12_24_S16 12/24/2017 16:05:00 2.63
2017_12_24_S16 12/24/2017 16:10:00 0.0204
2017_12_24_S16 12/24/2017 16:15:00 0.0
2017_12_24_S16 12/24/2017 16:20:00 0.0404
2017_12_24_S16 12/24/2017 16:25:00 0.1151
2017_12_24_S16 12/24/2017 16:30:00 0.0541
2017_12_24_S16 12/24/2017 16:35:00 0.1362
2017_12_24_S16 12/24/2017 16:40:00 0.0597
2017_12_24_S16 12/24/2017 16:45:00 0.0305
2017_12_24_S16 12/24/2017 16:50:00 0.0013
2017_12_24_S16 12/24/2017 16:55:00 0.0391
2017_12_24_S16 12/24/2017 17:00:00 0.0148
2017_12_24_S16 12/24/2017 17:05:00 0.0
2017_12_24_S16 12/24/2017 17:10:00 0.0475
2017_12_24_S16 12/24/2017 17:15:00 0.0764
2017_12_24_S16 12/24/2017 17:20:00 0.0127
2017_12_24_S16 12/24/2017 17:25:00 0.0316
2017_12_24_S16 12/24/2017 17:30:00 0.1242
2017_12_24_S16 12/24/2017 17:35:00 0.2309
2017_12_24_S16 12/24/2017 17:40:00 0.1095
2017_12_24_S16 12/24/2017 17:45:00 0.1021
2017_12_24_S16 12/24/2017 17:50:00 0.0253
2017_12_24_S16 12/24/2017 17:55:00 0.1068
2017_12_24_S16 12/24/2017 18:00:00 0.0621
2017_12_24_S16 12/24/2017 18:05:00 0.0151
2017_12_24_S16 12/24/2017 18:10:00 0.254
2017_12_24_S16 12/24/2017 18:15:00 0.1919
2017_12_24_S16 12/24/2017 18:20:00 0.062
2017_12_24_S16 12/24/2017 18:25:00 0.0283
2017_12_24_S16 12/24/2017 18:30:00 0.0061
2017_12_24_S16 12/24/2017 18:35:00 0.0024
2017_12_24_S16 12/24/2017 18:40:00 0.0017
2017_12_24_S16 12/24/2017 18:45:00 0.0
2017_12_24_S16 12/24/2017 18:50:00 0.0
2017_12_24_S16 12/24/2017 18:55:00 0.0
2017_12_24_S16 12/24/2017 19:00:00 0.0246
2017_12_24_S16 12/24/2017 19:05:00 0.0973
2017_12_24_S16 12/24/2017 19:10:00 0.1263
2017_12_24_S16 12/24/2017 19:15:00 0.1582
2017_12_24_S16 12/24/2017 19:20:00 0.0935
2017_12_24_S16 12/24/2017 19:25:00 0.0065
2017_12_24_S16 12/24/2017 19:30:00 0.0
2017_12_24_S16 12/24/2017 19:35:00 0.0
2017_12_24_S16 12/24/2017 19:40:00 0.0141
2017_12_24_S16 12/24/2017 19:45:00 0.0
2017_12_24_S16 12/24/2017 19:50:00 0.0284
2017_12_24_S16 12/24/2017 19:55:00 0.0772
2017_12_24_S16 12/24/2017 20:00:00 0.2206
2017_12_24_S16 12/24/2017 20:05:00 0.0502
2017_12_24_S16 12/24/2017 20:10:00 0.0123
2017_12_24_S16 12/24/2017 20:15:00 0.0027
2017_12_24_S16 12/24/2017 20:20:00 0.0
2017_12_24_S16 12/24/2017 20:25:00 0.0082
2017_12_24_S16 12/24/2017 20:30:00 0.0216
2017_12_24_S16 12/24/2017 20:35:00 0.006
2017_12_24_S16 12/24/2017 20:40:00 0.0067
2017_12_24_S16 12/24/2017 20:45:00 0.0053
2017_12_24_S16 12/24/2017 20:50:00 0.0094
2017_12_24_S16 12/24/2017 20:55:00 0.0726
2017_12_24_S16 12/24/2017 21:00:00 0.0478
2017_12_24_S16 12/24/2017 21:05:00 0.0428
2017_12_24_S16 12/24/2017 21:10:00 0.0283
2017_12_24_S16 12/24/2017 21:15:00 0.0138
2017_12_24_S16 12/24/2017 21:20:00 0.0303
2017_12_24_S16 12/24/2017 21:25:00 0.0579
2017_12_24_S16 12/24/2017 21:30:00 0.0079
2017_12_24_S16 12/24/2017 21:35:00 0.0048
2017_12_24_S16 12/24/2017 21:40:00 0.032
2017_12_24_S16 12/24/2017 21:45:00 0.2478
2017_12_24_S16 12/24/2017 21:50:00 0.1767
2017_12_24_S16 12/24/2017 21:55:00 0.0093
2017_12_24_S16 12/24/2017 22:00:00 0.5116
2017_12_24_S16 12/24/2017 22:05:00 0.1365
2017_12_24_S16 12/24/2017 22:10:00 0.0414
2017_12_24_S16 12/24/2017 22:15:00 0.0498
2017_12_24_S16 12/24/2017 22:20:00 0.0
2017_12_24_S16 12/24/2017 22:25:00 0.1412
2017_12_24_S16 12/24/2017 22:30:00 0.2604
2017_12_24_S16 12/24/2017 22:35:00 0.095
2017_12_24_S16 12/24/2017 22:40:00 0.1584
2017_12_24_S16 12/24/2017 22:45:00 0.2539
2017_12_24_S16 12/24/2017 22:50:00 0.0806
2017_12_24_S16 12/24/2017 22:55:00 0.0339
2017_12_24_S16 12/24/2017 23:00:00 0.0345
2017_12_24_S16 12/24/2017 23:05:00 0.1328
2017_12_24_S16 12/24/2017 23:10:00 0.2332
2017_12_24_S16 12/24/2017 23:15:00 0.0751
2017_12_24_S16 12/24/2017 23:20:00 0.0738
2017_12_24_S16 12/24/2017 23:25:00 0.1598
2017_12_24_S16 12/24/2017 23:30:00 0.1656
2017_12_24_S16 12/24/2017 23:35:00 0.1411
2017_12_24_S16 12/24/2017 23:40:00 0.0557
2017_12_24_S16 12/24/2017 23:45:00 0.0096
2017_12_24_S16 12/24/2017 23:50:00 0.0055
2017_12_24_S16 12/24/2017 23:55:00 0.0
2017_12_24_S16 12/25/2017 00:00:00 0.0
2017_12_24_S16 12/25/2017 00:05:00 0.0
2017_12_24_S16 12/25/2017 00:10:00 0.0039
2017_12_24_S16 12/25/2017 00:15:00 0.0383
2017_12_24_S16 12/25/2017 00:20:00 0.0627
2017_12_24_S16 12/25/2017 00:25:00 0.0
2017_12_24_S16 12/25/2017 00:30:00 0.0
2017_12_24_S16 12/25/2017 00:35:00 0.0
2017_12_24_S16 12/25/2017 00:40:00 0.0
2017_12_24_S16 12/25/2017 00:45:00 0.0
2017_12_24_S16 12/25/2017 00:50:00 0.0
2017_12_24_S16 12/25/2017 00:55:00 0.0
2017_12_24_S16 12/25/2017 01:00:00 0.0
2017_12_24_S16 12/25/2017 01:05:00 0.0
2017_12_24_S16 12/25/2017 01:10:00 0.0226
2017_12_24_S16 12/25/2017 01:15:00 0.0044
2017_12_24_S16 12/25/2017 01:20:00 0.0
2017_12_24_S16 12/25/2017 01:25:00 0.0
2017_12_24_S16 12/25/2017 01:30:00 0.0
2017_12_24_S16 12/25/2017 01:35:00 0.0
2017_12_24_S16 12/25/2017 01:40:00 0.0
2017_12_24_S16 12/25/2017 01:45:00 0.0171
2017_12_24_S16 12/25/2017 01:50:00 0.0
2017_12_24_S16 12/25/2017 01:55:00 0.0
2017_12_24_S16 12/25/2017 02:00:00 0.0296
2017_12_24_S16 12/25/2017 02:05:00 0.7356
2017_12_24_S16 12/25/2017 02:10:00 0.0
2017_12_24_S16 12/25/2017 02:15:00 0.0
2017_12_24_S16 12/25/2017 02:20:00 0.0
2017_12_24_S16 12/25/2017 02:25:00 0.0568
2017_12_24_S16 12/25/2017 02:30:00 0.0
2017_12_24_S16 12/25/2017 02:35:00 0.0
2017_12_24_S16 12/25/2017 02:40:00 0.0
2017_12_24_S16 12/25/2017 02:45:00 0.0
2017_12_24_S16 12/25/2017 02:50:00 0.0
2017_12_24_S16 12/25/2017 02:55:00 0.0
2017_12_24_S16 12/25/2017 03:00:00 0.0
2017_12_24_S16 12/25/2017 03:05:00 0.0
2017_12_24_S16 12/25/2017 03:10:00 0.0
2017_12_24_S16 12/25/2017 03:15:00 0.0
2017_12_24_S16 12/25/2017 03:20:00 0.0
2017_12_24_S16 12/25/2017 03:25:00 0.0045
2017_12_24_S16 12/25/2017 03:30:00 0.2427
2017_12_24_S16 12/25/2017 03:35:00 0.0
2017_12_24_S16 12/25/2017 03:40:00 0.0172
2017_12_24_S16 12/25/2017 03:45:00 0.0083
2017_12_24_S16 12/25/2017 03:50:00 0.0
2017_12_24_S16 12/25/2017 03:55:00 0.0
2017_12_24_S16 12/25/2017 04:00:00 0.0
2017_12_24_S16 12/25/2017 04:05:00 0.0
2017_12_24_S16 12/25/2017 04:10:00 0.0
2017_12_24_S16 12/25/2017 04:15:00 0.0
2017_12_24_S16 12/25/2017 04:20:00 0.0
2017_12_24_S16 12/25/2017 04:25:00 0.0
2017_12_24_S16 12/25/2017 04:30:00 0.0
2017_12_24_S16 12/25/2017 04:35:00 0.0
2017_12_24_S16 12/25/2017 04:40:00 0.0
2017_12_24_S16 12/25/2017 04:45:00 0.0
2017_12_24_S16 12/25/2017 04:50:00 0.0826
2017_12_24_S16 12/25/2017 04:55:00 0.4574
2017_12_24_S16 12/25/2017 05:00:00 1.3859
2017_12_24_S16 12/25/2017 05:05:00 0.8395
2017_12_24_S16 12/25/2017 05:10:00 0.0859
2017_12_24_S16 12/25/2017 05:15:00 0.0
2017_12_24_S16 12/25/2017 05:20:00 0.0039
2017_12_24_S16 12/25/2017 05:25:00 0.0256
2017_12_24_S16 12/25/2017 05:30:00 0.0649
2017_12_24_S16 12/25/2017 05:35:00 0.0809
2017_12_24_S16 12/25/2017 05:40:00 0.0
2017_12_24_S16 12/25/2017 05:45:00 0.7265
2017_12_24_S16 12/25/2017 05:50:00 0.2537
2017_12_24_S16 12/25/2017 05:55:00 0.0
2017_12_24_S16 12/25/2017 06:00:00 0.1419
2017_12_24_S16 12/25/2017 06:05:00 0.3802
2017_12_24_S16 12/25/2017 06:10:00 0.1903
2017_12_24_S16 12/25/2017 06:15:00 0.0117
2017_12_24_S16 12/25/2017 06:20:00 0.0
2017_12_24_S16 12/25/2017 06:25:00 0.0
2017_12_24_S16 12/25/2017 06:30:00 0.0
2017_12_24_S16 12/25/2017 06:35:00 0.0
2017_12_24_S16 12/25/2017 06:40:00 0.0
2017_12_24_S16 12/25/2017 06:45:00 0.0
2017_12_24_S16 12/25/2017 06:50:00 0.0
2017_12_24_S16 12/25/2017 06:55:00 0.0
2017_12_24_S16 12/25/2017 07:00:00 0.0
2017_12_24_S16 12/25/2017 07:05:00 0.0
2017_12_24_S16 12/25/2017 07:10:00 0.0
2017_12_24_S16 12/25/2017 07:15:00 0.0
2017_12_24_S16 12/25/2017 07:20:00 0.0
2017_12_24_S16 12/25/2017 07:25:00 0.0
2017_12_24_S16 12/25/2017 07:30:00 0.0
2017_12_24_S16 12/25/2017 07:35:00 0.0
2017_12_24_S16 12/25/2017 07:40:00 0.0
2017_12_24_S16 12/25/2017 07:45:00 0.0
2017_12_24_S16 12/25/2017 07:50:00 0.0
2017_12_24_S16 12/25/2017 07:55:00 0.0
2017_12_24_S16 12/25/2017 08:00:00 0.0

2017_12_24_S17 12/24/2017 12:10:00 0.0004
2017_12_24_S17 12/24/2017 12:15:00 0.1287
2017_12_24_S17 12/24/2017 12:20:00 0.1395
2017_12_24_S17 12/24/2017 12:25:00 5.3165
2017_12_24_S17 12/24/2017 12:30:00 3.4455
2017_12_24_S17 12/24/2017 12:35:00 5.1582
2017_12_24_S17 12/24/2017 12:40:00 6.9281
2017_12_24_S17 12/24/2017 12:45:00 4.4785
2017_12_24_S17 12/24/2017 12:50:00 1.6413
2017_12_24_S17 12/24/2017 12:55:00 1.3179
2017_12_24_S17 12/24/2017 13:00:00 0.3519
2017_12_24_S17 12/24/2017 13:05:00 0.0238
2017_12_24_S17 12/24/2017 13:10:00 0.0162
2017_12_24_S17 12/24/2017 13:15:00 0.0401
2017_12_24_S17 12/24/2017 13:20:00 0.1056
2017_12_24_S17 12/24/2017 13:25:00 0.0922
2017_12_24_S17 12/24/2017 13:30:00 0.3688
2017_12_24_S17 12/24/2017 13:35:00 0.0312
2017_12_24_S17 12/24/2017 13:40:00 0.007
2017_12_24_S17 12/24/2017 13:45:00 0.0039
2017_12_24_S17 12/24/2017 13:50:00 0.0007
2017_12_24_S17 12/24/2017 13:55:00 0.0
2017_12_24_S17 12/24/2017 14:00:00 0.0
2017_12_24_S17 12/24/2017 14:05:00 0.0
2017_12_24_S17 12/24/2017 14:10:00 0.0
2017_12_24_S17 12/24/2017 14:15:00 0.0
2017_12_24_S17 12/24/2017 14:20:00 0.0
2017_12_24_S17 12/24/2017 14:25:00 0.0
2017_12_24_S17 12/24/2017 14:30:00 0.0
2017_12_24_S17 12/24/2017 14:35:00 0.0
2017_12_24_S17 12/24/2017 14:40:00 0.0
2017_12_24_S17 12/24/2017 14:45:00 0.0
2017_12_24_S17 12/24/2017 14:50:00 0.0
2017_12_24_S17 12/24/2017 14:55:00 0.0
2017_12_24_S17 12/24/2017 15:00:00 0.0
2017_12_24_S17 12/24/2017 15:05:00 0.0
2017_12_24_S17 12/24/2017 15:10:00 0.0088
2017_12_24_S17 12/24/2017 15:15:00 0.0
2017_12_24_S17 12/24/2017 15:20:00 0.0062
2017_12_24_S17 12/24/2017 15:25:00 0.034
2017_12_24_S17 12/24/2017 15:30:00 0.0795
2017_12_24_S17 12/24/2017 15:35:00 0.5781
2017_12_24_S17 12/24/2017 15:40:00 0.6777
2017_12_24_S17 12/24/2017 15:45:00 0.0111
2017_12_24_S17 12/24/2017 15:50:00 0.0
2017_12_24_S17 12/24/2017 15:55:00 0.0015
2017_12_24_S17 12/24/2017 16:00:00 0.3631
2017_12_24_S17 12/24/2017 16:05:00 2.4527
2017_12_24_S17 12/24/2017 16:10:00 0.0136
2017_12_24_S17 12/24/2017 16:15:00 0.0
2017_12_24_S17 12/24/2017 16:20:00 0.0704
2017_12_24_S17 12/24/2017 16:25:00 0.0799
2017_12_24_S17 12/24/2017 16:30:00 0.0152
2017_12_24_S17 12/24/2017 16:35:00 0.1292
2017_12_24_S17 12/24/2017 16:40:00 0.0711
2017_12_24_S17 12/24/2017 16:45:00 0.0391
2017_12_24_S17 12/24/2017 16:50:00 0.0072
2017_12_24_S17 12/24/2017 16:55:00 0.0479
2017_12_24_S17 12/24/2017 17:00:00 0.0015
2017_12_24_S17 12/24/2017 17:05:00 0.0
2017_12_24_S17 12/24/2017 17:10:00 0.0315
2017_12_24_S17 12/24/2017 17:15:00 0.0586
2017_12_24_S17 12/24/2017 17:20:00 0.0234
2017_12_24_S17 12/24/2017 17:25:00 0.033
2017_12_24_S17 12/24/2017 17:30:00 0.0715
2017_12_24_S17 12/24/2017 17:35:00 0.1995
2017_12_24_S17 12/24/2017 17:40:00 0.2286
2017_12_24_S17 12/24/2017 17:45:00 0.0435
2017_12_24_S17 12/24/2017 17:50:00 0.0156
2017_12_24_S17 12/24/2017 17:55:00 0.0517
2017_12_24_S17 12/24/2017 18:00:00 0.061
2017_12_24_S17 12/24/2017 18:05:00 0.027
2017_12_24_S17 12/24/2017 18:10:00 0.2597
2017_12_24_S17 12/24/2017 18:15:00 0.1839
2017_12_24_S17 12/24/2017 18:20:00 0.0432
2017_12_24_S17 12/24/2017 18:25:00 0.0056
2017_12_24_S17 12/24/2017 18:30:00 0.0045
2017_12_24_S17 12/24/2017 18:35:00 0.0017
2017_12_24_S17 12/24/2017 18:40:00 0.0151
2017_12_24_S17 12/24/2017 18:45:00 0.0081
2017_12_24_S17 12/24/2017 18:50:00 0.0
2017_12_24_S17 12/24/2017 18:55:00 0.0
2017_12_24_S17 12/24/2017 19:00:00 0.0169
2017_12_24_S17 12/24/2017 19:05:00 0.0815
2017_12_24_S17 12/24/2017 19:10:00 0.1203
2017_12_24_S17 12/24/2017 19:15:00 0.1397
2017_12_24_S17 12/24/2017 19:20:00 0.077
2017_12_24_S17 12/24/2017 19:25:00 0.0071
2017_12_24_S17 12/24/2017 19:30:00 0.0
2017_12_24_S17 12/24/2017 19:35:00 0.0072
2017_12_24_S17 12/24/2017 19:40:00 0.0105
2017_12_24_S17 12/24/2017 19:45:00 0.0
2017_12_24_S17 12/24/2017 19:50:00 0.0187
2017_12_24_S17 12/24/2017 19:55:00 0.0785
2017_12_24_S17 12/24/2017 20:00:00 0.1676
2017_12_24_S17 12/24/2017 20:05:00 0.0684
2017_12_24_S17 12/24/2017 20:10:00 0.0121
2017_12_24_S17 12/24/2017 20:15:00 0.0
2017_12_24_S17 12/24/2017 20:20:00 0.0024
2017_12_24_S17 12/24/2017 20:25:00 0.009
2017_12_24_S17 12/24/2017 20:30:00 0.0294
2017_12_24_S17 12/24/2017 20:35:00 0.0038
2017_12_24_S17 12/24/2017 20:40:00 0.0061
2017_12_24_S17 12/24/2017 20:45:00 0.005
2017_12_24_S17 12/24/2017 20:50:00 0.0111
2017_12_24_S17 12/24/2017 20:55:00 0.0636
2017_12_24_S17 12/24/2017 21:00:00 0.0486
2017_12_24_S17 12/24/2017 21:05:00 0.0255
2017_12_24_S17 12/24/2017 21:10:00 0.0209
2017_12_24_S17 12/24/2017 21:15:00 0.0163
2017_12_24_S17 12/24/2017 21:20:00 0.0487
2017_12_24_S17 12/24/2017 21:25:00 0.0312
2017_12_24_S17 12/24/2017 21:30:00 0.004
2017_12_24_S17 12/24/2017 21:35:00 0.0
2017_12_24_S17 12/24/2017 21:40:00 0.0219
2017_12_24_S17 12/24/2017 21:45:00 0.2199
2017_12_24_S17 12/24/2017 21:50:00 0.0786
2017_12_24_S17 12/24/2017 21:55:00 0.0579
2017_12_24_S17 12/24/2017 22:00:00 0.3508
2017_12_24_S17 12/24/2017 22:05:00 0.0783
2017_12_24_S17 12/24/2017 22:10:00 0.0475
2017_12_24_S17 12/24/2017 22:15:00 0.031
2017_12_24_S17 12/24/2017 22:20:00 0.0
2017_12_24_S17 12/24/2017 22:25:00 0.2121
2017_12_24_S17 12/24/2017 22:30:00 0.2473
2017_12_24_S17 12/24/2017 22:35:00 0.0568
2017_12_24_S17 12/24/2017 22:40:00 0.0864
2017_12_24_S17 12/24/2017 22:45:00 0.3216
2017_12_24_S17 12/24/2017 22:50:00 0.1173
2017_12_24_S17 12/24/2017 22:55:00 0.0473
2017_12_24_S17 12/24/2017 23:00:00 0.0405
2017_12_24_S17 12/24/2017 23:05:00 0.1459
2017_12_24_S17 12/24/2017 23:10:00 0.1434
2017_12_24_S17 12/24/2017 23:15:00 0.0843
2017_12_24_S17 12/24/2017 23:20:00 0.0826
2017_12_24_S17 12/24/2017 23:25:00 0.1115
2017_12_24_S17 12/24/2017 23:30:00 0.2224
2017_12_24_S17 12/24/2017 23:35:00 0.0508
2017_12_24_S17 12/24/2017 23:40:00 0.0374
2017_12_24_S17 12/24/2017 23:45:00 0.0092
2017_12_24_S17 12/24/2017 23:50:00 0.0067
2017_12_24_S17 12/24/2017 23:55:00 0.0
2017_12_24_S17 12/25/2017 00:00:00 0.0
2017_12_24_S17 12/25/2017 00:05:00 0.0
2017_12_24_S17 12/25/2017 00:10:00 0.0
2017_12_24_S17 12/25/2017 00:15:00 0.0276
2017_12_24_S17 12/25/2017 00:20:00 0.1007
2017_12_24_S17 12/25/2017 00:25:00 0.0
2017_12_24_S17 12/25/2017 00:30:00 0.0
2017_12_24_S17 12/25/2017 00:35:00 0.0
2017_12_24_S17 12/25/2017 00:40:00 0.0
2017_12_24_S17 12/25/2017 00:45:00 0.0
2017_12_24_S17 12/25/2017 00:50:00 0.0
2017_12_24_S17 12/25/2017 00:55:00 0.0
2017_12_24_S17 12/25/2017 01:00:00 0.0
2017_12_24_S17 12/25/2017 01:05:00 0.0
2017_12_24_S17 12/25/2017 01:10:00 0.0556
2017_12_24_S17 12/25/2017 01:15:00 0.0344
2017_12_24_S17 12/25/2017 01:20:00 0.0
2017_12_24_S17 12/25/2017 01:25:00 0.0
2017_12_24_S17 12/25/2017 01:30:00 0.0
2017_12_24_S17 12/25/2017 01:35:00 0.0
2017_12_24_S17 12/25/2017 01:40:00 0.0
2017_12_24_S17 12/25/2017 01:45:00 0.0113
2017_12_24_S17 12/25/2017 01:50:00 0.0
2017_12_24_S17 12/25/2017 01:55:00 0.0
2017_12_24_S17 12/25/2017 02:00:00 0.1182
2017_12_24_S17 12/25/2017 02:05:00 0.2591
2017_12_24_S17 12/25/2017 02:10:00 0.0
2017_12_24_S17 12/25/2017 02:15:00 0.0
2017_12_24_S17 12/25/2017 02:20:00 0.0063
2017_12_24_S17 12/25/2017 02:25:00 0.0069
2017_12_24_S17 12/25/2017 02:30:00 0.0
2017_12_24_S17 12/25/2017 02:35:00 0.0
2017_12_24_S17 12/25/2017 02:40:00 0.0
2017_12_24_S17 12/25/2017 02:45:00 0.0
2017_12_24_S17 12/25/2017 02:50:00 0.0
2017_12_24_S17 12/25/2017 02:55:00 0.0
2017_12_24_S17 12/25/2017 03:00:00 0.0
2017_12_24_S17 12/25/2017 03:05:00 0.0
2017_12_24_S17 12/25/2017 03:10:00 0.0
2017_12_24_S17 12/25/2017 03:15:00 0.0
2017_12_24_S17 12/25/2017 03:20:00 0.0
2017_12_24_S17 12/25/2017 03:25:00 0.023
2017_12_24_S17 12/25/2017 03:30:00 0.3094
2017_12_24_S17 12/25/2017 03:35:00 0.0
2017_12_24_S17 12/25/2017 03:40:00 0.0116
2017_12_24_S17 12/25/2017 03:45:00 0.0
2017_12_24_S17 12/25/2017 03:50:00 0.0
2017_12_24_S17 12/25/2017 03:55:00 0.0
2017_12_24_S17 12/25/2017 04:00:00 0.0
2017_12_24_S17 12/25/2017 04:05:00 0.0
2017_12_24_S17 12/25/2017 04:10:00 0.0
2017_12_24_S17 12/25/2017 04:15:00 0.0
2017_12_24_S17 12/25/2017 04:20:00 0.0
2017_12_24_S17 12/25/2017 04:25:00 0.0
2017_12_24_S17 12/25/2017 04:30:00 0.0
2017_12_24_S17 12/25/2017 04:35:00 0.0
2017_12_24_S17 12/25/2017 04:40:00 0.0
2017_12_24_S17 12/25/2017 04:45:00 0.0
2017_12_24_S17 12/25/2017 04:50:00 0.1401
2017_12_24_S17 12/25/2017 04:55:00 0.3404
2017_12_24_S17 12/25/2017 05:00:00 0.7873
2017_12_24_S17 12/25/2017 05:05:00 0.7371
2017_12_24_S17 12/25/2017 05:10:00 0.014
2017_12_24_S17 12/25/2017 05:15:00 0.0
2017_12_24_S17 12/25/2017 05:20:00 0.0
2017_12_24_S17 12/25/2017 05:25:00 0.0309
2017_12_24_S17 12/25/2017 05:30:00 0.0505
2017_12_24_S17 12/25/2017 05:35:00 0.0799
2017_12_24_S17 12/25/2017 05:40:00 0.0178
2017_12_24_S17 12/25/2017 05:45:00 0.2743
2017_12_24_S17 12/25/2017 05:50:00 0.4494
2017_12_24_S17 12/25/2017 05:55:00 0.0007
2017_12_24_S17 12/25/2017 06:00:00 0.1967
2017_12_24_S17 12/25/2017 06:05:00 0.4952
2017_12_24_S17 12/25/2017 06:10:00 0.0838
2017_12_24_S17 12/25/2017 06:15:00 0.0029
2017_12_24_S17 12/25/2017 06:20:00 0.0
2017_12_24_S17 12/25/2017 06:25:00 0.0
2017_12_24_S17 12/25/2017 06:30:00 0.0
2017_12_24_S17 12/25/2017 06:35:00 0.0
2017_12_24_S17 12/25/2017 06:40:00 0.0
2017_12_24_S17 12/25/2017 06:45:00 0.0
2017_12_24_S17 12/25/2017 06:50:00 0.0
2017_12_24_S17 12/25/2017 06:55:00 0.0
2017_12_24_S17 12/25/2017 07:00:00 0.0
2017_12_24_S17 12/25/2017 07:05:00 0.0
2017_12_24_S17 12/25/2017 07:10:00 0.0
2017_12_24_S17 12/25/2017 07:15:00 0.0
2017_12_24_S17 12/25/2017 07:20:00 0.0
2017_12_24_S17 12/25/2017 07:25:00 0.0
2017_12_24_S17 12/25/2017 07:30:00 0.0
2017_12_24_S17 12/25/2017 07:35:00 0.0
2017_12_24_S17 12/25/2017 07:40:00 0.0
2017_12_24_S17 12/25/2017 07:45:00 0.0
2017_12_24_S17 12/25/2017 07:50:00 0.0
2017_12_24_S17 12/25/2017 07:55:00 0.0
2017_12_24_S17 12/25/2017 08:00:00 0.0

2017_12_24_S18 12/24/2017 12:10:00 0.0092
2017_12_24_S18 12/24/2017 12:15:00 0.3806
2017_12_24_S18 12/24/2017 12:20:00 1.7382
2017_12_24_S18 12/24/2017 12:25:00 8.7828
2017_12_24_S18 12/24/2017 12:30:00 6.9557
2017_12_24_S18 12/24/2017 12:35:00 5.328
2017_12_24_S18 12/24/2017 12:40:00 4.5203
2017_12_24_S18 12/24/2017 12:45:00 2.1258
2017_12_24_S18 12/24/2017 12:50:00 0.9743
2017_12_24_S18 12/24/2017 12:55:00 1.22
2017_12_24_S18 12/24/2017 13:00:00 0.196
2017_12_24_S18 12/24/2017 13:05:00 0.0146
2017_12_24_S18 12/24/2017 13:10:00 0.0174
2017_12_24_S18 12/24/2017 13:15:00 0.0591
2017_12_24_S18 12/24/2017 13:20:00 0.0579
2017_12_24_S18 12/24/2017 13:25:00 0.1032
2017_12_24_S18 12/24/2017 13:30:00 0.1172
2017_12_24_S18 12/24/2017 13:35:00 0.0151
2017_12_24_S18 12/24/2017 13:40:00 0.0067
2017_12_24_S18 12/24/2017 13:45:00 0.0056
2017_12_24_S18 12/24/2017 13:50:00 0.0045
2017_12_24_S18 12/24/2017 13:55:00 0.0
2017_12_24_S18 12/24/2017 14:00:00 0.0
2017_12_24_S18 12/24/2017 14:05:00 0.0
2017_12_24_S18 12/24/2017 14:10:00 0.0
2017_12_24_S18 12/24/2017 14:15:00 0.0
2017_12_24_S18 12/24/2017 14:20:00 0.0
2017_12_24_S18 12/24/2017 14:25:00 0.0
2017_12_24_S18 12/24/2017 14:30:00 0.0
2017_12_24_S18 12/24/2017 14:35:00 0.0
2017_12_24_S18 12/24/2017 14:40:00 0.0
2017_12_24_S18 12/24/2017 14:45:00 0.0
2017_12_24_S18 12/24/2017 14:50:00 0.0
2017_12_24_S18 12/24/2017 14:55:00 0.0
2017_12_24_S18 12/24/2017 15:00:00 0.0
2017_12_24_S18 12/24/2017 15:05:00 0.0
2017_12_24_S18 12/24/2017 15:10:00 0.0286
2017_12_24_S18 12/24/2017 15:15:00 0.0008
2017_12_24_S18 12/24/2017 15:20:00 0.0082
2017_12_24_S18 12/24/2017 15:25:00 0.0429
2017_12_24_S18 12/24/2017 15:30:00 0.0963
2017_12_24_S18 12/24/2017 15:35:00 0.7074
2017_12_24_S18 12/24/2017 15:40:00 0.2461
2017_12_24_S18 12/24/2017 15:45:00 0.0075
2017_12_24_S18 12/24/2017 15:50:00 0.0
2017_12_24_S18 12/24/2017 15:55:00 0.0159
2017_12_24_S18 12/24/2017 16:00:00 0.6462
2017_12_24_S18 12/24/2017 16:05:00 1.4514
2017_12_24_S18 12/24/2017 16:10:00 0.0009
2017_12_24_S18 12/24/2017 16:15:00 0.0
2017_12_24_S18 12/24/2017 16:20:00 0.1281
2017_12_24_S18 12/24/2017 16:25:00 0.0748
2017_12_24_S18 12/24/2017 16:30:00 0.0211
2017_12_24_S18 12/24/2017 16:35:00 0.097
2017_12_24_S18 12/24/2017 16:40:00 0.0486
2017_12_24_S18 12/24/2017 16:45:00 0.0351
2017_12_24_S18 12/24/2017 16:50:00 0.0216
2017_12_24_S18 12/24/2017 16:55:00 0.0591
2017_12_24_S18 12/24/2017 17:00:00 0.0058
2017_12_24_S18 12/24/2017 17:05:00 0.0
2017_12_24_S18 12/24/2017 17:10:00 0.0481
2017_12_24_S18 12/24/2017 17:15:00 0.0706
2017_12_24_S18 12/24/2017 17:20:00 0.0307
2017_12_24_S18 12/24/2017 17:25:00 0.0357
2017_12_24_S18 12/24/2017 17:30:00 0.0503
2017_12_24_S18 12/24/2017 17:35:00 0.1407
2017_12_24_S18 12/24/2017 17:40:00 0.2786
2017_12_24_S18 12/24/2017 17:45:00 0.0218
2017_12_24_S18 12/24/2017 17:50:00 0.0095
2017_12_24_S18 12/24/2017 17:55:00 0.0175
2017_12_24_S18 12/24/2017 18:00:00 0.0558
2017_12_24_S18 12/24/2017 18:05:00 0.0718
2017_12_24_S18 12/24/2017 18:10:00 0.3725
2017_12_24_S18 12/24/2017 18:15:00 0.2309
2017_12_24_S18 12/24/2017 18:20:00 0.032
2017_12_24_S18 12/24/2017 18:25:00 0.0
2017_12_24_S18 12/24/2017 18:30:00 0.0043
2017_12_24_S18 12/24/2017 18:35:00 0.0062
2017_12_24_S18 12/24/2017 18:40:00 0.0222
2017_12_24_S18 12/24/2017 18:45:00 0.0083
2017_12_24_S18 12/24/2017 18:50:00 0.0
2017_12_24_S18 12/24/2017 18:55:00 0.0
2017_12_24_S18 12/24/2017 19:00:00 0.0102
2017_12_24_S18 12/24/2017 19:05:00 0.0676
2017_12_24_S18 12/24/2017 19:10:00 0.1331
2017_12_24_S18 12/24/2017 19:15:00 0.1331
2017_12_24_S18 12/24/2017 19:20:00 0.0532
2017_12_24_S18 12/24/2017 19:25:00 0.01
2017_12_24_S18 12/24/2017 19:30:00 0.0
2017_12_24_S18 12/24/2017 19:35:00 0.012
2017_12_24_S18 12/24/2017 19:40:00 0.0164
2017_12_24_S18 12/24/2017 19:45:00 0.0
2017_12_24_S18 12/24/2017 19:50:00 0.0138
2017_12_24_S18 12/24/2017 19:55:00 0.079
2017_12_24_S18 12/24/2017 20:00:00 0.1219
2017_12_24_S18 12/24/2017 20:05:00 0.056
2017_12_24_S18 12/24/2017 20:10:00 0.0126
2017_12_24_S18 12/24/2017 20:15:00 0.0
2017_12_24_S18 12/24/2017 20:20:00 0.0072
2017_12_24_S18 12/24/2017 20:25:00 0.0118
2017_12_24_S18 12/24/2017 20:30:00 0.0347
2017_12_24_S18 12/24/2017 20:35:00 0.0045
2017_12_24_S18 12/24/2017 20:40:00 0.0059
2017_12_24_S18 12/24/2017 20:45:00 0.006
2017_12_24_S18 12/24/2017 20:50:00 0.0175
2017_12_24_S18 12/24/2017 20:55:00 0.0515
2017_12_24_S18 12/24/2017 21:00:00 0.0443
2017_12_24_S18 12/24/2017 21:05:00 0.0196
2017_12_24_S18 12/24/2017 21:10:00 0.0167
2017_12_24_S18 12/24/2017 21:15:00 0.0139
2017_12_24_S18 12/24/2017 21:20:00 0.0939
2017_12_24_S18 12/24/2017 21:25:00 0.0102
2017_12_24_S18 12/24/2017 21:30:00 0.0042
2017_12_24_S18 12/24/2017 21:35:00 0.0
2017_12_24_S18 12/24/2017 21:40:00 0.013
2017_12_24_S18 12/24/2017 21:45:00 0.2838
2017_12_24_S18 12/24/2017 21:50:00 0.0761
2017_12_24_S18 12/24/2017 21:55:00 0.1401
2017_12_24_S18 12/24/2017 22:00:00 0.3144
2017_12_24_S18 12/24/2017 22:05:00 0.0399
2017_12_24_S18 12/24/2017 22:10:00 0.0411
2017_12_24_S18 12/24/2017 22:15:00 0.0133
2017_12_24_S18 12/24/2017 22:20:00 0.0
2017_12_24_S18 12/24/2017 22:25:00 0.2331
2017_12_24_S18 12/24/2017 22:30:00 0.2666
2017_12_24_S18 12/24/2017 22:35:00 0.0327
2017_12_24_S18 12/24/2017 22:40:00 0.0559
2017_12_24_S18 12/24/2017 22:45:00 0.3062
2017_12_24_S18 12/24/2017 22:50:00 0.0926
2017_12_24_S18 12/24/2017 22:55:00 0.0488
2017_12_24_S18 12/24/2017 23:00:00 0.0578
2017_12_24_S18 12/24/2017 23:05:00 0.1401
2017_12_24_S18 12/24/2017 23:10:00 0.0713
2017_12_24_S18 12/24/2017 23:15:00 0.0965
2017_12_24_S18 12/24/2017 23:20:00 0.069
2017_12_24_S18 12/24/2017 23:25:00 0.0869
2017_12_24_S18 12/24/2017 23:30:00 0.2602
2017_12_24_S18 12/24/2017 23:35:00 0.019
2017_12_24_S18 12/24/2017 23:40:00 0.0176
2017_12_24_S18 12/24/2017 23:45:00 0.0075
2017_12_24_S18 12/24/2017 23:50:00 0.0007
2017_12_24_S18 12/24/2017 23:55:00 0.0
2017_12_24_S18 12/25/2017 00:00:00 0.0
2017_12_24_S18 12/25/2017 00:05:00 0.0
2017_12_24_S18 12/25/2017 00:10:00 0.0
2017_12_24_S18 12/25/2017 00:15:00 0.0107
2017_12_24_S18 12/25/2017 00:20:00 0.1609
2017_12_24_S18 12/25/2017 00:25:00 0.0
2017_12_24_S18 12/25/2017 00:30:00 0.0
2017_12_24_S18 12/25/2017 00:35:00 0.0
2017_12_24_S18 12/25/2017 00:40:00 0.0
2017_12_24_S18 12/25/2017 00:45:00 0.0
2017_12_24_S18 12/25/2017 00:50:00 0.0
2017_12_24_S18 12/25/2017 00:55:00 0.0
2017_12_24_S18 12/25/2017 01:00:00 0.0
2017_12_24_S18 12/25/2017 01:05:00 0.0
2017_12_24_S18 12/25/2017 01:10:00 0.0483
2017_12_24_S18 12/25/2017 01:15:00 0.0472
2017_12_24_S18 12/25/2017 01:20:00 0.0
2017_12_24_S18 12/25/2017 01:25:00 0.0
2017_12_24_S18 12/25/2017 01:30:00 0.0
2017_12_24_S18 12/25/2017 01:35:00 0.0
2017_12_24_S18 12/25/2017 01:40:00 0.0
2017_12_24_S18 12/25/2017 01:45:00 0.0008
2017_12_24_S18 12/25/2017 01:50:00 0.0
2017_12_24_S18 12/25/2017 01:55:00 0.0009
2017_12_24_S18 12/25/2017 02:00:00 0.2421
2017_12_24_S18 12/25/2017 02:05:00 0.1586
2017_12_24_S18 12/25/2017 02:10:00 0.0
2017_12_24_S18 12/25/2017 02:15:00 0.0
2017_12_24_S18 12/25/2017 02:20:00 0.0139
2017_12_24_S18 12/25/2017 02:25:00 0.0007
2017_12_24_S18 12/25/2017 02:30:00 0.0
2017_12_24_S18 12/25/2017 02:35:00 0.0
2017_12_24_S18 12/25/2017 02:40:00 0.0
2017_12_24_S18 12/25/2017 02:45:00 0.0
2017_12_24_S18 12/25/2017 02:50:00 0.0
2017_12_24_S18 12/25/2017 02:55:00 0.0
2017_12_24_S18 12/25/2017 03:00:00 0.0
2017_12_24_S18 12/25/2017 03:05:00 0.0
2017_12_24_S18 12/25/2017 03:10:00 0.0
2017_12_24_S18 12/25/2017 03:15:00 0.0
2017_12_24_S18 12/25/2017 03:20:00 0.0
2017_12_24_S18 12/25/2017 03:25:00 0.0552
2017_12_24_S18 12/25/2017 03:30:00 0.3107
2017_12_24_S18 12/25/2017 03:35:00 0.0
2017_12_24_S18 12/25/2017 03:40:00 0.0049
2017_12_24_S18 12/25/2017 03:45:00 0.0
2017_12_24_S18 12/25/2017 03:50:00 0.0
2017_12_24_S18 12/25/2017 03:55:00 0.0
2017_12_24_S18 12/25/2017 04:00:00 0.0
2017_12_24_S18 12/25/2017 04:05:00 0.0
2017_12_24_S18 12/25/2017 04:10:00 0.0
2017_12_24_S18 12/25/2017 04:15:00 0.0
2017_12_24_S18 12/25/2017 04:20:00 0.0
2017_12_24_S18 12/25/2017 04:25:00 0.0
2017_12_24_S18 12/25/2017 04:30:00 0.0
2017_12_24_S18 12/25/2017 04:35:00 0.0
2017_12_24_S18 12/25/2017 04:40:00 0.0
2017_12_24_S18 12/25/2017 04:45:00 0.0
2017_12_24_S18 12/25/2017 04:50:00 0.1925
2017_12_24_S18 12/25/2017 04:55:00 0.3468
2017_12_24_S18 12/25/2017 05:00:00 0.6005
2017_12_24_S18 12/25/2017 05:05:00 0.3551
2017_12_24_S18 12/25/2017 05:10:00 0.0
2017_12_24_S18 12/25/2017 05:15:00 0.0
2017_12_24_S18 12/25/2017 05:20:00 0.0
2017_12_24_S18 12/25/2017 05:25:00 0.0803
2017_12_24_S18 12/25/2017 05:30:00 0.0516
2017_12_24_S18 12/25/2017 05:35:00 0.0379
2017_12_24_S18 12/25/2017 05:40:00 0.1975
2017_12_24_S18 12/25/2017 05:45:00 0.0975
2017_12_24_S18 12/25/2017 05:50:00 0.683
2017_12_24_S18 12/25/2017 05:55:00 0.0
2017_12_24_S18 12/25/2017 06:00:00 0.3319
2017_12_24_S18 12/25/2017 06:05:00 0.5463
2017_12_24_S18 12/25/2017 06:10:00 0.054
2017_12_24_S18 12/25/2017 06:15:00 0.0
2017_12_24_S18 12/25/2017 06:20:00 0.0
2017_12_24_S18 12/25/2017 06:25:00 0.0
2017_12_24_S18 12/25/2017 06:30:00 0.0
2017_12_24_S18 12/25/2017 06:35:00 0.0
2017_12_24_S18 12/25/2017 06:40:00 0.0
2017_12_24_S18 12/25/2017 06:45:00 0.0
2017_12_24_S18 12/25/2017 06:50:00 0.0
2017_12_24_S18 12/25/2017 06:55:00 0.0
2017_12_24_S18 12/25/2017 07:00:00 0.0
2017_12_24_S18 12/25/2017 07:05:00 0.0
2017_12_24_S18 12/25/2017 07:10:00 0.0
2017_12_24_S18 12/25/2017 07:15:00 0.0
2017_12_24_S18 12/25/2017 07:20:00 0.0
2017_12_24_S18 12/25/2017 07:25:00 0.0
2017_12_24_S18 12/25/2017 07:30:00 0.0
2017_12_24_S18 12/25/2017 07:35:00 0.0
2017_12_24_S18 12/25/2017 07:40:00 0.0
2017_12_24_S18 12/25/2017 07:45:00 0.0
2017_12_24_S18 12/25/2017 07:50:00 0.0
2017_12_24_S18 12/25/2017 07:55:00 0.0
2017_12_24_S18 12/25/2017 08:00:00 0.0

2017_12_24_S19 12/24/2017 12:10:00 0.007
2017_12_24_S19 12/24/2017 12:15:00 0.3742
2017_12_24_S19 12/24/2017 12:20:00 2.8604
2017_12_24_S19 12/24/2017 12:25:00 6.968
2017_12_24_S19 12/24/2017 12:30:00 5.7328
2017_12_24_S19 12/24/2017 12:35:00 2.7365
2017_12_24_S19 12/24/2017 12:40:00 3.6255
2017_12_24_S19 12/24/2017 12:45:00 1.4676
2017_12_24_S19 12/24/2017 12:50:00 0.9027
2017_12_24_S19 12/24/2017 12:55:00 0.8052
2017_12_24_S19 12/24/2017 13:00:00 0.1455
2017_12_24_S19 12/24/2017 13:05:00 0.0137
2017_12_24_S19 12/24/2017 13:10:00 0.0137
2017_12_24_S19 12/24/2017 13:15:00 0.0405
2017_12_24_S19 12/24/2017 13:20:00 0.0522
2017_12_24_S19 12/24/2017 13:25:00 0.0638
2017_12_24_S19 12/24/2017 13:30:00 0.1013
2017_12_24_S19 12/24/2017 13:35:00 0.0134
2017_12_24_S19 12/24/2017 13:40:00 0.0107
2017_12_24_S19 12/24/2017 13:45:00 0.0058
2017_12_24_S19 12/24/2017 13:50:00 0.001
2017_12_24_S19 12/24/2017 13:55:00 0.0
2017_12_24_S19 12/24/2017 14:00:00 0.0
2017_12_24_S19 12/24/2017 14:05:00 0.0
2017_12_24_S19 12/24/2017 14:10:00 0.0
2017_12_24_S19 12/24/2017 14:15:00 0.0
2017_12_24_S19 12/24/2017 14:20:00 0.0
2017_12_24_S19 12/24/2017 14:25:00 0.0
2017_12_24_S19 12/24/2017 14:30:00 0.0
2017_12_24_S19 12/24/2017 14:35:00 0.0
2017_12_24_S19 12/24/2017 14:40:00 0.0
2017_12_24_S19 12/24/2017 14:45:00 0.0
2017_12_24_S19 12/24/2017 14:50:00 0.0
2017_12_24_S19 12/24/2017 14:55:00 0.0
2017_12_24_S19 12/24/2017 15:00:00 0.0
2017_12_24_S19 12/24/2017 15:05:00 0.0
2017_12_24_S19 12/24/2017 15:10:00 0.0269
2017_12_24_S19 12/24/2017 15:15:00 0.0001
2017_12_24_S19 12/24/2017 15:20:00 0.0019
2017_12_24_S19 12/24/2017 15:25:00 0.0425
2017_12_24_S19 12/24/2017 15:30:00 0.0902
2017_12_24_S19 12/24/2017 15:35:00 0.7547
2017_12_24_S19 12/24/2017 15:40:00 0.3056
2017_12_24_S19 12/24/2017 15:45:00 0.019
2017_12_24_S19 12/24/2017 15:50:00 0.0
2017_12_24_S19 12/24/2017 15:55:00 0.0342
2017_12_24_S19 12/24/2017 16:00:00 0.8609
2017_12_24_S19 12/24/2017 16:05:00 1.1212
2017_12_24_S19 12/24/2017 16:10:00 0.0019
2017_12_24_S19 12/24/2017 16:15:00 0.0
2017_12_24_S19 12/24/2017 16:20:00 0.1595
2017_12_24_S19 12/24/2017 16:25:00 0.0608
2017_12_24_S19 12/24/2017 16:30:00 0.024
2017_12_24_S19 12/24/2017 16:35:00 0.0642
2017_12_24_S19 12/24/2017 16:40:00 0.0592
2017_12_24_S19 12/24/2017 16:45:00 0.0414
2017_12_24_S19 12/24/2017 16:50:00 0.0235
2017_12_24_S19 12/24/2017 16:55:00 0.0642
2017_12_24_S19 12/24/2017 17:00:00 0.0127
2017_12_24_S19 12/24/2017 17:05:00 0.0
2017_12_24_S19 12/24/2017 17:10:00 0.0469
2017_12_24_S19 12/24/2017 17:15:00 0.1093
2017_12_24_S19 12/24/2017 17:20:00 0.0365
2017_12_24_S19 12/24/2017 17:25:00 0.0357
2017_12_24_S19 12/24/2017 17:30:00 0.0528
2017_12_24_S19 12/24/2017 17:35:00 0.1238
2017_12_24_S19 12/24/2017 17:40:00 0.2866
2017_12_24_S19 12/24/2017 17:45:00 0.0247
2017_12_24_S19 12/24/2017 17:50:00 0.009
2017_12_24_S19 12/24/2017 17:55:00 0.0174
2017_12_24_S19 12/24/2017 18:00:00 0.0468
2017_12_24_S19 12/24/2017 18:05:00 0.0421
2017_12_24_S19 12/24/2017 18:10:00 0.5856
2017_12_24_S19 12/24/2017 18:15:00 0.2295
2017_12_24_S19 12/24/2017 18:20:00 0.0175
2017_12_24_S19 12/24/2017 18:25:00 0.0
2017_12_24_S19 12/24/2017 18:30:00 0.001
2017_12_24_S19 12/24/2017 18:35:00 0.0079
2017_12_24_S19 12/24/2017 18:40:00 0.0282
2017_12_24_S19 12/24/2017 18:45:00 0.01
2017_12_24_S19 12/24/2017 18:50:00 0.0
2017_12_24_S19 12/24/2017 18:55:00 0.0
2017_12_24_S19 12/24/2017 19:00:00 0.0146
2017_12_24_S19 12/24/2017 19:05:00 0.0492
2017_12_24_S19 12/24/2017 19:10:00 0.1165
2017_12_24_S19 12/24/2017 19:15:00 0.135
2017_12_24_S19 12/24/2017 19:20:00 0.0524
2017_12_24_S19 12/24/2017 19:25:00 0.0115
2017_12_24_S19 12/24/2017 19:30:00 0.0
2017_12_24_S19 12/24/2017 19:35:00 0.0119
2017_12_24_S19 12/24/2017 19:40:00 0.0165
2017_12_24_S19 12/24/2017 19:45:00 0.0
2017_12_24_S19 12/24/2017 19:50:00 0.013
2017_12_24_S19 12/24/2017 19:55:00 0.0731
2017_12_24_S19 12/24/2017 20:00:00 0.1332
2017_12_24_S19 12/24/2017 20:05:00 0.0528
2017_12_24_S19 12/24/2017 20:10:00 0.0081
2017_12_24_S19 12/24/2017 20:15:00 0.0
2017_12_24_S19 12/24/2017 20:20:00 0.0067
2017_12_24_S19 12/24/2017 20:25:00 0.0079
2017_12_24_S19 12/24/2017 20:30:00 0.0572
2017_12_24_S19 12/24/2017 20:35:00 0.0068
2017_12_24_S19 12/24/2017 20:40:00 0.0062
2017_12_24_S19 12/24/2017 20:45:00 0.0064
2017_12_24_S19 12/24/2017 20:50:00 0.0133
2017_12_24_S19 12/24/2017 20:55:00 0.0493
2017_12_24_S19 12/24/2017 21:00:00 0.0569
2017_12_24_S19 12/24/2017 21:05:00 0.0206
2017_12_24_S19 12/24/2017 21:10:00 0.0166
2017_12_24_S19 12/24/2017 21:15:00 0.0126
2017_12_24_S19 12/24/2017 21:20:00 0.0897
2017_12_24_S19 12/24/2017 21:25:00 0.0199
2017_12_24_S19 12/24/2017 21:30:00 0.0009
2017_12_24_S19 12/24/2017 21:35:00 0.0
2017_12_24_S19 12/24/2017 21:40:00 0.017
2017_12_24_S19 12/24/2017 21:45:00 0.2122
2017_12_24_S19 12/24/2017 21:50:00 0.0571
2017_12_24_S19 12/24/2017 21:55:00 0.0837
2017_12_24_S19 12/24/2017 22:00:00 0.2656
2017_12_24_S19 12/24/2017 22:05:00 0.0456
2017_12_24_S19 12/24/2017 22:10:00 0.0543
2017_12_24_S19 12/24/2017 22:15:00 0.0237
2017_12_24_S19 12/24/2017 22:20:00 0.0
2017_12_24_S19 12/24/2017 22:25:00 0.1555
2017_12_24_S19 12/24/2017 22:30:00 0.2819
2017_12_24_S19 12/24/2017 22:35:00 0.0332
2017_12_24_S19 12/24/2017 22:40:00 0.045
2017_12_24_S19 12/24/2017 22:45:00 0.2153
2017_12_24_S19 12/24/2017 22:50:00 0.0873
2017_12_24_S19 12/24/2017 22:55:00 0.0508
2017_12_24_S19 12/24/2017 23:00:00 0.0693
2017_12_24_S19 12/24/2017 23:05:00 0.1096
2017_12_24_S19 12/24/2017 23:10:00 0.0701
2017_12_24_S19 12/24/2017 23:15:00 0.1161
2017_12_24_S19 12/24/2017 23:20:00 0.0906
2017_12_24_S19 12/24/2017 23:25:00 0.0896
2017_12_24_S19 12/24/2017 23:30:00 0.2472
2017_12_24_S19 12/24/2017 23:35:00 0.0355
2017_12_24_S19 12/24/2017 23:40:00 0.0189
2017_12_24_S19 12/24/2017 23:45:00 0.0097
2017_12_24_S19 12/24/2017 23:50:00 0.0015
2017_12_24_S19 12/24/2017 23:55:00 0.0
2017_12_24_S19 12/25/2017 00:00:00 0.0
2017_12_24_S19 12/25/2017 00:05:00 0.0
2017_12_24_S19 12/25/2017 00:10:00 0.0
2017_12_24_S19 12/25/2017 00:15:00 0.0119
2017_12_24_S19 12/25/2017 00:20:00 0.1825
2017_12_24_S19 12/25/2017 00:25:00 0.0
2017_12_24_S19 12/25/2017 00:30:00 0.0
2017_12_24_S19 12/25/2017 00:35:00 0.0
2017_12_24_S19 12/25/2017 00:40:00 0.0
2017_12_24_S19 12/25/2017 00:45:00 0.0
2017_12_24_S19 12/25/2017 00:50:00 0.0
2017_12_24_S19 12/25/2017 00:55:00 0.0
2017_12_24_S19 12/25/2017 01:00:00 0.0
2017_12_24_S19 12/25/2017 01:05:00 0.0
2017_12_24_S19 12/25/2017 01:10:00 0.0528
2017_12_24_S19 12/25/2017 01:15:00 0.0898
2017_12_24_S19 12/25/2017 01:20:00 0.0
2017_12_24_S19 12/25/2017 01:25:00 0.0
2017_12_24_S19 12/25/2017 01:30:00 0.0
2017_12_24_S19 12/25/2017 01:35:00 0.0
2017_12_24_S19 12/25/2017 01:40:00 0.0
2017_12_24_S19 12/25/2017 01:45:00 0.0019
2017_12_24_S19 12/25/2017 01:50:00 0.0045
2017_12_24_S19 12/25/2017 01:55:00 0.0002
2017_12_24_S19 12/25/2017 02:00:00 0.3656
2017_12_24_S19 12/25/2017 02:05:00 0.2127
2017_12_24_S19 12/25/2017 02:10:00 0.0
2017_12_24_S19 12/25/2017 02:15:00 0.0
2017_12_24_S19 12/25/2017 02:20:00 0.0102
2017_12_24_S19 12/25/2017 02:25:00 0.0415
2017_12_24_S19 12/25/2017 02:30:00 0.0
2017_12_24_S19 12/25/2017 02:35:00 0.0
2017_12_24_S19 12/25/2017 02:40:00 0.0
2017_12_24_S19 12/25/2017 02:45:00 0.0
2017_12_24_S19 12/25/2017 02:50:00 0.0
2017_12_24_S19 12/25/2017 02:55:00 0.0
2017_12_24_S19 12/25/2017 03:00:00 0.0
2017_12_24_S19 12/25/2017 03:05:00 0.0
2017_12_24_S19 12/25/2017 03:10:00 0.0
2017_12_24_S19 12/25/2017 03:15:00 0.0
2017_12_24_S19 12/25/2017 03:20:00 0.0
2017_12_24_S19 12/25/2017 03:25:00 0.0375
2017_12_24_S19 12/25/2017 03:30:00 0.1996
2017_12_24_S19 12/25/2017 03:35:00 0.0
2017_12_24_S19 12/25/2017 03:40:00 0.0015
2017_12_24_S19 12/25/2017 03:45:00 0.0
2017_12_24_S19 12/25/2017 03:50:00 0.0
2017_12_24_S19 12/25/2017 03:55:00 0.0
2017_12_24_S19 12/25/2017 04:00:00 0.0
2017_12_24_S19 12/25/2017 04:05:00 0.0
2017_12_24_S19 12/25/2017 04:10:00 0.0
2017_12_24_S19 12/25/2017 04:15:00 0.0
2017_12_24_S19 12/25/2017 04:20:00 0.0
2017_12_24_S19 12/25/2017 04:25:00 0.0
2017_12_24_S19 12/25/2017 04:30:00 0.0
2017_12_24_S19 12/25/2017 04:35:00 0.0
2017_12_24_S19 12/25/2017 04:40:00 0.0
2017_12_24_S19 12/25/2017 04:45:00 0.0
2017_12_24_S19 12/25/2017 04:50:00 0.2075
2017_12_24_S19 12/25/2017 04:55:00 0.4792
2017_12_24_S19 12/25/2017 05:00:00 0.6492
2017_12_24_S19 12/25/2017 05:05:00 0.2227
2017_12_24_S19 12/25/2017 05:10:00 0.0
2017_12_24_S19 12/25/2017 05:15:00 0.0
2017_12_24_S19 12/25/2017 05:20:00 0.0001
2017_12_24_S19 12/25/2017 05:25:00 0.0685
2017_12_24_S19 12/25/2017 05:30:00 0.0493
2017_12_24_S19 12/25/2017 05:35:00 0.0306
2017_12_24_S19 12/25/2017 05:40:00 0.3347
2017_12_24_S19 12/25/2017 05:45:00 0.0868
2017_12_24_S19 12/25/2017 05:50:00 0.5442
2017_12_24_S19 12/25/2017 05:55:00 0.0012
2017_12_24_S19 12/25/2017 06:00:00 0.2905
2017_12_24_S19 12/25/2017 06:05:00 0.4121
2017_12_24_S19 12/25/2017 06:10:00 0.1142
2017_12_24_S19 12/25/2017 06:15:00 0.0
2017_12_24_S19 12/25/2017 06:20:00 0.0
2017_12_24_S19 12/25/2017 06:25:00 0.0
2017_12_24_S19 12/25/2017 06:30:00 0.0
2017_12_24_S19 12/25/2017 06:35:00 0.0
2017_12_24_S19 12/25/2017 06:40:00 0.0
2017_12_24_S19 12/25/2017 06:45:00 0.0
2017_12_24_S19 12/25/2017 06:50:00 0.0
2017_12_24_S19 12/25/2017 06:55:00 0.0
2017_12_24_S19 12/25/2017 07:00:00 0.0
2017_12_24_S19 12/25/2017 07:05:00 0.0
2017_12_24_S19 12/25/2017 07:10:00 0.0
2017_12_24_S19 12/25/2017 07:15:00 0.0
2017_12_24_S19 12/25/2017 07:20:00 0.0
2017_12_24_S19 12/25/2017 07:25:00 0.0
2017_12_24_S19 12/25/2017 07:30:00 0.0
2017_12_24_S19 12/25/2017 07:35:00 0.0
2017_12_24_S19 12/25/2017 07:40:00 0.0
2017_12_24_S19 12/25/2017 07:45:00 0.0
2017_12_24_S19 12/25/2017 07:50:00 0.0
2017_12_24_S19 12/25/2017 07:55:00 0.0
2017_12_24_S19 12/25/2017 08:00:00 0.0

2017_12_24_S20 12/24/2017 12:10:00 0.0119
2017_12_24_S20 12/24/2017 12:15:00 0.3598
2017_12_24_S20 12/24/2017 12:20:00 4.3544
2017_12_24_S20 12/24/2017 12:25:00 4.7166
2017_12_24_S20 12/24/2017 12:30:00 3.4974
2017_12_24_S20 12/24/2017 12:35:00 0.8937
2017_12_24_S20 12/24/2017 12:40:00 2.393
2017_12_24_S20 12/24/2017 12:45:00 1.0388
2017_12_24_S20 12/24/2017 12:50:00 0.6077
2017_12_24_S20 12/24/2017 12:55:00 0.4857
2017_12_24_S20 12/24/2017 13:00:00 0.1169
2017_12_24_S20 12/24/2017 13:05:00 0.0134
2017_12_24_S20 12/24/2017 13:10:00 0.012
2017_12_24_S20 12/24/2017 13:15:00 0.027
2017_12_24_S20 12/24/2017 13:20:00 0.0488
2017_12_24_S20 12/24/2017 13:25:00 0.0445
2017_12_24_S20 12/24/2017 13:30:00 0.0794
2017_12_24_S20 12/24/2017 13:35:00 0.0136
2017_12_24_S20 12/24/2017 13:40:00 0.012
2017_12_24_S20 12/24/2017 13:45:00 0.006
2017_12_24_S20 12/24/2017 13:50:00 0.0
2017_12_24_S20 12/24/2017 13:55:00 0.0
2017_12_24_S20 12/24/2017 14:00:00 0.0
2017_12_24_S20 12/24/2017 14:05:00 0.0
2017_12_24_S20 12/24/2017 14:10:00 0.0
2017_12_24_S20 12/24/2017 14:15:00 0.0
2017_12_24_S20 12/24/2017 14:20:00 0.0
2017_12_24_S20 12/24/2017 14:25:00 0.0
2017_12_24_S20 12/24/2017 14:30:00 0.0
2017_12_24_S20 12/24/2017 14:35:00 0.0
2017_12_24_S20 12/24/2017 14:40:00 0.0
2017_12_24_S20 12/24/2017 14:45:00 0.0
2017_12_24_S20 12/24/2017 14:50:00 0.0
2017_12_24_S20 12/24/2017 14:55:00 0.0
2017_12_24_S20 12/24/2017 15:00:00 0.0
2017_12_24_S20 12/24/2017 15:05:00 0.0
2017_12_24_S20 12/24/2017 15:10:00 0.0141
2017_12_24_S20 12/24/2017 15:15:00 0.0019
2017_12_24_S20 12/24/2017 15:20:00 0.0032
2017_12_24_S20 12/24/2017 15:25:00 0.0452
2017_12_24_S20 12/24/2017 15:30:00 0.0792
2017_12_24_S20 12/24/2017 15:35:00 0.6901
2017_12_24_S20 12/24/2017 15:40:00 0.2634
2017_12_24_S20 12/24/2017 15:45:00 0.0211
2017_12_24_S20 12/24/2017 15:50:00 0.0
2017_12_24_S20 12/24/2017 15:55:00 0.0409
2017_12_24_S20 12/24/2017 16:00:00 0.9162
2017_12_24_S20 12/24/2017 16:05:00 0.8318
2017_12_24_S20 12/24/2017 16:10:00 0.0015
2017_12_24_S20 12/24/2017 16:15:00 0.0
2017_12_24_S20 12/24/2017 16:20:00 0.1974
2017_12_24_S20 12/24/2017 16:25:00 0.0589
2017_12_24_S20 12/24/2017 16:30:00 0.0264
2017_12_24_S20 12/24/2017 16:35:00 0.0473
2017_12_24_S20 12/24/2017 16:40:00 0.064
2017_12_24_S20 12/24/2017 16:45:00 0.0475
2017_12_24_S20 12/24/2017 16:50:00 0.0311
2017_12_24_S20 12/24/2017 16:55:00 0.0845
2017_12_24_S20 12/24/2017 17:00:00 0.0224
2017_12_24_S20 12/24/2017 17:05:00 0.0
2017_12_24_S20 12/24/2017 17:10:00 0.0434
2017_12_24_S20 12/24/2017 17:15:00 0.1249
2017_12_24_S20 12/24/2017 17:20:00 0.0382
2017_12_24_S20 12/24/2017 17:25:00 0.036
2017_12_24_S20 12/24/2017 17:30:00 0.0498
2017_12_24_S20 12/24/2017 17:35:00 0.1199
2017_12_24_S20 12/24/2017 17:40:00 0.2478
2017_12_24_S20 12/24/2017 17:45:00 0.0288
2017_12_24_S20 12/24/2017 17:50:00 0.0091
2017_12_24_S20 12/24/2017 17:55:00 0.0169
2017_12_24_S20 12/24/2017 18:00:00 0.0407
2017_12_24_S20 12/24/2017 18:05:00 0.0285
2017_12_24_S20 12/24/2017 18:10:00 0.6158
2017_12_24_S20 12/24/2017 18:15:00 0.2406
2017_12_24_S20 12/24/2017 18:20:00 0.0103
2017_12_24_S20 12/24/2017 18:25:00 0.001
2017_12_24_S20 12/24/2017 18:30:00 0.0
2017_12_24_S20 12/24/2017 18:35:00 0.008
2017_12_24_S20 12/24/2017 18:40:00 0.0319
2017_12_24_S20 12/24/2017 18:45:00 0.0112
2017_12_24_S20 12/24/2017 18:50:00 0.0
2017_12_24_S20 12/24/2017 18:55:00 0.0
2017_12_24_S20 12/24/2017 19:00:00 0.014
2017_12_24_S20 12/24/2017 19:05:00 0.0466
2017_12_24_S20 12/24/2017 19:10:00 0.1083
2017_12_24_S20 12/24/2017 19:15:00 0.1621
2017_12_24_S20 12/24/2017 19:20:00 0.0512
2017_12_24_S20 12/24/2017 19:25:00 0.0132
2017_12_24_S20 12/24/2017 19:30:00 0.0
2017_12_24_S20 12/24/2017 19:35:00 0.0106
2017_12_24_S20 12/24/2017 19:40:00 0.0131
2017_12_24_S20 12/24/2017 19:45:00 0.0009
2017_12_24_S20 12/24/2017 19:50:00 0.0106
2017_12_24_S20 12/24/2017 19:55:00 0.0685
2017_12_24_S20 12/24/2017 20:00:00 0.1205
2017_12_24_S20 12/24/2017 20:05:00 0.0525
2017_12_24_S20 12/24/2017 20:10:00 0.0088
2017_12_24_S20 12/24/2017 20:15:00 0.0
2017_12_24_S20 12/24/2017 20:20:00 0.007
2017_12_24_S20 12/24/2017 20:25:00 0.007
2017_12_24_S20 12/24/2017 20:30:00 0.0578
2017_12_24_S20 12/24/2017 20:35:00 0.0078
2017_12_24_S20 12/24/2017 20:40:00 0.0065
2017_12_24_S20 12/24/2017 20:45:00 0.0063
2017_12_24_S20 12/24/2017 20:50:00 0.0117
2017_12_24_S20 12/24/2017 20:55:00 0.0465
2017_12_24_S20 12/24/2017 21:00:00 0.0672
2017_12_24_S20 12/24/2017 21:05:00 0.0235
2017_12_24_S20 12/24/2017 21:10:00 0.0168
2017_12_24_S20 12/24/2017 21:15:00 0.0101
2017_12_24_S20 12/24/2017 21:20:00 0.1019
2017_12_24_S20 12/24/2017 21:25:00 0.0197
2017_12_24_S20 12/24/2017 21:30:00 0.0
2017_12_24_S20 12/24/2017 21:35:00 0.0
2017_12_24_S20 12/24/2017 21:40:00 0.0268
2017_12_24_S20 12/24/2017 21:45:00 0.21
2017_12_24_S20 12/24/2017 21:50:00 0.0415
2017_12_24_S20 12/24/2017 21:55:00 0.06
2017_12_24_S20 12/24/2017 22:00:00 0.2951
2017_12_24_S20 12/24/2017 22:05:00 0.0583
2017_12_24_S20 12/24/2017 22:10:00 0.0607
2017_12_24_S20 12/24/2017 22:15:00 0.033
2017_12_24_S20 12/24/2017 22:20:00 0.0
2017_12_24_S20 12/24/2017 22:25:00 0.1418
2017_12_24_S20 12/24/2017 22:30:00 0.296
2017_12_24_S20 12/24/2017 22:35:00 0.0344
2017_12_24_S20 12/24/2017 22:40:00 0.0449
2017_12_24_S20 12/24/2017 22:45:00 0.1483
2017_12_24_S20 12/24/2017 22:50:00 0.0796
2017_12_24_S20 12/24/2017 22:55:00 0.0578
2017_12_24_S20 12/24/2017 23:00:00 0.0635
2017_12_24_S20 12/24/2017 23:05:00 0.0787
2017_12_24_S20 12/24/2017 23:10:00 0.0798
2017_12_24_S20 12/24/2017 23:15:00 0.1486
2017_12_24_S20 12/24/2017 23:20:00 0.1407
2017_12_24_S20 12/24/2017 23:25:00 0.1058
2017_12_24_S20 12/24/2017 23:30:00 0.2217
2017_12_24_S20 12/24/2017 23:35:00 0.0406
2017_12_24_S20 12/24/2017 23:40:00 0.013
2017_12_24_S20 12/24/2017 23:45:00 0.0132
2017_12_24_S20 12/24/2017 23:50:00 0.0021
2017_12_24_S20 12/24/2017 23:55:00 0.0
2017_12_24_S20 12/25/2017 00:00:00 0.0
2017_12_24_S20 12/25/2017 00:05:00 0.0
2017_12_24_S20 12/25/2017 00:10:00 0.0
2017_12_24_S20 12/25/2017 00:15:00 0.0198
2017_12_24_S20 12/25/2017 00:20:00 0.2427
2017_12_24_S20 12/25/2017 00:25:00 0.0
2017_12_24_S20 12/25/2017 00:30:00 0.0
2017_12_24_S20 12/25/2017 00:35:00 0.0
2017_12_24_S20 12/25/2017 00:40:00 0.0
2017_12_24_S20 12/25/2017 00:45:00 0.0
2017_12_24_S20 12/25/2017 00:50:00 0.0
2017_12_24_S20 12/25/2017 00:55:00 0.0
2017_12_24_S20 12/25/2017 01:00:00 0.0
2017_12_24_S20 12/25/2017 01:05:00 0.0
2017_12_24_S20 12/25/2017 01:10:00 0.0383
2017_12_24_S20 12/25/2017 01:15:00 0.1308
2017_12_24_S20 12/25/2017 01:20:00 0.0
2017_12_24_S20 12/25/2017 01:25:00 0.0
2017_12_24_S20 12/25/2017 01:30:00 0.0
2017_12_24_S20 12/25/2017 01:35:00 0.0
2017_12_24_S20 12/25/2017 01:40:00 0.0
2017_12_24_S20 12/25/2017 01:45:00 0.0025
2017_12_24_S20 12/25/2017 01:50:00 0.0061
2017_12_24_S20 12/25/2017 01:55:00 0.0028
2017_12_24_S20 12/25/2017 02:00:00 0.3536
2017_12_24_S20 12/25/2017 02:05:00 0.1804
2017_12_24_S20 12/25/2017 02:10:00 0.0
2017_12_24_S20 12/25/2017 02:15:00 0.0
2017_12_24_S20 12/25/2017 02:20:00 0.0072
2017_12_24_S20 12/25/2017 02:25:00 0.1308
2017_12_24_S20 12/25/2017 02:30:00 0.0
2017_12_24_S20 12/25/2017 02:35:00 0.0
2017_12_24_S20 12/25/2017 02:40:00 0.0
2017_12_24_S20 12/25/2017 02:45:00 0.0
2017_12_24_S20 12/25/2017 02:50:00 0.0
2017_12_24_S20 12/25/2017 02:55:00 0.0
2017_12_24_S20 12/25/2017 03:00:00 0.0028
2017_12_24_S20 12/25/2017 03:05:00 0.0
2017_12_24_S20 12/25/2017 03:10:00 0.0
2017_12_24_S20 12/25/2017 03:15:00 0.0
2017_12_24_S20 12/25/2017 03:20:00 0.0
2017_12_24_S20 12/25/2017 03:25:00 0.0293
2017_12_24_S20 12/25/2017 03:30:00 0.1109
2017_12_24_S20 12/25/2017 03:35:00 0.0
2017_12_24_S20 12/25/2017 03:40:00 0.0
2017_12_24_S20 12/25/2017 03:45:00 0.0
2017_12_24_S20 12/25/2017 03:50:00 0.0
2017_12_24_S20 12/25/2017 03:55:00 0.0
2017_12_24_S20 12/25/2017 04:00:00 0.0
2017_12_24_S20 12/25/2017 04:05:00 0.0
2017_12_24_S20 12/25/2017 04:10:00 0.0
2017_12_24_S20 12/25/2017 04:15:00 0.0
2017_12_24_S20 12/25/2017 04:20:00 0.0
2017_12_24_S20 12/25/2017 04:25:00 0.0
2017_12_24_S20 12/25/2017 04:30:00 0.0
2017_12_24_S20 12/25/2017 04:35:00 0.0
2017_12_24_S20 12/25/2017 04:40:00 0.0
2017_12_24_S20 12/25/2017 04:45:00 0.0
2017_12_24_S20 12/25/2017 04:50:00 0.2564
2017_12_24_S20 12/25/2017 04:55:00 0.612
2017_12_24_S20 12/25/2017 05:00:00 0.7792
2017_12_24_S20 12/25/2017 05:05:00 0.1658
2017_12_24_S20 12/25/2017 05:10:00 0.0
2017_12_24_S20 12/25/2017 05:15:00 0.0
2017_12_24_S20 12/25/2017 05:20:00 0.0
2017_12_24_S20 12/25/2017 05:25:00 0.0535
2017_12_24_S20 12/25/2017 05:30:00 0.1451
2017_12_24_S20 12/25/2017 05:35:00 0.3312
2017_12_24_S20 12/25/2017 05:40:00 0.6326
2017_12_24_S20 12/25/2017 05:45:00 0.1574
2017_12_24_S20 12/25/2017 05:50:00 0.4488
2017_12_24_S20 12/25/2017 05:55:00 0.0026
2017_12_24_S20 12/25/2017 06:00:00 0.2802
2017_12_24_S20 12/25/2017 06:05:00 0.362
2017_12_24_S20 12/25/2017 06:10:00 0.1155
2017_12_24_S20 12/25/2017 06:15:00 0.0
2017_12_24_S20 12/25/2017 06:20:00 0.0
2017_12_24_S20 12/25/2017 06:25:00 0.0
2017_12_24_S20 12/25/2017 06:30:00 0.0
2017_12_24_S20 12/25/2017 06:35:00 0.0
2017_12_24_S20 12/25/2017 06:40:00 0.0
2017_12_24_S20 12/25/2017 06:45:00 0.0
2017_12_24_S20 12/25/2017 06:50:00 0.0
2017_12_24_S20 12/25/2017 06:55:00 0.0
2017_12_24_S20 12/25/2017 07:00:00 0.0
2017_12_24_S20 12/25/2017 07:05:00 0.0
2017_12_24_S20 12/25/2017 07:10:00 0.0
2017_12_24_S20 12/25/2017 07:15:00 0.0
2017_12_24_S20 12/25/2017 07:20:00 0.0
2017_12_24_S20 12/25/2017 07:25:00 0.0
2017_12_24_S20 12/25/2017 07:30:00 0.0
2017_12_24_S20 12/25/2017 07:35:00 0.0
2017_12_24_S20 12/25/2017 07:40:00 0.0
2017_12_24_S20 12/25/2017 07:45:00 0.0
2017_12_24_S20 12/25/2017 07:50:00 0.0
2017_12_24_S20 12/25/2017 07:55:00 0.0
2017_12_24_S20 12/25/2017 08:00:00 0.0

2017_12_24_S21 12/24/2017 12:10:00 0.0
2017_12_24_S21 12/24/2017 12:15:00 0.1874
2017_12_24_S21 12/24/2017 12:20:00 0.4421
2017_12_24_S21 12/24/2017 12:25:00 6.8537
2017_12_24_S21 12/24/2017 12:30:00 4.0464
2017_12_24_S21 12/24/2017 12:35:00 2.9648
2017_12_24_S21 12/24/2017 12:40:00 5.5179
2017_12_24_S21 12/24/2017 12:45:00 4.4644
2017_12_24_S21 12/24/2017 12:50:00 1.3315
2017_12_24_S21 12/24/2017 12:55:00 0.9251
2017_12_24_S21 12/24/2017 13:00:00 0.2998
2017_12_24_S21 12/24/2017 13:05:00 0.0917
2017_12_24_S21 12/24/2017 13:10:00 0.0125
2017_12_24_S21 12/24/2017 13:15:00 0.0314
2017_12_24_S21 12/24/2017 13:20:00 0.0719
2017_12_24_S21 12/24/2017 13:25:00 0.0694
2017_12_24_S21 12/24/2017 13:30:00 0.4394
2017_12_24_S21 12/24/2017 13:35:00 0.0311
2017_12_24_S21 12/24/2017 13:40:00 0.0105
2017_12_24_S21 12/24/2017 13:45:00 0.0059
2017_12_24_S21 12/24/2017 13:50:00 0.0013
2017_12_24_S21 12/24/2017 13:55:00 0.0015
2017_12_24_S21 12/24/2017 14:00:00 0.0
2017_12_24_S21 12/24/2017 14:05:00 0.0
2017_12_24_S21 12/24/2017 14:10:00 0.0
2017_12_24_S21 12/24/2017 14:15:00 0.0
2017_12_24_S21 12/24/2017 14:20:00 0.0
2017_12_24_S21 12/24/2017 14:25:00 0.0
2017_12_24_S21 12/24/2017 14:30:00 0.0
2017_12_24_S21 12/24/2017 14:35:00 0.0
2017_12_24_S21 12/24/2017 14:40:00 0.0
2017_12_24_S21 12/24/2017 14:45:00 0.0
2017_12_24_S21 12/24/2017 14:50:00 0.0
2017_12_24_S21 12/24/2017 14:55:00 0.0
2017_12_24_S21 12/24/2017 15:00:00 0.0
2017_12_24_S21 12/24/2017 15:05:00 0.0
2017_12_24_S21 12/24/2017 15:10:00 0.0134
2017_12_24_S21 12/24/2017 15:15:00 0.0
2017_12_24_S21 12/24/2017 15:20:00 0.0036
2017_12_24_S21 12/24/2017 15:25:00 0.0166
2017_12_24_S21 12/24/2017 15:30:00 0.0779
2017_12_24_S21 12/24/2017 15:35:00 0.5491
2017_12_24_S21 12/24/2017 15:40:00 0.6165
2017_12_24_S21 12/24/2017 15:45:00 0.0666
2017_12_24_S21 12/24/2017 15:50:00 0.0
2017_12_24_S21 12/24/2017 15:55:00 0.0057
2017_12_24_S21 12/24/2017 16:00:00 0.3248
2017_12_24_S21 12/24/2017 16:05:00 1.6772
2017_12_24_S21 12/24/2017 16:10:00 0.0354
2017_12_24_S21 12/24/2017 16:15:00 0.0
2017_12_24_S21 12/24/2017 16:20:00 0.0837
2017_12_24_S21 12/24/2017 16:25:00 0.0876
2017_12_24_S21 12/24/2017 16:30:00 0.0157
2017_12_24_S21 12/24/2017 16:35:00 0.0506
2017_12_24_S21 12/24/2017 16:40:00 0.0735
2017_12_24_S21 12/24/2017 16:45:00 0.0441
2017_12_24_S21 12/24/2017 16:50:00 0.0148
2017_12_24_S21 12/24/2017 16:55:00 0.0526
2017_12_24_S21 12/24/2017 17:00:00 0.0069
2017_12_24_S21 12/24/2017 17:05:00 0.0009
2017_12_24_S21 12/24/2017 17:10:00 0.0278
2017_12_24_S21 12/24/2017 17:15:00 0.0566
2017_12_24_S21 12/24/2017 17:20:00 0.0357
2017_12_24_S21 12/24/2017 17:25:00 0.0271
2017_12_24_S21 12/24/2017 17:30:00 0.0417
2017_12_24_S21 12/24/2017 17:35:00 0.1564
2017_12_24_S21 12/24/2017 17:40:00 0.2916
2017_12_24_S21 12/24/2017 17:45:00 0.0507
2017_12_24_S21 12/24/2017 17:50:00 0.015
2017_12_24_S21 12/24/2017 17:55:00 0.0302
2017_12_24_S21 12/24/2017 18:00:00 0.0763
2017_12_24_S21 12/24/2017 18:05:00 0.0377
2017_12_24_S21 12/24/2017 18:10:00 0.2473
2017_12_24_S21 12/24/2017 18:15:00 0.1794
2017_12_24_S21 12/24/2017 18:20:00 0.026
2017_12_24_S21 12/24/2017 18:25:00 0.0113
2017_12_24_S21 12/24/2017 18:30:00 0.003
2017_12_24_S21 12/24/2017 18:35:00 0.0047
2017_12_24_S21 12/24/2017 18:40:00 0.0148
2017_12_24_S21 12/24/2017 18:45:00 0.0096
2017_12_24_S21 12/24/2017 18:50:00 0.0
2017_12_24_S21 12/24/2017 18:55:00 0.0
2017_12_24_S21 12/24/2017 19:00:00 0.0212
2017_12_24_S21 12/24/2017 19:05:00 0.0487
2017_12_24_S21 12/24/2017 19:10:00 0.1146
2017_12_24_S21 12/24/2017 19:15:00 0.1589
2017_12_24_S21 12/24/2017 19:20:00 0.0988
2017_12_24_S21 12/24/2017 19:25:00 0.0109
2017_12_24_S21 12/24/2017 19:30:00 0.0
2017_12_24_S21 12/24/2017 19:35:00 0.0049
2017_12_24_S21 12/24/2017 19:40:00 0.0091
2017_12_24_S21 12/24/2017 19:45:00 0.0
2017_12_24_S21 12/24/2017 19:50:00 0.0113
2017_12_24_S21 12/24/2017 19:55:00 0.0722
2017_12_24_S21 12/24/2017 20:00:00 0.1755
2017_12_24_S21 12/24/2017 20:05:00 0.0427
2017_12_24_S21 12/24/2017 20:10:00 0.0066
2017_12_24_S21 12/24/2017 20:15:00 0.0006
2017_12_24_S21 12/24/2017 20:20:00 0.0049
2017_12_24_S21 12/24/2017 20:25:00 0.0069
2017_12_24_S21 12/24/2017 20:30:00 0.0292
2017_12_24_S21 12/24/2017 20:35:00 0.01
2017_12_24_S21 12/24/2017 20:40:00 0.0066
2017_12_24_S21 12/24/2017 20:45:00 0.0046
2017_12_24_S21 12/24/2017 20:50:00 0.0107
2017_12_24_S21 12/24/2017 20:55:00 0.0681
2017_12_24_S21 12/24/2017 21:00:00 0.0638
2017_12_24_S21 12/24/2017 21:05:00 0.0269
2017_12_24_S21 12/24/2017 21:10:00 0.0188
2017_12_24_S21 12/24/2017 21:15:00 0.0106
2017_12_24_S21 12/24/2017 21:20:00 0.0493
2017_12_24_S21 12/24/2017 21:25:00 0.0457
2017_12_24_S21 12/24/2017 21:30:00 0.0007
2017_12_24_S21 12/24/2017 21:35:00 0.0006
2017_12_24_S21 12/24/2017 21:40:00 0.0595
2017_12_24_S21 12/24/2017 21:45:00 0.3307
2017_12_24_S21 12/24/2017 21:50:00 0.0484
2017_12_24_S21 12/24/2017 21:55:00 0.0178
2017_12_24_S21 12/24/2017 22:00:00 0.3272
2017_12_24_S21 12/24/2017 22:05:00 0.1352
2017_12_24_S21 12/24/2017 22:10:00 0.0732
2017_12_24_S21 12/24/2017 22:15:00 0.0487
2017_12_24_S21 12/24/2017 22:20:00 0.0
2017_12_24_S21 12/24/2017 22:25:00 0.1008
2017_12_24_S21 12/24/2017 22:30:00 0.3456
2017_12_24_S21 12/24/2017 22:35:00 0.0566
2017_12_24_S21 12/24/2017 22:40:00 0.1007
2017_12_24_S21 12/24/2017 22:45:00 0.2188
2017_12_24_S21 12/24/2017 22:50:00 0.1043
2017_12_24_S21 12/24/2017 22:55:00 0.0512
2017_12_24_S21 12/24/2017 23:00:00 0.0473
2017_12_24_S21 12/24/2017 23:05:00 0.1063
2017_12_24_S21 12/24/2017 23:10:00 0.226
2017_12_24_S21 12/24/2017 23:15:00 0.1246
2017_12_24_S21 12/24/2017 23:20:00 0.1334
2017_12_24_S21 12/24/2017 23:25:00 0.2062
2017_12_24_S21 12/24/2017 23:30:00 0.2097
2017_12_24_S21 12/24/2017 23:35:00 0.099
2017_12_24_S21 12/24/2017 23:40:00 0.0284
2017_12_24_S21 12/24/2017 23:45:00 0.0111
2017_12_24_S21 12/24/2017 23:50:00 0.0093
2017_12_24_S21 12/24/2017 23:55:00 0.0
2017_12_24_S21 12/25/2017 00:00:00 0.0
2017_12_24_S21 12/25/2017 00:05:00 0.0
2017_12_24_S21 12/25/2017 00:10:00 0.0
2017_12_24_S21 12/25/2017 00:15:00 0.0737
2017_12_24_S21 12/25/2017 00:20:00 0.1713
2017_12_24_S21 12/25/2017 00:25:00 0.0
2017_12_24_S21 12/25/2017 00:30:00 0.0
2017_12_24_S21 12/25/2017 00:35:00 0.0
2017_12_24_S21 12/25/2017 00:40:00 0.0
2017_12_24_S21 12/25/2017 00:45:00 0.0
2017_12_24_S21 12/25/2017 00:50:00 0.0
2017_12_24_S21 12/25/2017 00:55:00 0.0
2017_12_24_S21 12/25/2017 01:00:00 0.0
2017_12_24_S21 12/25/2017 01:05:00 0.0
2017_12_24_S21 12/25/2017 01:10:00 0.0542
2017_12_24_S21 12/25/2017 01:15:00 0.1643
2017_12_24_S21 12/25/2017 01:20:00 0.0
2017_12_24_S21 12/25/2017 01:25:00 0.0
2017_12_24_S21 12/25/2017 01:30:00 0.0
2017_12_24_S21 12/25/2017 01:35:00 0.0
2017_12_24_S21 12/25/2017 01:40:00 0.0
2017_12_24_S21 12/25/2017 01:45:00 0.0115
2017_12_24_S21 12/25/2017 01:50:00 0.0027
2017_12_24_S21 12/25/2017 01:55:00 0.0
2017_12_24_S21 12/25/2017 02:00:00 0.1532
2017_12_24_S21 12/25/2017 02:05:00 0.2217
2017_12_24_S21 12/25/2017 02:10:00 0.0
2017_12_24_S21 12/25/2017 02:15:00 0.0
2017_12_24_S21 12/25/2017 02:20:00 0.0019
2017_12_24_S21 12/25/2017 02:25:00 0.035
2017_12_24_S21 12/25/2017 02:30:00 0.0
2017_12_24_S21 12/25/2017 02:35:00 0.0
2017_12_24_S21 12/25/2017 02:40:00 0.0
2017_12_24_S21 12/25/2017 02:45:00 0.0
2017_12_24_S21 12/25/2017 02:50:00 0.0
2017_12_24_S21 12/25/2017 02:55:00 0.0
2017_12_24_S21 12/25/2017 03:00:00 0.0
2017_12_24_S21 12/25/2017 03:05:00 0.0
2017_12_24_S21 12/25/2017 03:10:00 0.0
2017_12_24_S21 12/25/2017 03:15:00 0.0
2017_12_24_S21 12/25/2017 03:20:00 0.0
2017_12_24_S21 12/25/2017 03:25:00 0.0094
2017_12_24_S21 12/25/2017 03:30:00 0.1517
2017_12_24_S21 12/25/2017 03:35:00 0.0015
2017_12_24_S21 12/25/2017 03:40:00 0.0023
2017_12_24_S21 12/25/2017 03:45:00 0.0
2017_12_24_S21 12/25/2017 03:50:00 0.0
2017_12_24_S21 12/25/2017 03:55:00 0.0
2017_12_24_S21 12/25/2017 04:00:00 0.0
2017_12_24_S21 12/25/2017 04:05:00 0.0
2017_12_24_S21 12/25/2017 04:10:00 0.0
2017_12_24_S21 12/25/2017 04:15:00 0.0
2017_12_24_S21 12/25/2017 04:20:00 0.0
2017_12_24_S21 12/25/2017 04:25:00 0.0
2017_12_24_S21 12/25/2017 04:30:00 0.0
2017_12_24_S21 12/25/2017 04:35:00 0.0
2017_12_24_S21 12/25/2017 04:40:00 0.0
2017_12_24_S21 12/25/2017 04:45:00 0.0
2017_12_24_S21 12/25/2017 04:50:00 0.1203
2017_12_24_S21 12/25/2017 04:55:00 0.4587
2017_12_24_S21 12/25/2017 05:00:00 1.0509
2017_12_24_S21 12/25/2017 05:05:00 0.2561
2017_12_24_S21 12/25/2017 05:10:00 0.0141
2017_12_24_S21 12/25/2017 05:15:00 0.0
2017_12_24_S21 12/25/2017 05:20:00 0.0
2017_12_24_S21 12/25/2017 05:25:00 0.0286
2017_12_24_S21 12/25/2017 05:30:00 0.0563
2017_12_24_S21 12/25/2017 05:35:00 0.0569
2017_12_24_S21 12/25/2017 05:40:00 0.0901
2017_12_24_S21 12/25/2017 05:45:00 0.5941
2017_12_24_S21 12/25/2017 05:50:00 0.3595
2017_12_24_S21 12/25/2017 05:55:00 0.0059
2017_12_24_S21 12/25/2017 06:00:00 0.2431
2017_12_24_S21 12/25/2017 06:05:00 0.3723
2017_12_24_S21 12/25/2017 06:10:00 0.2003
2017_12_24_S21 12/25/2017 06:15:00 0.0006
2017_12_24_S21 12/25/2017 06:20:00 0.0
2017_12_24_S21 12/25/2017 06:25:00 0.0
2017_12_24_S21 12/25/2017 06:30:00 0.0
2017_12_24_S21 12/25/2017 06:35:00 0.0
2017_12_24_S21 12/25/2017 06:40:00 0.0
2017_12_24_S21 12/25/2017 06:45:00 0.0
2017_12_24_S21 12/25/2017 06:50:00 0.0
2017_12_24_S21 12/25/2017 06:55:00 0.0
2017_12_24_S21 12/25/2017 07:00:00 0.0
2017_12_24_S21 12/25/2017 07:05:00 0.0
2017_12_24_S21 12/25/2017 07:10:00 0.0
2017_12_24_S21 12/25/2017 07:15:00 0.0
2017_12_24_S21 12/25/2017 07:20:00 0.0
2017_12_24_S21 12/25/2017 07:25:00 0.0
2017_12_24_S21 12/25/2017 07:30:00 0.0
2017_12_24_S21 12/25/2017 07:35:00 0.0
2017_12_24_S21 12/25/2017 07:40:00 0.0
2017_12_24_S21 12/25/2017 07:45:00 0.0
2017_12_24_S21 12/25/2017 07:50:00 0.0
2017_12_24_S21 12/25/2017 07:55:00 0.0
2017_12_24_S21 12/25/2017 08:00:00 0.0

2017_12_24_S22 12/24/2017 12:10:00 0.0003
2017_12_24_S22 12/24/2017 12:15:00 0.0189
2017_12_24_S22 12/24/2017 12:20:00 0.046
2017_12_24_S22 12/24/2017 12:25:00 1.6183
2017_12_24_S22 12/24/2017 12:30:00 0.8641
2017_12_24_S22 12/24/2017 12:35:00 2.0449
2017_12_24_S22 12/24/2017 12:40:00 5.5078
2017_12_24_S22 12/24/2017 12:45:00 2.4586
2017_12_24_S22 12/24/2017 12:50:00 0.5309
2017_12_24_S22 12/24/2017 12:55:00 1.3987
2017_12_24_S22 12/24/2017 13:00:00 0.5067
2017_12_24_S22 12/24/2017 13:05:00 0.1907
2017_12_24_S22 12/24/2017 13:10:00 0.0114
2017_12_24_S22 12/24/2017 13:15:00 0.0334
2017_12_24_S22 12/24/2017 13:20:00 0.093
2017_12_24_S22 12/24/2017 13:25:00 0.0824
2017_12_24_S22 12/24/2017 13:30:00 0.9033
2017_12_24_S22 12/24/2017 13:35:00 0.0355
2017_12_24_S22 12/24/2017 13:40:00 0.0097
2017_12_24_S22 12/24/2017 13:45:00 0.006
2017_12_24_S22 12/24/2017 13:50:00 0.0023
2017_12_24_S22 12/24/2017 13:55:00 0.0002
2017_12_24_S22 12/24/2017 14:00:00 0.0
2017_12_24_S22 12/24/2017 14:05:00 0.0
2017_12_24_S22 12/24/2017 14:10:00 0.0
2017_12_24_S22 12/24/2017 14:15:00 0.0
2017_12_24_S22 12/24/2017 14:20:00 0.0
2017_12_24_S22 12/24/2017 14:25:00 0.0
2017_12_24_S22 12/24/2017 14:30:00 0.0
2017_12_24_S22 12/24/2017 14:35:00 0.0
2017_12_24_S22 12/24/2017 14:40:00 0.0
2017_12_24_S22 12/24/2017 14:45:00 0.0
2017_12_24_S22 12/24/2017 14:50:00 0.0
2017_12_24_S22 12/24/2017 14:55:00 0.0
2017_12_24_S22 12/24/2017 15:00:00 0.0
2017_12_24_S22 12/24/2017 15:05:00 0.0
2017_12_24_S22 12/24/2017 15:10:00 0.0074
2017_12_24_S22 12/24/2017 15:15:00 0.0
2017_12_24_S22 12/24/2017 15:20:00 0.0
2017_12_24_S22 12/24/2017 15:25:00 0.0214
2017_12_24_S22 12/24/2017 15:30:00 0.0596
2017_12_24_S22 12/24/2017 15:35:00 0.2928
2017_12_24_S22 12/24/2017 15:40:00 1.131
2017_12_24_S22 12/24/2017 15:45:00 0.1061
2017_12_24_S22 12/24/2017 15:50:00 0.0
2017_12_24_S22 12/24/2017 15:55:00 0.0
2017_12_24_S22 12/24/2017 16:00:00 0.2241
2017_12_24_S22 12/24/2017 16:05:00 1.7644
2017_12_24_S22 12/24/2017 16:10:00 0.0522
2017_12_24_S22 12/24/2017 16:15:00 0.0
2017_12_24_S22 12/24/2017 16:20:00 0.0402
2017_12_24_S22 12/24/2017 16:25:00 0.1232
2017_12_24_S22 12/24/2017 16:30:00 0.0466
2017_12_24_S22 12/24/2017 16:35:00 0.1001
2017_12_24_S22 12/24/2017 16:40:00 0.084
2017_12_24_S22 12/24/2017 16:45:00 0.0483
2017_12_24_S22 12/24/2017 16:50:00 0.0127
2017_12_24_S22 12/24/2017 16:55:00 0.023
2017_12_24_S22 12/24/2017 17:00:00 0.0126
2017_12_24_S22 12/24/2017 17:05:00 0.0007
2017_12_24_S22 12/24/2017 17:10:00 0.0308
2017_12_24_S22 12/24/2017 17:15:00 0.0679
2017_12_24_S22 12/24/2017 17:20:00 0.0177
2017_12_24_S22 12/24/2017 17:25:00 0.0305
2017_12_24_S22 12/24/2017 17:30:00 0.1065
2017_12_24_S22 12/24/2017 17:35:00 0.2246
2017_12_24_S22 12/24/2017 17:40:00 0.1673
2017_12_24_S22 12/24/2017 17:45:00 0.1589
2017_12_24_S22 12/24/2017 17:50:00 0.0234
2017_12_24_S22 12/24/2017 17:55:00 0.0812
2017_12_24_S22 12/24/2017 18:00:00 0.0678
2017_12_24_S22 12/24/2017 18:05:00 0.0401
2017_12_24_S22 12/24/2017 18:10:00 0.1463
2017_12_24_S22 12/24/2017 18:15:00 0.3758
2017_12_24_S22 12/24/2017 18:20:00 0.0511
2017_12_24_S22 12/24/2017 18:25:00 0.0446
2017_12_24_S22 12/24/2017 18:30:00 0.0093
2017_12_24_S22 12/24/2017 18:35:00 0.0066
2017_12_24_S22 12/24/2017 18:40:00 0.002
2017_12_24_S22 12/24/2017 18:45:00 0.0
2017_12_24_S22 12/24/2017 18:50:00 0.0
2017_12_24_S22 12/24/2017 18:55:00 0.0
2017_12_24_S22 12/24/2017 19:00:00 0.0116
2017_12_24_S22 12/24/2017 19:05:00 0.0352
2017_12_24_S22 12/24/2017 19:10:00 0.1202
2017_12_24_S22 12/24/2017 19:15:00 0.1612
2017_12_24_S22 12/24/2017 19:20:00 0.1274
2017_12_24_S22 12/24/2017 19:25:00 0.0176
2017_12_24_S22 12/24/2017 19:30:00 0.0
2017_12_24_S22 12/24/2017 19:35:00 0.0
2017_12_24_S22 12/24/2017 19:40:00 0.0107
2017_12_24_S22 12/24/2017 19:45:00 0.0026
2017_12_24_S22 12/24/2017 19:50:00 0.0143
2017_12_24_S22 12/24/2017 19:55:00 0.0553
2017_12_24_S22 12/24/2017 20:00:00 0.1695
2017_12_24_S22 12/24/2017 20:05:00 0.041
2017_12_24_S22 12/24/2017 20:10:00 0.0089
2017_12_24_S22 12/24/2017 20:15:00 0.0047
2017_12_24_S22 12/24/2017 20:20:00 0.0016
2017_12_24_S22 12/24/2017 20:25:00 0.0059
2017_12_24_S22 12/24/2017 20:30:00 0.0257
2017_12_24_S22 12/24/2017 20:35:00 0.0101
2017_12_24_S22 12/24/2017 20:40:00 0.0062
2017_12_24_S22 12/24/2017 20:45:00 0.0064
2017_12_24_S22 12/24/2017 20:50:00 0.0097
2017_12_24_S22 12/24/2017 20:55:00 0.0704
2017_12_24_S22 12/24/2017 21:00:00 0.0535
2017_12_24_S22 12/24/2017 21:05:00 0.0608
2017_12_24_S22 12/24/2017 21:10:00 0.0397
2017_12_24_S22 12/24/2017 21:15:00 0.0185
2017_12_24_S22 12/24/2017 21:20:00 0.0218
2017_12_24_S22 12/24/2017 21:25:00 0.0746
2017_12_24_S22 12/24/2017 21:30:00 0.0058
2017_12_24_S22 12/24/2017 21:35:00 0.0004
2017_12_24_S22 12/24/2017 21:40:00 0.0541
2017_12_24_S22 12/24/2017 21:45:00 0.4322
2017_12_24_S22 12/24/2017 21:50:00 0.0715
2017_12_24_S22 12/24/2017 21:55:00 0.0097
2017_12_24_S22 12/24/2017 22:00:00 0.4131
2017_12_24_S22 12/24/2017 22:05:00 0.249
2017_12_24_S22 12/24/2017 22:10:00 0.0816
2017_12_24_S22 12/24/2017 22:15:00 0.0759
2017_12_24_S22 12/24/2017 22:20:00 0.0
2017_12_24_S22 12/24/2017 22:25:00 0.0675
2017_12_24_S22 12/24/2017 22:30:00 0.345
2017_12_24_S22 12/24/2017 22:35:00 0.0812
2017_12_24_S22 12/24/2017 22:40:00 0.114
2017_12_24_S22 12/24/2017 22:45:00 0.1517
2017_12_24_S22 12/24/2017 22:50:00 0.0703
2017_12_24_S22 12/24/2017 22:55:00 0.0428
2017_12_24_S22 12/24/2017 23:00:00 0.0442
2017_12_24_S22 12/24/2017 23:05:00 0.1192
2017_12_24_S22 12/24/2017 23:10:00 0.3403
2017_12_24_S22 12/24/2017 23:15:00 0.0759
2017_12_24_S22 12/24/2017 23:20:00 0.0886
2017_12_24_S22 12/24/2017 23:25:00 0.3623
2017_12_24_S22 12/24/2017 23:30:00 0.1587
2017_12_24_S22 12/24/2017 23:35:00 0.1984
2017_12_24_S22 12/24/2017 23:40:00 0.0465
2017_12_24_S22 12/24/2017 23:45:00 0.0119
2017_12_24_S22 12/24/2017 23:50:00 0.0101
2017_12_24_S22 12/24/2017 23:55:00 0.0
2017_12_24_S22 12/25/2017 00:00:00 0.0
2017_12_24_S22 12/25/2017 00:05:00 0.0
2017_12_24_S22 12/25/2017 00:10:00 0.0041
2017_12_24_S22 12/25/2017 00:15:00 0.0968
2017_12_24_S22 12/25/2017 00:20:00 0.07
2017_12_24_S22 12/25/2017 00:25:00 0.0004
2017_12_24_S22 12/25/2017 00:30:00 0.0
2017_12_24_S22 12/25/2017 00:35:00 0.0
2017_12_24_S22 12/25/2017 00:40:00 0.0
2017_12_24_S22 12/25/2017 00:45:00 0.0
2017_12_24_S22 12/25/2017 00:50:00 0.0
2017_12_24_S22 12/25/2017 00:55:00 0.0
2017_12_24_S22 12/25/2017 01:00:00 0.0
2017_12_24_S22 12/25/2017 01:05:00 0.0
2017_12_24_S22 12/25/2017 01:10:00 0.0163
2017_12_24_S22 12/25/2017 01:15:00 0.0831
2017_12_24_S22 12/25/2017 01:20:00 0.0
2017_12_24_S22 12/25/2017 01:25:00 0.0
2017_12_24_S22 12/25/2017 01:30:00 0.0
2017_12_24_S22 12/25/2017 01:35:00 0.0
2017_12_24_S22 12/25/2017 01:40:00 0.0
2017_12_24_S22 12/25/2017 01:45:00 0.0165
2017_12_24_S22 12/25/2017 01:50:00 0.0
2017_12_24_S22 12/25/2017 01:55:00 0.0
2017_12_24_S22 12/25/2017 02:00:00 0.0282
2017_12_24_S22 12/25/2017 02:05:00 0.8054
2017_12_24_S22 12/25/2017 02:10:00 0.0
2017_12_24_S22 12/25/2017 02:15:00 0.0
2017_12_24_S22 12/25/2017 02:20:00 0.0
2017_12_24_S22 12/25/2017 02:25:00 0.049
2017_12_24_S22 12/25/2017 02:30:00 0.0
2017_12_24_S22 12/25/2017 02:35:00 0.0
2017_12_24_S22 12/25/2017 02:40:00 0.0
2017_12_24_S22 12/25/2017 02:45:00 0.0
2017_12_24_S22 12/25/2017 02:50:00 0.0
2017_12_24_S22 12/25/2017 02:55:00 0.0
2017_12_24_S22 12/25/2017 03:00:00 0.0
2017_12_24_S22 12/25/2017 03:05:00 0.0
2017_12_24_S22 12/25/2017 03:10:00 0.0
2017_12_24_S22 12/25/2017 03:15:00 0.0
2017_12_24_S22 12/25/2017 03:20:00 0.0
2017_12_24_S22 12/25/2017 03:25:00 0.0
2017_12_24_S22 12/25/2017 03:30:00 0.1931
2017_12_24_S22 12/25/2017 03:35:00 0.012
2017_12_24_S22 12/25/2017 03:40:00 0.0021
2017_12_24_S22 12/25/2017 03:45:00 0.0
2017_12_24_S22 12/25/2017 03:50:00 0.0
2017_12_24_S22 12/25/2017 03:55:00 0.0
2017_12_24_S22 12/25/2017 04:00:00 0.0
2017_12_24_S22 12/25/2017 04:05:00 0.0
2017_12_24_S22 12/25/2017 04:10:00 0.0
2017_12_24_S22 12/25/2017 04:15:00 0.0
2017_12_24_S22 12/25/2017 04:20:00 0.0
2017_12_24_S22 12/25/2017 04:25:00 0.0
2017_12_24_S22 12/25/2017 04:30:00 0.0
2017_12_24_S22 12/25/2017 04:35:00 0.0
2017_12_24_S22 12/25/2017 04:40:00 0.0
2017_12_24_S22 12/25/2017 04:45:00 0.0
2017_12_24_S22 12/25/2017 04:50:00 0.102
2017_12_24_S22 12/25/2017 04:55:00 0.6039
2017_12_24_S22 12/25/2017 05:00:00 1.7756
2017_12_24_S22 12/25/2017 05:05:00 0.3018
2017_12_24_S22 12/25/2017 05:10:00 0.069
2017_12_24_S22 12/25/2017 05:15:00 0.0
2017_12_24_S22 12/25/2017 05:20:00 0.0011
2017_12_24_S22 12/25/2017 05:25:00 0.0172
2017_12_24_S22 12/25/2017 05:30:00 0.078
2017_12_24_S22 12/25/2017 05:35:00 0.0933
2017_12_24_S22 12/25/2017 05:40:00 0.0122
2017_12_24_S22 12/25/2017 05:45:00 1.1646
2017_12_24_S22 12/25/2017 05:50:00 0.1539
2017_12_24_S22 12/25/2017 05:55:00 0.0054
2017_12_24_S22 12/25/2017 06:00:00 0.1164
2017_12_24_S22 12/25/2017 06:05:00 0.51
2017_12_24_S22 12/25/2017 06:10:00 0.2505
2017_12_24_S22 12/25/2017 06:15:00 0.0084
2017_12_24_S22 12/25/2017 06:20:00 0.0
2017_12_24_S22 12/25/2017 06:25:00 0.0
2017_12_24_S22 12/25/2017 06:30:00 0.0
2017_12_24_S22 12/25/2017 06:35:00 0.0
2017_12_24_S22 12/25/2017 06:40:00 0.0
2017_12_24_S22 12/25/2017 06:45:00 0.0
2017_12_24_S22 12/25/2017 06:50:00 0.0
2017_12_24_S22 12/25/2017 06:55:00 0.0
2017_12_24_S22 12/25/2017 07:00:00 0.0
2017_12_24_S22 12/25/2017 07:05:00 0.0
2017_12_24_S22 12/25/2017 07:10:00 0.0
2017_12_24_S22 12/25/2017 07:15:00 0.0
2017_12_24_S22 12/25/2017 07:20:00 0.0
2017_12_24_S22 12/25/2017 07:25:00 0.0
2017_12_24_S22 12/25/2017 07:30:00 0.0
2017_12_24_S22 12/25/2017 07:35:00 0.0
2017_12_24_S22 12/25/2017 07:40:00 0.0
2017_12_24_S22 12/25/2017 07:45:00 0.0
2017_12_24_S22 12/25/2017 07:50:00 0.0
2017_12_24_S22 12/25/2017 07:55:00 0.0
2017_12_24_S22 12/25/2017 08:00:00 0.0

2017_12_24_S23 12/24/2017 12:10:00 0.0105
2017_12_24_S23 12/24/2017 12:15:00 0.2228
2017_12_24_S23 12/24/2017 12:20:00 1.2676
2017_12_24_S23 12/24/2017 12:25:00 5.3624
2017_12_24_S23 12/24/2017 12:30:00 2.9355
2017_12_24_S23 12/24/2017 12:35:00 1.0635
2017_12_24_S23 12/24/2017 12:40:00 2.7026
2017_12_24_S23 12/24/2017 12:45:00 2.2472
2017_12_24_S23 12/24/2017 12:50:00 0.6944
2017_12_24_S23 12/24/2017 12:55:00 0.5368
2017_12_24_S23 12/24/2017 13:00:00 0.3543
2017_12_24_S23 12/24/2017 13:05:00 0.1008
2017_12_24_S23 12/24/2017 13:10:00 0.0137
2017_12_24_S23 12/24/2017 13:15:00 0.0201
2017_12_24_S23 12/24/2017 13:20:00 0.0553
2017_12_24_S23 12/24/2017 13:25:00 0.0659
2017_12_24_S23 12/24/2017 13:30:00 0.2335
2017_12_24_S23 12/24/2017 13:35:00 0.03
2017_12_24_S23 12/24/2017 13:40:00 0.0124
2017_12_24_S23 12/24/2017 13:45:00 0.0062
2017_12_24_S23 12/24/2017 13:50:00 0.0
2017_12_24_S23 12/24/2017 13:55:00 0.0049
2017_12_24_S23 12/24/2017 14:00:00 0.0
2017_12_24_S23 12/24/2017 14:05:00 0.0
2017_12_24_S23 12/24/2017 14:10:00 0.0
2017_12_24_S23 12/24/2017 14:15:00 0.0
2017_12_24_S23 12/24/2017 14:20:00 0.0
2017_12_24_S23 12/24/2017 14:25:00 0.0
2017_12_24_S23 12/24/2017 14:30:00 0.0
2017_12_24_S23 12/24/2017 14:35:00 0.0
2017_12_24_S23 12/24/2017 14:40:00 0.0
2017_12_24_S23 12/24/2017 14:45:00 0.0
2017_12_24_S23 12/24/2017 14:50:00 0.0
2017_12_24_S23 12/24/2017 14:55:00 0.0
2017_12_24_S23 12/24/2017 15:00:00 0.0
2017_12_24_S23 12/24/2017 15:05:00 0.0
2017_12_24_S23 12/24/2017 15:10:00 0.0183
2017_12_24_S23 12/24/2017 15:15:00 0.0
2017_12_24_S23 12/24/2017 15:20:00 0.0017
2017_12_24_S23 12/24/2017 15:25:00 0.025
2017_12_24_S23 12/24/2017 15:30:00 0.0668
2017_12_24_S23 12/24/2017 15:35:00 0.4945
2017_12_24_S23 12/24/2017 15:40:00 0.4825
2017_12_24_S23 12/24/2017 15:45:00 0.0774
2017_12_24_S23 12/24/2017 15:50:00 0.0
2017_12_24_S23 12/24/2017 15:55:00 0.0145
2017_12_24_S23 12/24/2017 16:00:00 0.4412
2017_12_24_S23 12/24/2017 16:05:00 1.4352
2017_12_24_S23 12/24/2017 16:10:00 0.032
2017_12_24_S23 12/24/2017 16:15:00 0.0
2017_12_24_S23 12/24/2017 16:20:00 0.1093
2017_12_24_S23 12/24/2017 16:25:00 0.0804
2017_12_24_S23 12/24/2017 16:30:00 0.0192
2017_12_24_S23 12/24/2017 16:35:00 0.0267
2017_12_24_S23 12/24/2017 16:40:00 0.0862
2017_12_24_S23 12/24/2017 16:45:00 0.0649
2017_12_24_S23 12/24/2017 16:50:00 0.0436
2017_12_24_S23 12/24/2017 16:55:00 0.0731
2017_12_24_S23 12/24/2017 17:00:00 0.0284
2017_12_24_S23 12/24/2017 17:05:00 0.0008
2017_12_24_S23 12/24/2017 17:10:00 0.0266
2017_12_24_S23 12/24/2017 17:15:00 0.0668
2017_12_24_S23 12/24/2017 17:20:00 0.0609
2017_12_24_S23 12/24/2017 17:25:00 0.0348
2017_12_24_S23 12/24/2017 17:30:00 0.0408
2017_12_24_S23 12/24/2017 17:35:00 0.1435
2017_12_24_S23 12/24/2017 17:40:00 0.3087
2017_12_24_S23 12/24/2017 17:45:00 0.0678
2017_12_24_S23 12/24/2017 17:50:00 0.0137
2017_12_24_S23 12/24/2017 17:55:00 0.0198
2017_12_24_S23 12/24/2017 18:00:00 0.0696
2017_12_24_S23 12/24/2017 18:05:00 0.0478
2017_12_24_S23 12/24/2017 18:10:00 0.3367
2017_12_24_S23 12/24/2017 18:15:00 0.1865
2017_12_24_S23 12/24/2017 18:20:00 0.0142
2017_12_24_S23 12/24/2017 18:25:00 0.0169
2017_12_24_S23 12/24/2017 18:30:00 0.0005
2017_12_24_S23 12/24/2017 18:35:00 0.0076
2017_12_24_S23 12/24/2017 18:40:00 0.0118
2017_12_24_S23 12/24/2017 18:45:00 0.0081
2017_12_24_S23 12/24/2017 18:50:00 0.0
2017_12_24_S23 12/24/2017 18:55:00 0.0
2017_12_24_S23 12/24/2017 19:00:00 0.0142
2017_12_24_S23 12/24/2017 19:05:00 0.0419
2017_12_24_S23 12/24/2017 19:10:00 0.1317
2017_12_24_S23 12/24/2017 19:15:00 0.248
2017_12_24_S23 12/24/2017 19:20:00 0.1075
2017_12_24_S23 12/24/2017 19:25:00 0.0166
2017_12_24_S23 12/24/2017 19:30:00 0.0
2017_12_24_S23 12/24/2017 19:35:00 0.0039
2017_12_24_S23 12/24/2017 19:40:00 0.0074
2017_12_24_S23 12/24/2017 19:45:00 0.0019
2017_12_24_S23 12/24/2017 19:50:00 0.0022
2017_12_24_S23 12/24/2017 19:55:00 0.0497
2017_12_24_S23 12/24/2017 20:00:00 0.1783
2017_12_24_S23 12/24/2017 20:05:00 0.0375
2017_12_24_S23 12/24/2017 20:10:00 0.0215
2017_12_24_S23 12/24/2017 20:15:00 0.0026
2017_12_24_S23 12/24/2017 20:20:00 0.0053
2017_12_24_S23 12/24/2017 20:25:00 0.0058
2017_12_24_S23 12/24/2017 20:30:00 0.0368
2017_12_24_S23 12/24/2017 20:35:00 0.013
2017_12_24_S23 12/24/2017 20:40:00 0.0066
2017_12_24_S23 12/24/2017 20:45:00 0.0062
2017_12_24_S23 12/24/2017 20:50:00 0.0126
2017_12_24_S23 12/24/2017 20:55:00 0.0884
2017_12_24_S23 12/24/2017 21:00:00 0.076
2017_12_24_S23 12/24/2017 21:05:00 0.0347
2017_12_24_S23 12/24/2017 21:10:00 0.0211
2017_12_24_S23 12/24/2017 21:15:00 0.0075
2017_12_24_S23 12/24/2017 21:20:00 0.0422
2017_12_24_S23 12/24/2017 21:25:00 0.039
2017_12_24_S23 12/24/2017 21:30:00 0.0006
2017_12_24_S23 12/24/2017 21:35:00 0.0045
2017_12_24_S23 12/24/2017 21:40:00 0.0532
2017_12_24_S23 12/24/2017 21:45:00 0.3562
2017_12_24_S23 12/24/2017 21:50:00 0.0276
2017_12_24_S23 12/24/2017 21:55:00 0.0092
2017_12_24_S23 12/24/2017 22:00:00 0.3599
2017_12_24_S23 12/24/2017 22:05:00 0.154
2017_12_24_S23 12/24/2017 22:10:00 0.1118
2017_12_24_S23 12/24/2017 22:15:00 0.0508
2017_12_24_S23 12/24/2017 22:20:00 0.0
2017_12_24_S23 12/24/2017 22:25:00 0.0537
2017_12_24_S23 12/24/2017 22:30:00 0.3425
2017_12_24_S23 12/24/2017 22:35:00 0.0619
2017_12_24_S23 12/24/2017 22:40:00 0.0882
2017_12_24_S23 12/24/2017 22:45:00 0.1349
2017_12_24_S23 12/24/2017 22:50:00 0.0792
2017_12_24_S23 12/24/2017 22:55:00 0.1033
2017_12_24_S23 12/24/2017 23:00:00 0.0436
2017_12_24_S23 12/24/2017 23:05:00 0.1258
2017_12_24_S23 12/24/2017 23:10:00 0.3113
2017_12_24_S23 12/24/2017 23:15:00 0.1805
2017_12_24_S23 12/24/2017 23:20:00 0.1905
2017_12_24_S23 12/24/2017 23:25:00 0.3508
2017_12_24_S23 12/24/2017 23:30:00 0.1487
2017_12_24_S23 12/24/2017 23:35:00 0.1043
2017_12_24_S23 12/24/2017 23:40:00 0.0158
2017_12_24_S23 12/24/2017 23:45:00 0.0202
2017_12_24_S23 12/24/2017 23:50:00 0.0106
2017_12_24_S23 12/24/2017 23:55:00 0.0
2017_12_24_S23 12/25/2017 00:00:00 0.0
2017_12_24_S23 12/25/2017 00:05:00 0.0
2017_12_24_S23 12/25/2017 00:10:00 0.0
2017_12_24_S23 12/25/2017 00:15:00 0.1221
2017_12_24_S23 12/25/2017 00:20:00 0.1969
2017_12_24_S23 12/25/2017 00:25:00 0.0001
2017_12_24_S23 12/25/2017 00:30:00 0.0
2017_12_24_S23 12/25/2017 00:35:00 0.0
2017_12_24_S23 12/25/2017 00:40:00 0.0
2017_12_24_S23 12/25/2017 00:45:00 0.0
2017_12_24_S23 12/25/2017 00:50:00 0.0
2017_12_24_S23 12/25/2017 00:55:00 0.0
2017_12_24_S23 12/25/2017 01:00:00 0.0
2017_12_24_S23 12/25/2017 01:05:00 0.0
2017_12_24_S23 12/25/2017 01:10:00 0.0448
2017_12_24_S23 12/25/2017 01:15:00 0.3199
2017_12_24_S23 12/25/2017 01:20:00 0.0
2017_12_24_S23 12/25/2017 01:25:00 0.0
2017_12_24_S23 12/25/2017 01:30:00 0.0
2017_12_24_S23 12/25/2017 01:35:00 0.0
2017_12_24_S23 12/25/2017 01:40:00 0.0
2017_12_24_S23 12/25/2017 01:45:00 0.01
2017_12_24_S23 12/25/2017 01:50:00 0.004
2017_12_24_S23 12/25/2017 01:55:00 0.0
2017_12_24_S23 12/25/2017 02:00:00 0.1549
2017_12_24_S23 12/25/2017 02:05:00 0.3122
2017_12_24_S23 12/25/2017 02:10:00 0.0005
2017_12_24_S23 12/25/2017 02:15:00 0.0
2017_12_24_S23 12/25/2017 02:20:00 0.0017
2017_12_24_S23 12/25/2017 02:25:00 0.1265
2017_12_24_S23 12/25/2017 02:30:00 0.0
2017_12_24_S23 12/25/2017 02:35:00 0.0
2017_12_24_S23 12/25/2017 02:40:00 0.0
2017_12_24_S23 12/25/2017 02:45:00 0.0
2017_12_24_S23 12/25/2017 02:50:00 0.0
2017_12_24_S23 12/25/2017 02:55:00 0.0
2017_12_24_S23 12/25/2017 03:00:00 0.0214
2017_12_24_S23 12/25/2017 03:05:00 0.0
2017_12_24_S23 12/25/2017 03:10:00 0.0
2017_12_24_S23 12/25/2017 03:15:00 0.0
2017_12_24_S23 12/25/2017 03:20:00 0.0
2017_12_24_S23 12/25/2017 03:25:00 0.0037
2017_12_24_S23 12/25/2017 03:30:00 0.0867
2017_12_24_S23 12/25/2017 03:35:00 0.0029
2017_12_24_S23 12/25/2017 03:40:00 0.0
2017_12_24_S23 12/25/2017 03:45:00 0.0
2017_12_24_S23 12/25/2017 03:50:00 0.0
2017_12_24_S23 12/25/2017 03:55:00 0.0
2017_12_24_S23 12/25/2017 04:00:00 0.0
2017_12_24_S23 12/25/2017 04:05:00 0.0
2017_12_24_S23 12/25/2017 04:10:00 0.0
2017_12_24_S23 12/25/2017 04:15:00 0.0
2017_12_24_S23 12/25/2017 04:20:00 0.0
2017_12_24_S23 12/25/2017 04:25:00 0.0
2017_12_24_S23 12/25/2017 04:30:00 0.0
2017_12_24_S23 12/25/2017 04:35:00 0.0
2017_12_24_S23 12/25/2017 04:40:00 0.0
2017_12_24_S23 12/25/2017 04:45:00 0.0
2017_12_24_S23 12/25/2017 04:50:00 0.1788
2017_12_24_S23 12/25/2017 04:55:00 0.6015
2017_12_24_S23 12/25/2017 05:00:00 1.136
2017_12_24_S23 12/25/2017 05:05:00 0.1953
2017_12_24_S23 12/25/2017 05:10:00 0.0162
2017_12_24_S23 12/25/2017 05:15:00 0.0
2017_12_24_S23 12/25/2017 05:20:00 0.0
2017_12_24_S23 12/25/2017 05:25:00 0.0258
2017_12_24_S23 12/25/2017 05:30:00 0.2759
2017_12_24_S23 12/25/2017 05:35:00 0.4059
2017_12_24_S23 12/25/2017 05:40:00 0.476
2017_12_24_S23 12/25/2017 05:45:00 2.5492
2017_12_24_S23 12/25/2017 05:50:00 0.3129
2017_12_24_S23 12/25/2017 05:55:00 0.0113
2017_12_24_S23 12/25/2017 06:00:00 0.2896
2017_12_24_S23 12/25/2017 06:05:00 0.2283
2017_12_24_S23 12/25/2017 06:10:00 0.2102
2017_12_24_S23 12/25/2017 06:15:00 0.0013
2017_12_24_S23 12/25/2017 06:20:00 0.0
2017_12_24_S23 12/25/2017 06:25:00 0.0
2017_12_24_S23 12/25/2017 06:30:00 0.0
2017_12_24_S23 12/25/2017 06:35:00 0.0
2017_12_24_S23 12/25/2017 06:40:00 0.0
2017_12_24_S23 12/25/2017 06:45:00 0.0
2017_12_24_S23 12/25/2017 06:50:00 0.0
2017_12_24_S23 12/25/2017 06:55:00 0.0
2017_12_24_S23 12/25/2017 07:00:00 0.0
2017_12_24_S23 12/25/2017 07:05:00 0.0
2017_12_24_S23 12/25/2017 07:10:00 0.0
2017_12_24_S23 12/25/2017 07:15:00 0.0
2017_12_24_S23 12/25/2017 07:20:00 0.0
2017_12_24_S23 12/25/2017 07:25:00 0.0
2017_12_24_S23 12/25/2017 07:30:00 0.0
2017_12_24_S23 12/25/2017 07:35:00 0.0
2017_12_24_S23 12/25/2017 07:40:00 0.0
2017_12_24_S23 12/25/2017 07:45:00 0.0
2017_12_24_S23 12/25/2017 07:50:00 0.0
2017_12_24_S23 12/25/2017 07:55:00 0.0
2017_12_24_S23 12/25/2017 08:00:00 0.0

2017_12_24_S24 12/24/2017 12:10:00 0.0231
2017_12_24_S24 12/24/2017 12:15:00 0.499
2017_12_24_S24 12/24/2017 12:20:00 4.7892
2017_12_24_S24 12/24/2017 12:25:00 2.5198
2017_12_24_S24 12/24/2017 12:30:00 1.6158
2017_12_24_S24 12/24/2017 12:35:00 0.144
2017_12_24_S24 12/24/2017 12:40:00 1.4401
2017_12_24_S24 12/24/2017 12:45:00 0.8819
2017_12_24_S24 12/24/2017 12:50:00 0.6163
2017_12_24_S24 12/24/2017 12:55:00 0.2997
2017_12_24_S24 12/24/2017 13:00:00 0.1245
2017_12_24_S24 12/24/2017 13:05:00 0.0135
2017_12_24_S24 12/24/2017 13:10:00 0.0159
2017_12_24_S24 12/24/2017 13:15:00 0.0198
2017_12_24_S24 12/24/2017 13:20:00 0.0522
2017_12_24_S24 12/24/2017 13:25:00 0.045
2017_12_24_S24 12/24/2017 13:30:00 0.0658
2017_12_24_S24 12/24/2017 13:35:00 0.016
2017_12_24_S24 12/24/2017 13:40:00 0.016
2017_12_24_S24 12/24/2017 13:45:00 0.008
2017_12_24_S24 12/24/2017 13:50:00 0.0
2017_12_24_S24 12/24/2017 13:55:00 0.0
2017_12_24_S24 12/24/2017 14:00:00 0.0
2017_12_24_S24 12/24/2017 14:05:00 0.0
2017_12_24_S24 12/24/2017 14:10:00 0.0
2017_12_24_S24 12/24/2017 14:15:00 0.0
2017_12_24_S24 12/24/2017 14:20:00 0.0
2017_12_24_S24 12/24/2017 14:25:00 0.0
2017_12_24_S24 12/24/2017 14:30:00 0.0
2017_12_24_S24 12/24/2017 14:35:00 0.0
2017_12_24_S24 12/24/2017 14:40:00 0.0
2017_12_24_S24 12/24/2017 14:45:00 0.0
2017_12_24_S24 12/24/2017 14:50:00 0.0
2017_12_24_S24 12/24/2017 14:55:00 0.0
2017_12_24_S24 12/24/2017 15:00:00 0.0
2017_12_24_S24 12/24/2017 15:05:00 0.0
2017_12_24_S24 12/24/2017 15:10:00 0.0
2017_12_24_S24 12/24/2017 15:15:00 0.0
2017_12_24_S24 12/24/2017 15:20:00 0.0089
2017_12_24_S24 12/24/2017 15:25:00 0.0366
2017_12_24_S24 12/24/2017 15:30:00 0.0571
2017_12_24_S24 12/24/2017 15:35:00 0.6744
2017_12_24_S24 12/24/2017 15:40:00 0.2497
2017_12_24_S24 12/24/2017 15:45:00 0.0223
2017_12_24_S24 12/24/2017 15:50:00 0.0
2017_12_24_S24 12/24/2017 15:55:00 0.0328
2017_12_24_S24 12/24/2017 16:00:00 0.7973
2017_12_24_S24 12/24/2017 16:05:00 0.6592
2017_12_24_S24 12/24/2017 16:10:00 0.0
2017_12_24_S24 12/24/2017 16:15:00 0.0
2017_12_24_S24 12/24/2017 16:20:00 0.1536
2017_12_24_S24 12/24/2017 16:25:00 0.0614
2017_12_24_S24 12/24/2017 16:30:00 0.0299
2017_12_24_S24 12/24/2017 16:35:00 0.0447
2017_12_24_S24 12/24/2017 16:40:00 0.06
2017_12_24_S24 12/24/2017 16:45:00 0.0532
2017_12_24_S24 12/24/2017 16:50:00 0.0463
2017_12_24_S24 12/24/2017 16:55:00 0.0842
2017_12_24_S24 12/24/2017 17:00:00 0.0403
2017_12_24_S24 12/24/2017 17:05:00 0.0
2017_12_24_S24 12/24/2017 17:10:00 0.0329
2017_12_24_S24 12/24/2017 17:15:00 0.1285
2017_12_24_S24 12/24/2017 17:20:00 0.0579
2017_12_24_S24 12/24/2017 17:25:00 0.0369
2017_12_24_S24 12/24/2017 17:30:00 0.0578
2017_12_24_S24 12/24/2017 17:35:00 0.1342
2017_12_24_S24 12/24/2017 17:40:00 0.2152
2017_12_24_S24 12/24/2017 17:45:00 0.0395
2017_12_24_S24 12/24/2017 17:50:00 0.0104
2017_12_24_S24 12/24/2017 17:55:00 0.0208
2017_12_24_S24 12/24/2017 18:00:00 0.0431
2017_12_24_S24 12/24/2017 18:05:00 0.0245
2017_12_24_S24 12/24/2017 18:10:00 0.577
2017_12_24_S24 12/24/2017 18:15:00 0.2404
2017_12_24_S24 12/24/2017 18:20:00 0.0058
2017_12_24_S24 12/24/2017 18:25:00 0.0028
2017_12_24_S24 12/24/2017 18:30:00 0.0
2017_12_24_S24 12/24/2017 18:35:00 0.0072
2017_12_24_S24 12/24/2017 18:40:00 0.0372
2017_12_24_S24 12/24/2017 18:45:00 0.0133
2017_12_24_S24 12/24/2017 18:50:00 0.0
2017_12_24_S24 12/24/2017 18:55:00 0.0
2017_12_24_S24 12/24/2017 19:00:00 0.0104
2017_12_24_S24 12/24/2017 19:05:00 0.0472
2017_12_24_S24 12/24/2017 19:10:00 0.1289
2017_12_24_S24 12/24/2017 19:15:00 0.2307
2017_12_24_S24 12/24/2017 19:20:00 0.0577
2017_12_24_S24 12/24/2017 19:25:00 0.018
2017_12_24_S24 12/24/2017 19:30:00 0.0
2017_12_24_S24 12/24/2017 19:35:00 0.0069
2017_12_24_S24 12/24/2017 19:40:00 0.0104
2017_12_24_S24 12/24/2017 19:45:00 0.0025
2017_12_24_S24 12/24/2017 19:50:00 0.0081
2017_12_24_S24 12/24/2017 19:55:00 0.0521
2017_12_24_S24 12/24/2017 20:00:00 0.1028
2017_12_24_S24 12/24/2017 20:05:00 0.0488
2017_12_24_S24 12/24/2017 20:10:00 0.01
2017_12_24_S24 12/24/2017 20:15:00 0.002
2017_12_24_S24 12/24/2017 20:20:00 0.0065
2017_12_24_S24 12/24/2017 20:25:00 0.0066
2017_12_24_S24 12/24/2017 20:30:00 0.0449
2017_12_24_S24 12/24/2017 20:35:00 0.0097
2017_12_24_S24 12/24/2017 20:40:00 0.0068
2017_12_24_S24 12/24/2017 20:45:00 0.0062
2017_12_24_S24 12/24/2017 20:50:00 0.0091
2017_12_24_S24 12/24/2017 20:55:00 0.0655
2017_12_24_S24 12/24/2017 21:00:00 0.0908
2017_12_24_S24 12/24/2017 21:05:00 0.0295
2017_12_24_S24 12/24/2017 21:10:00 0.0193
2017_12_24_S24 12/24/2017 21:15:00 0.009
2017_12_24_S24 12/24/2017 21:20:00 0.0896
2017_12_24_S24 12/24/2017 21:25:00 0.0128
2017_12_24_S24 12/24/2017 21:30:00 0.0
2017_12_24_S24 12/24/2017 21:35:00 0.0
2017_12_24_S24 12/24/2017 21:40:00 0.0298
2017_12_24_S24 12/24/2017 21:45:00 0.202
2017_12_24_S24 12/24/2017 21:50:00 0.0294
2017_12_24_S24 12/24/2017 21:55:00 0.0375
2017_12_24_S24 12/24/2017 22:00:00 0.3809
2017_12_24_S24 12/24/2017 22:05:00 0.0898
2017_12_24_S24 12/24/2017 22:10:00 0.074
2017_12_24_S24 12/24/2017 22:15:00 0.0488
2017_12_24_S24 12/24/2017 22:20:00 0.0
2017_12_24_S24 12/24/2017 22:25:00 0.1338
2017_12_24_S24 12/24/2017 22:30:00 0.294
2017_12_24_S24 12/24/2017 22:35:00 0.048
2017_12_24_S24 12/24/2017 22:40:00 0.0608
2017_12_24_S24 12/24/2017 22:45:00 0.0993
2017_12_24_S24 12/24/2017 22:50:00 0.1012
2017_12_24_S24 12/24/2017 22:55:00 0.0978
2017_12_24_S24 12/24/2017 23:00:00 0.0475
2017_12_24_S24 12/24/2017 23:05:00 0.0552
2017_12_24_S24 12/24/2017 23:10:00 0.1023
2017_12_24_S24 12/24/2017 23:15:00 0.2179
2017_12_24_S24 12/24/2017 23:20:00 0.2211
2017_12_24_S24 12/24/2017 23:25:00 0.1873
2017_12_24_S24 12/24/2017 23:30:00 0.1709
2017_12_24_S24 12/24/2017 23:35:00 0.0531
2017_12_24_S24 12/24/2017 23:40:00 0.0083
2017_12_24_S24 12/24/2017 23:45:00 0.0325
2017_12_24_S24 12/24/2017 23:50:00 0.005
2017_12_24_S24 12/24/2017 23:55:00 0.0
2017_12_24_S24 12/25/2017 00:00:00 0.0
2017_12_24_S24 12/25/2017 00:05:00 0.0
2017_12_24_S24 12/25/2017 00:10:00 0.0
2017_12_24_S24 12/25/2017 00:15:00 0.0499
2017_12_24_S24 12/25/2017 00:20:00 0.2528
2017_12_24_S24 12/25/2017 00:25:00 0.0
2017_12_24_S24 12/25/2017 00:30:00 0.0
2017_12_24_S24 12/25/2017 00:35:00 0.0
2017_12_24_S24 12/25/2017 00:40:00 0.0
2017_12_24_S24 12/25/2017 00:45:00 0.0
2017_12_24_S24 12/25/2017 00:50:00 0.0
2017_12_24_S24 12/25/2017 00:55:00 0.0
2017_12_24_S24 12/25/2017 01:00:00 0.0
2017_12_24_S24 12/25/2017 01:05:00 0.0
2017_12_24_S24 12/25/2017 01:10:00 0.0203
2017_12_24_S24 12/25/2017 01:15:00 0.2003
2017_12_24_S24 12/25/2017 01:20:00 0.0
2017_12_24_S24 12/25/2017 01:25:00 0.0
2017_12_24_S24 12/25/2017 01:30:00 0.0
2017_12_24_S24 12/25/2017 01:35:00 0.0
2017_12_24_S24 12/25/2017 01:40:00 0.0
2017_12_24_S24 12/25/2017 01:45:00 0.0025
2017_12_24_S24 12/25/2017 01:50:00 0.0051
2017_12_24_S24 12/25/2017 01:55:00 0.0019
2017_12_24_S24 12/25/2017 02:00:00 0.2736
2017_12_24_S24 12/25/2017 02:05:00 0.1127
2017_12_24_S24 12/25/2017 02:10:00 0.0
2017_12_24_S24 12/25/2017 02:15:00 0.0
2017_12_24_S24 12/25/2017 02:20:00 0.0077
2017_12_24_S24 12/25/2017 02:25:00 0.1743
2017_12_24_S24 12/25/2017 02:30:00 0.0
2017_12_24_S24 12/25/2017 02:35:00 0.0
2017_12_24_S24 12/25/2017 02:40:00 0.0
2017_12_24_S24 12/25/2017 02:45:00 0.0
2017_12_24_S24 12/25/2017 02:50:00 0.0
2017_12_24_S24 12/25/2017 02:55:00 0.0
2017_12_24_S24 12/25/2017 03:00:00 0.0419
2017_12_24_S24 12/25/2017 03:05:00 0.0
2017_12_24_S24 12/25/2017 03:10:00 0.0
2017_12_24_S24 12/25/2017 03:15:00 0.0
2017_12_24_S24 12/25/2017 03:20:00 0.0
2017_12_24_S24 12/25/2017 03:25:00 0.0078
2017_12_24_S24 12/25/2017 03:30:00 0.0535
2017_12_24_S24 12/25/2017 03:35:00 0.0
2017_12_24_S24 12/25/2017 03:40:00 0.0
2017_12_24_S24 12/25/2017 03:45:00 0.0
2017_12_24_S24 12/25/2017 03:50:00 0.0
2017_12_24_S24 12/25/2017 03:55:00 0.0
2017_12_24_S24 12/25/2017 04:00:00 0.0
2017_12_24_S24 12/25/2017 04:05:00 0.0
2017_12_24_S24 12/25/2017 04:10:00 0.0
2017_12_24_S24 12/25/2017 04:15:00 0.0
2017_12_24_S24 12/25/2017 04:20:00 0.0
2017_12_24_S24 12/25/2017 04:25:00 0.0
2017_12_24_S24 12/25/2017 04:30:00 0.0
2017_12_24_S24 12/25/2017 04:35:00 0.0
2017_12_24_S24 12/25/2017 04:40:00 0.0
2017_12_24_S24 12/25/2017 04:45:00 0.0
2017_12_24_S24 12/25/2017 04:50:00 0.3091
2017_12_24_S24 12/25/2017 04:55:00 0.5911
2017_12_24_S24 12/25/2017 05:00:00 0.8572
2017_12_24_S24 12/25/2017 05:05:00 0.1367
2017_12_24_S24 12/25/2017 05:10:00 0.0
2017_12_24_S24 12/25/2017 05:15:00 0.0
2017_12_24_S24 12/25/2017 05:20:00 0.0
2017_12_24_S24 12/25/2017 05:25:00 0.0287
2017_12_24_S24 12/25/2017 05:30:00 0.5687
2017_12_24_S24 12/25/2017 05:35:00 0.8614
2017_12_24_S24 12/25/2017 05:40:00 1.318
2017_12_24_S24 12/25/2017 05:45:00 0.2685
2017_12_24_S24 12/25/2017 05:50:00 0.3898
2017_12_24_S24 12/25/2017 05:55:00 0.0091
2017_12_24_S24 12/25/2017 06:00:00 0.252
2017_12_24_S24 12/25/2017 06:05:00 0.2246
2017_12_24_S24 12/25/2017 06:10:00 0.0976
2017_12_24_S24 12/25/2017 06:15:00 0.0009
2017_12_24_S24 12/25/2017 06:20:00 0.0
2017_12_24_S24 12/25/2017 06:25:00 0.0
2017_12_24_S24 12/25/2017 06:30:00 0.0
2017_12_24_S24 12/25/2017 06:35:00 0.0
2017_12_24_S24 12/25/2017 06:40:00 0.0
2017_12_24_S24 12/25/2017 06:45:00 0.0
2017_12_24_S24 12/25/2017 06:50:00 0.0
2017_12_24_S24 12/25/2017 06:55:00 0.0
2017_12_24_S24 12/25/2017 07:00:00 0.0
2017_12_24_S24 12/25/2017 07:05:00 0.0
2017_12_24_S24 12/25/2017 07:10:00 0.0
2017_12_24_S24 12/25/2017 07:15:00 0.0
2017_12_24_S24 12/25/2017 07:20:00 0.0
2017_12_24_S24 12/25/2017 07:25:00 0.0
2017_12_24_S24 12/25/2017 07:30:00 0.0
2017_12_24_S24 12/25/2017 07:35:00 0.0
2017_12_24_S24 12/25/2017 07:40:00 0.0
2017_12_24_S24 12/25/2017 07:45:00 0.0
2017_12_24_S24 12/25/2017 07:50:00 0.0
2017_12_24_S24 12/25/2017 07:55:00 0.0
2017_12_24_S24 12/25/2017 08:00:00 0.0

2017_12_24_S25 12/24/2017 12:10:00 0.0184
2017_12_24_S25 12/24/2017 12:15:00 0.349
2017_12_24_S25 12/24/2017 12:20:00 5.7421
2017_12_24_S25 12/24/2017 12:25:00 2.9227
2017_12_24_S25 12/24/2017 12:30:00 1.8386
2017_12_24_S25 12/24/2017 12:35:00 0.1688
2017_12_24_S25 12/24/2017 12:40:00 1.532
2017_12_24_S25 12/24/2017 12:45:00 0.7478
2017_12_24_S25 12/24/2017 12:50:00 0.4186
2017_12_24_S25 12/24/2017 12:55:00 0.3202
2017_12_24_S25 12/24/2017 13:00:00 0.1177
2017_12_24_S25 12/24/2017 13:05:00 0.0124
2017_12_24_S25 12/24/2017 13:10:00 0.0121
2017_12_24_S25 12/24/2017 13:15:00 0.02
2017_12_24_S25 12/24/2017 13:20:00 0.0455
2017_12_24_S25 12/24/2017 13:25:00 0.0346
2017_12_24_S25 12/24/2017 13:30:00 0.0626
2017_12_24_S25 12/24/2017 13:35:00 0.0145
2017_12_24_S25 12/24/2017 13:40:00 0.0118
2017_12_24_S25 12/24/2017 13:45:00 0.0059
2017_12_24_S25 12/24/2017 13:50:00 0.0
2017_12_24_S25 12/24/2017 13:55:00 0.0
2017_12_24_S25 12/24/2017 14:00:00 0.0
2017_12_24_S25 12/24/2017 14:05:00 0.0
2017_12_24_S25 12/24/2017 14:10:00 0.0
2017_12_24_S25 12/24/2017 14:15:00 0.0
2017_12_24_S25 12/24/2017 14:20:00 0.0
2017_12_24_S25 12/24/2017 14:25:00 0.0
2017_12_24_S25 12/24/2017 14:30:00 0.0
2017_12_24_S25 12/24/2017 14:35:00 0.0
2017_12_24_S25 12/24/2017 14:40:00 0.0
2017_12_24_S25 12/24/2017 14:45:00 0.0
2017_12_24_S25 12/24/2017 14:50:00 0.0
2017_12_24_S25 12/24/2017 14:55:00 0.0
2017_12_24_S25 12/24/2017 15:00:00 0.0
2017_12_24_S25 12/24/2017 15:05:00 0.0
2017_12_24_S25 12/24/2017 15:10:00 0.0
2017_12_24_S25 12/24/2017 15:15:00 0.0031
2017_12_24_S25 12/24/2017 15:20:00 0.0068
2017_12_24_S25 12/24/2017 15:25:00 0.0485
2017_12_24_S25 12/24/2017 15:30:00 0.0674
2017_12_24_S25 12/24/2017 15:35:00 0.6532
2017_12_24_S25 12/24/2017 15:40:00 0.2077
2017_12_24_S25 12/24/2017 15:45:00 0.0158
2017_12_24_S25 12/24/2017 15:50:00 0.0
2017_12_24_S25 12/24/2017 15:55:00 0.0442
2017_12_24_S25 12/24/2017 16:00:00 0.942
2017_12_24_S25 12/24/2017 16:05:00 0.6275
2017_12_24_S25 12/24/2017 16:10:00 0.0
2017_12_24_S25 12/24/2017 16:15:00 0.0
2017_12_24_S25 12/24/2017 16:20:00 0.2248
2017_12_24_S25 12/24/2017 16:25:00 0.0576
2017_12_24_S25 12/24/2017 16:30:00 0.0278
2017_12_24_S25 12/24/2017 16:35:00 0.0486
2017_12_24_S25 12/24/2017 16:40:00 0.0656
2017_12_24_S25 12/24/2017 16:45:00 0.0527
2017_12_24_S25 12/24/2017 16:50:00 0.0397
2017_12_24_S25 12/24/2017 16:55:00 0.1021
2017_12_24_S25 12/24/2017 17:00:00 0.0329
2017_12_24_S25 12/24/2017 17:05:00 0.0
2017_12_24_S25 12/24/2017 17:10:00 0.0405
2017_12_24_S25 12/24/2017 17:15:00 0.1333
2017_12_24_S25 12/24/2017 17:20:00 0.0391
2017_12_24_S25 12/24/2017 17:25:00 0.0369
2017_12_24_S25 12/24/2017 17:30:00 0.0534
2017_12_24_S25 12/24/2017 17:35:00 0.1229
2017_12_24_S25 12/24/2017 17:40:00 0.2116
2017_12_24_S25 12/24/2017 17:45:00 0.0332
2017_12_24_S25 12/24/2017 17:50:00 0.0093
2017_12_24_S25 12/24/2017 17:55:00 0.0179
2017_12_24_S25 12/24/2017 18:00:00 0.0369
2017_12_24_S25 12/24/2017 18:05:00 0.0227
2017_12_24_S25 12/24/2017 18:10:00 0.6036
2017_12_24_S25 12/24/2017 18:15:00 0.2582
2017_12_24_S25 12/24/2017 18:20:00 0.0074
2017_12_24_S25 12/24/2017 18:25:00 0.0026
2017_12_24_S25 12/24/2017 18:30:00 0.0
2017_12_24_S25 12/24/2017 18:35:00 0.0069
2017_12_24_S25 12/24/2017 18:40:00 0.0326
2017_12_24_S25 12/24/2017 18:45:00 0.0118
2017_12_24_S25 12/24/2017 18:50:00 0.0
2017_12_24_S25 12/24/2017 18:55:00 0.0
2017_12_24_S25 12/24/2017 19:00:00 0.0118
2017_12_24_S25 12/24/2017 19:05:00 0.0492
2017_12_24_S25 12/24/2017 19:10:00 0.1063
2017_12_24_S25 12/24/2017 19:15:00 0.1912
2017_12_24_S25 12/24/2017 19:20:00 0.0484
2017_12_24_S25 12/24/2017 19:25:00 0.014
2017_12_24_S25 12/24/2017 19:30:00 0.0
2017_12_24_S25 12/24/2017 19:35:00 0.0086
2017_12_24_S25 12/24/2017 19:40:00 0.0106
2017_12_24_S25 12/24/2017 19:45:00 0.0024
2017_12_24_S25 12/24/2017 19:50:00 0.0088
2017_12_24_S25 12/24/2017 19:55:00 0.0625
2017_12_24_S25 12/24/2017 20:00:00 0.0972
2017_12_24_S25 12/24/2017 20:05:00 0.0528
2017_12_24_S25 12/24/2017 20:10:00 0.0104
2017_12_24_S25 12/24/2017 20:15:00 0.0
2017_12_24_S25 12/24/2017 20:20:00 0.0075
2017_12_24_S25 12/24/2017 20:25:00 0.0065
2017_12_24_S25 12/24/2017 20:30:00 0.0523
2017_12_24_S25 12/24/2017 20:35:00 0.0085
2017_12_24_S25 12/24/2017 20:40:00 0.0066
2017_12_24_S25 12/24/2017 20:45:00 0.0062
2017_12_24_S25 12/24/2017 20:50:00 0.0115
2017_12_24_S25 12/24/2017 20:55:00 0.0452
2017_12_24_S25 12/24/2017 21:00:00 0.0712
2017_12_24_S25 12/24/2017 21:05:00 0.027
2017_12_24_S25 12/24/2017 21:10:00 0.0178
2017_12_24_S25 12/24/2017 21:15:00 0.0086
2017_12_24_S25 12/24/2017 21:20:00 0.113
2017_12_24_S25 12/24/2017 21:25:00 0.0138
2017_12_24_S25 12/24/2017 21:30:00 0.0
2017_12_24_S25 12/24/2017 21:35:00 0.0
2017_12_24_S25 12/24/2017 21:40:00 0.0329
2017_12_24_S25 12/24/2017 21:45:00 0.1969
2017_12_24_S25 12/24/2017 21:50:00 0.0326
2017_12_24_S25 12/24/2017 21:55:00 0.0519
2017_12_24_S25 12/24/2017 22:00:00 0.3352
2017_12_24_S25 12/24/2017 22:05:00 0.0678
2017_12_24_S25 12/24/2017 22:10:00 0.061
2017_12_24_S25 12/24/2017 22:15:00 0.0375
2017_12_24_S25 12/24/2017 22:20:00 0.0
2017_12_24_S25 12/24/2017 22:25:00 0.1462
2017_12_24_S25 12/24/2017 22:30:00 0.3023
2017_12_24_S25 12/24/2017 22:35:00 0.0361
2017_12_24_S25 12/24/2017 22:40:00 0.0445
2017_12_24_S25 12/24/2017 22:45:00 0.1105
2017_12_24_S25 12/24/2017 22:50:00 0.0774
2017_12_24_S25 12/24/2017 22:55:00 0.0672
2017_12_24_S25 12/24/2017 23:00:00 0.0557
2017_12_24_S25 12/24/2017 23:05:00 0.0611
2017_12_24_S25 12/24/2017 23:10:00 0.0855
2017_12_24_S25 12/24/2017 23:15:00 0.1782
2017_12_24_S25 12/24/2017 23:20:00 0.1865
2017_12_24_S25 12/24/2017 23:25:00 0.1247
2017_12_24_S25 12/24/2017 23:30:00 0.1982
2017_12_24_S25 12/24/2017 23:35:00 0.0412
2017_12_24_S25 12/24/2017 23:40:00 0.0066
2017_12_24_S25 12/24/2017 23:45:00 0.016
2017_12_24_S25 12/24/2017 23:50:00 0.0025
2017_12_24_S25 12/24/2017 23:55:00 0.0
2017_12_24_S25 12/25/2017 00:00:00 0.0
2017_12_24_S25 12/25/2017 00:05:00 0.0
2017_12_24_S25 12/25/2017 00:10:00 0.0
2017_12_24_S25 12/25/2017 00:15:00 0.0277
2017_12_24_S25 12/25/2017 00:20:00 0.2821
2017_12_24_S25 12/25/2017 00:25:00 0.0
2017_12_24_S25 12/25/2017 00:30:00 0.0
2017_12_24_S25 12/25/2017 00:35:00 0.0
2017_12_24_S25 12/25/2017 00:40:00 0.0
2017_12_24_S25 12/25/2017 00:45:00 0.0
2017_12_24_S25 12/25/2017 00:50:00 0.0
2017_12_24_S25 12/25/2017 00:55:00 0.0
2017_12_24_S25 12/25/2017 01:00:00 0.0
2017_12_24_S25 12/25/2017 01:05:00 0.0
2017_12_24_S25 12/25/2017 01:10:00 0.0242
2017_12_24_S25 12/25/2017 01:15:00 0.1497
2017_12_24_S25 12/25/2017 01:20:00 0.0
2017_12_24_S25 12/25/2017 01:25:00 0.0
2017_12_24_S25 12/25/2017 01:30:00 0.0
2017_12_24_S25 12/25/2017 01:35:00 0.0
2017_12_24_S25 12/25/2017 01:40:00 0.0
2017_12_24_S25 12/25/2017 01:45:00 0.0023
2017_12_24_S25 12/25/2017 01:50:00 0.0058
2017_12_24_S25 12/25/2017 01:55:00 0.0051
2017_12_24_S25 12/25/2017 02:00:00 0.3295
2017_12_24_S25 12/25/2017 02:05:00 0.1293
2017_12_24_S25 12/25/2017 02:10:00 0.0
2017_12_24_S25 12/25/2017 02:15:00 0.0
2017_12_24_S25 12/25/2017 02:20:00 0.0058
2017_12_24_S25 12/25/2017 02:25:00 0.2045
2017_12_24_S25 12/25/2017 02:30:00 0.0
2017_12_24_S25 12/25/2017 02:35:00 0.0
2017_12_24_S25 12/25/2017 02:40:00 0.0
2017_12_24_S25 12/25/2017 02:45:00 0.0
2017_12_24_S25 12/25/2017 02:50:00 0.0
2017_12_24_S25 12/25/2017 02:55:00 0.0
2017_12_24_S25 12/25/2017 03:00:00 0.0086
2017_12_24_S25 12/25/2017 03:05:00 0.0
2017_12_24_S25 12/25/2017 03:10:00 0.0
2017_12_24_S25 12/25/2017 03:15:00 0.0
2017_12_24_S25 12/25/2017 03:20:00 0.0
2017_12_24_S25 12/25/2017 03:25:00 0.0244
2017_12_24_S25 12/25/2017 03:30:00 0.0716
2017_12_24_S25 12/25/2017 03:35:00 0.0
2017_12_24_S25 12/25/2017 03:40:00 0.0
2017_12_24_S25 12/25/2017 03:45:00 0.0
2017_12_24_S25 12/25/2017 03:50:00 0.0
2017_12_24_S25 12/25/2017 03:55:00 0.0
2017_12_24_S25 12/25/2017 04:00:00 0.0
2017_12_24_S25 12/25/2017 04:05:00 0.0
2017_12_24_S25 12/25/2017 04:10:00 0.0
2017_12_24_S25 12/25/2017 04:15:00 0.0
2017_12_24_S25 12/25/2017 04:20:00 0.0
2017_12_24_S25 12/25/2017 04:25:00 0.0
2017_12_24_S25 12/25/2017 04:30:00 0.0
2017_12_24_S25 12/25/2017 04:35:00 0.0
2017_12_24_S25 12/25/2017 04:40:00 0.0
2017_12_24_S25 12/25/2017 04:45:00 0.0
2017_12_24_S25 12/25/2017 04:50:00 0.3113
2017_12_24_S25 12/25/2017 04:55:00 0.6612
2017_12_24_S25 12/25/2017 05:00:00 0.8717
2017_12_24_S25 12/25/2017 05:05:00 0.1476
2017_12_24_S25 12/25/2017 05:10:00 0.0
2017_12_24_S25 12/25/2017 05:15:00 0.0
2017_12_24_S25 12/25/2017 05:20:00 0.0
2017_12_24_S25 12/25/2017 05:25:00 0.0439
2017_12_24_S25 12/25/2017 05:30:00 0.2837
2017_12_24_S25 12/25/2017 05:35:00 0.6525
2017_12_24_S25 12/25/2017 05:40:00 0.8912
2017_12_24_S25 12/25/2017 05:45:00 0.259
2017_12_24_S25 12/25/2017 05:50:00 0.4124
2017_12_24_S25 12/25/2017 05:55:00 0.0031
2017_12_24_S25 12/25/2017 06:00:00 0.2732
2017_12_24_S25 12/25/2017 06:05:00 0.3618
2017_12_24_S25 12/25/2017 06:10:00 0.0955
2017_12_24_S25 12/25/2017 06:15:00 0.0002
2017_12_24_S25 12/25/2017 06:20:00 0.0
2017_12_24_S25 12/25/2017 06:25:00 0.0
2017_12_24_S25 12/25/2017 06:30:00 0.0
2017_12_24_S25 12/25/2017 06:35:00 0.0
2017_12_24_S25 12/25/2017 06:40:00 0.0
2017_12_24_S25 12/25/2017 06:45:00 0.0
2017_12_24_S25 12/25/2017 06:50:00 0.0
2017_12_24_S25 12/25/2017 06:55:00 0.0
2017_12_24_S25 12/25/2017 07:00:00 0.0
2017_12_24_S25 12/25/2017 07:05:00 0.0
2017_12_24_S25 12/25/2017 07:10:00 0.0
2017_12_24_S25 12/25/2017 07:15:00 0.0
2017_12_24_S25 12/25/2017 07:20:00 0.0
2017_12_24_S25 12/25/2017 07:25:00 0.0
2017_12_24_S25 12/25/2017 07:30:00 0.0
2017_12_24_S25 12/25/2017 07:35:00 0.0
2017_12_24_S25 12/25/2017 07:40:00 0.0
2017_12_24_S25 12/25/2017 07:45:00 0.0
2017_12_24_S25 12/25/2017 07:50:00 0.0
2017_12_24_S25 12/25/2017 07:55:00 0.0
2017_12_24_S25 12/25/2017 08:00:00 0.0

2017_12_24_S26 12/24/2017 12:10:00 0.0192
2017_12_24_S26 12/24/2017 12:15:00 0.5064
2017_12_24_S26 12/24/2017 12:20:00 2.2567
2017_12_24_S26 12/24/2017 12:25:00 2.0252
2017_12_24_S26 12/24/2017 12:30:00 2.1037
2017_12_24_S26 12/24/2017 12:35:00 0.877
2017_12_24_S26 12/24/2017 12:40:00 1.1775
2017_12_24_S26 12/24/2017 12:45:00 1.4033
2017_12_24_S26 12/24/2017 12:50:00 0.5685
2017_12_24_S26 12/24/2017 12:55:00 0.2678
2017_12_24_S26 12/24/2017 13:00:00 0.2611
2017_12_24_S26 12/24/2017 13:05:00 0.0691
2017_12_24_S26 12/24/2017 13:10:00 0.0198
2017_12_24_S26 12/24/2017 13:15:00 0.0189
2017_12_24_S26 12/24/2017 13:20:00 0.0559
2017_12_24_S26 12/24/2017 13:25:00 0.0549
2017_12_24_S26 12/24/2017 13:30:00 0.0927
2017_12_24_S26 12/24/2017 13:35:00 0.0212
2017_12_24_S26 12/24/2017 13:40:00 0.0154
2017_12_24_S26 12/24/2017 13:45:00 0.0077
2017_12_24_S26 12/24/2017 13:50:00 0.0
2017_12_24_S26 12/24/2017 13:55:00 0.0045
2017_12_24_S26 12/24/2017 14:00:00 0.0
2017_12_24_S26 12/24/2017 14:05:00 0.0
2017_12_24_S26 12/24/2017 14:10:00 0.0
2017_12_24_S26 12/24/2017 14:15:00 0.0
2017_12_24_S26 12/24/2017 14:20:00 0.0
2017_12_24_S26 12/24/2017 14:25:00 0.0
2017_12_24_S26 12/24/2017 14:30:00 0.0
2017_12_24_S26 12/24/2017 14:35:00 0.0
2017_12_24_S26 12/24/2017 14:40:00 0.0
2017_12_24_S26 12/24/2017 14:45:00 0.0
2017_12_24_S26 12/24/2017 14:50:00 0.0
2017_12_24_S26 12/24/2017 14:55:00 0.0
2017_12_24_S26 12/24/2017 15:00:00 0.0
2017_12_24_S26 12/24/2017 15:05:00 0.0
2017_12_24_S26 12/24/2017 15:10:00 0.0085
2017_12_24_S26 12/24/2017 15:15:00 0.0
2017_12_24_S26 12/24/2017 15:20:00 0.0059
2017_12_24_S26 12/24/2017 15:25:00 0.0311
2017_12_24_S26 12/24/2017 15:30:00 0.0512
2017_12_24_S26 12/24/2017 15:35:00 0.5146
2017_12_24_S26 12/24/2017 15:40:00 0.3874
2017_12_24_S26 12/24/2017 15:45:00 0.0634
2017_12_24_S26 12/24/2017 15:50:00 0.0
2017_12_24_S26 12/24/2017 15:55:00 0.0214
2017_12_24_S26 12/24/2017 16:00:00 0.4992
2017_12_24_S26 12/24/2017 16:05:00 0.992
2017_12_24_S26 12/24/2017 16:10:00 0.0076
2017_12_24_S26 12/24/2017 16:15:00 0.0
2017_12_24_S26 12/24/2017 16:20:00 0.0901
2017_12_24_S26 12/24/2017 16:25:00 0.0682
2017_12_24_S26 12/24/2017 16:30:00 0.0286
2017_12_24_S26 12/24/2017 16:35:00 0.0337
2017_12_24_S26 12/24/2017 16:40:00 0.094
2017_12_24_S26 12/24/2017 16:45:00 0.0839
2017_12_24_S26 12/24/2017 16:50:00 0.0737
2017_12_24_S26 12/24/2017 16:55:00 0.0471
2017_12_24_S26 12/24/2017 17:00:00 0.0553
2017_12_24_S26 12/24/2017 17:05:00 0.0
2017_12_24_S26 12/24/2017 17:10:00 0.0262
2017_12_24_S26 12/24/2017 17:15:00 0.0906
2017_12_24_S26 12/24/2017 17:20:00 0.0858
2017_12_24_S26 12/24/2017 17:25:00 0.0421
2017_12_24_S26 12/24/2017 17:30:00 0.0577
2017_12_24_S26 12/24/2017 17:35:00 0.1279
2017_12_24_S26 12/24/2017 17:40:00 0.2204
2017_12_24_S26 12/24/2017 17:45:00 0.1045
2017_12_24_S26 12/24/2017 17:50:00 0.0134
2017_12_24_S26 12/24/2017 17:55:00 0.019
2017_12_24_S26 12/24/2017 18:00:00 0.0547
2017_12_24_S26 12/24/2017 18:05:00 0.0437
2017_12_24_S26 12/24/2017 18:10:00 0.3276
2017_12_24_S26 12/24/2017 18:15:00 0.1857
2017_12_24_S26 12/24/2017 18:20:00 0.0081
2017_12_24_S26 12/24/2017 18:25:00 0.0083
2017_12_24_S26 12/24/2017 18:30:00 0.0
2017_12_24_S26 12/24/2017 18:35:00 0.0071
2017_12_24_S26 12/24/2017 18:40:00 0.0207
2017_12_24_S26 12/24/2017 18:45:00 0.0095
2017_12_24_S26 12/24/2017 18:50:00 0.0
2017_12_24_S26 12/24/2017 18:55:00 0.0
2017_12_24_S26 12/24/2017 19:00:00 0.0065
2017_12_24_S26 12/24/2017 19:05:00 0.0283
2017_12_24_S26 12/24/2017 19:10:00 0.1688
2017_12_24_S26 12/24/2017 19:15:00 0.2822
2017_12_24_S26 12/24/2017 19:20:00 0.0776
2017_12_24_S26 12/24/2017 19:25:00 0.0246
2017_12_24_S26 12/24/2017 19:30:00 0.0
2017_12_24_S26 12/24/2017 19:35:00 0.005
2017_12_24_S26 12/24/2017 19:40:00 0.0072
2017_12_24_S26 12/24/2017 19:45:00 0.0032
2017_12_24_S26 12/24/2017 19:50:00 0.0017
2017_12_24_S26 12/24/2017 19:55:00 0.0483
2017_12_24_S26 12/24/2017 20:00:00 0.1635
2017_12_24_S26 12/24/2017 20:05:00 0.0402
2017_12_24_S26 12/24/2017 20:10:00 0.0281
2017_12_24_S26 12/24/2017 20:15:00 0.0058
2017_12_24_S26 12/24/2017 20:20:00 0.0021
2017_12_24_S26 12/24/2017 20:25:00 0.0067
2017_12_24_S26 12/24/2017 20:30:00 0.0512
2017_12_24_S26 12/24/2017 20:35:00 0.0155
2017_12_24_S26 12/24/2017 20:40:00 0.0067
2017_12_24_S26 12/24/2017 20:45:00 0.0067
2017_12_24_S26 12/24/2017 20:50:00 0.0057
2017_12_24_S26 12/24/2017 20:55:00 0.1001
2017_12_24_S26 12/24/2017 21:00:00 0.088
2017_12_24_S26 12/24/2017 21:05:00 0.029
2017_12_24_S26 12/24/2017 21:10:00 0.0187
2017_12_24_S26 12/24/2017 21:15:00 0.0085
2017_12_24_S26 12/24/2017 21:20:00 0.0488
2017_12_24_S26 12/24/2017 21:25:00 0.0268
2017_12_24_S26 12/24/2017 21:30:00 0.0
2017_12_24_S26 12/24/2017 21:35:00 0.0009
2017_12_24_S26 12/24/2017 21:40:00 0.0139
2017_12_24_S26 12/24/2017 21:45:00 0.2218
2017_12_24_S26 12/24/2017 21:50:00 0.0299
2017_12_24_S26 12/24/2017 21:55:00 0.0123
2017_12_24_S26 12/24/2017 22:00:00 0.4771
2017_12_24_S26 12/24/2017 22:05:00 0.1448
2017_12_24_S26 12/24/2017 22:10:00 0.1147
2017_12_24_S26 12/24/2017 22:15:00 0.0462
2017_12_24_S26 12/24/2017 22:20:00 0.0
2017_12_24_S26 12/24/2017 22:25:00 0.0621
2017_12_24_S26 12/24/2017 22:30:00 0.2846
2017_12_24_S26 12/24/2017 22:35:00 0.0522
2017_12_24_S26 12/24/2017 22:40:00 0.0819
2017_12_24_S26 12/24/2017 22:45:00 0.1348
2017_12_24_S26 12/24/2017 22:50:00 0.0813
2017_12_24_S26 12/24/2017 22:55:00 0.1404
2017_12_24_S26 12/24/2017 23:00:00 0.0413
2017_12_24_S26 12/24/2017 23:05:00 0.0888
2017_12_24_S26 12/24/2017 23:10:00 0.265
2017_12_24_S26 12/24/2017 23:15:00 0.2271
2017_12_24_S26 12/24/2017 23:20:00 0.2148
2017_12_24_S26 12/24/2017 23:25:00 0.3547
2017_12_24_S26 12/24/2017 23:30:00 0.1349
2017_12_24_S26 12/24/2017 23:35:00 0.0725
2017_12_24_S26 12/24/2017 23:40:00 0.0144
2017_12_24_S26 12/24/2017 23:45:00 0.0336
2017_12_24_S26 12/24/2017 23:50:00 0.0103
2017_12_24_S26 12/24/2017 23:55:00 0.0
2017_12_24_S26 12/25/2017 00:00:00 0.0
2017_12_24_S26 12/25/2017 00:05:00 0.0
2017_12_24_S26 12/25/2017 00:10:00 0.0
2017_12_24_S26 12/25/2017 00:15:00 0.145
2017_12_24_S26 12/25/2017 00:20:00 0.1667
2017_12_24_S26 12/25/2017 00:25:00 0.0013
2017_12_24_S26 12/25/2017 00:30:00 0.0
2017_12_24_S26 12/25/2017 00:35:00 0.0
2017_12_24_S26 12/25/2017 00:40:00 0.0
2017_12_24_S26 12/25/2017 00:45:00 0.0
2017_12_24_S26 12/25/2017 00:50:00 0.0
2017_12_24_S26 12/25/2017 00:55:00 0.0
2017_12_24_S26 12/25/2017 01:00:00 0.0
2017_12_24_S26 12/25/2017 01:05:00 0.0
2017_12_24_S26 12/25/2017 01:10:00 0.015
2017_12_24_S26 12/25/2017 01:15:00 0.323
2017_12_24_S26 12/25/2017 01:20:00 0.0
2017_12_24_S26 12/25/2017 01:25:00 0.0
2017_12_24_S26 12/25/2017 01:30:00 0.0
2017_12_24_S26 12/25/2017 01:35:00 0.0
2017_12_24_S26 12/25/2017 01:40:00 0.0
2017_12_24_S26 12/25/2017 01:45:00 0.0021
2017_12_24_S26 12/25/2017 01:50:00 0.0044
2017_12_24_S26 12/25/2017 01:55:00 0.0
2017_12_24_S26 12/25/2017 02:00:00 0.165
2017_12_24_S26 12/25/2017 02:05:00 0.1911
2017_12_24_S26 12/25/2017 02:10:00 0.0051
2017_12_24_S26 12/25/2017 02:15:00 0.0
2017_12_24_S26 12/25/2017 02:20:00 0.0089
2017_12_24_S26 12/25/2017 02:25:00 0.1629
2017_12_24_S26 12/25/2017 02:30:00 0.0
2017_12_24_S26 12/25/2017 02:35:00 0.0
2017_12_24_S26 12/25/2017 02:40:00 0.0
2017_12_24_S26 12/25/2017 02:45:00 0.0
2017_12_24_S26 12/25/2017 02:50:00 0.0
2017_12_24_S26 12/25/2017 02:55:00 0.0
2017_12_24_S26 12/25/2017 03:00:00 0.0569
2017_12_24_S26 12/25/2017 03:05:00 0.0
2017_12_24_S26 12/25/2017 03:10:00 0.0
2017_12_24_S26 12/25/2017 03:15:00 0.0
2017_12_24_S26 12/25/2017 03:20:00 0.0
2017_12_24_S26 12/25/2017 03:25:00 0.0
2017_12_24_S26 12/25/2017 03:30:00 0.0801
2017_12_24_S26 12/25/2017 03:35:00 0.0014
2017_12_24_S26 12/25/2017 03:40:00 0.0
2017_12_24_S26 12/25/2017 03:45:00 0.0
2017_12_24_S26 12/25/2017 03:50:00 0.0
2017_12_24_S26 12/25/2017 03:55:00 0.0
2017_12_24_S26 12/25/2017 04:00:00 0.0
2017_12_24_S26 12/25/2017 04:05:00 0.0
2017_12_24_S26 12/25/2017 04:10:00 0.0
2017_12_24_S26 12/25/2017 04:15:00 0.0
2017_12_24_S26 12/25/2017 04:20:00 0.0
2017_12_24_S26 12/25/2017 04:25:00 0.0
2017_12_24_S26 12/25/2017 04:30:00 0.0
2017_12_24_S26 12/25/2017 04:35:00 0.0
2017_12_24_S26 12/25/2017 04:40:00 0.0
2017_12_24_S26 12/25/2017 04:45:00 0.0
2017_12_24_S26 12/25/2017 04:50:00 0.2724
2017_12_24_S26 12/25/2017 04:55:00 0.6413
2017_12_24_S26 12/25/2017 05:00:00 0.9421
2017_12_24_S26 12/25/2017 05:05:00 0.1141
2017_12_24_S26 12/25/2017 05:10:00 0.0119
2017_12_24_S26 12/25/2017 05:15:00 0.0
2017_12_24_S26 12/25/2017 05:20:00 0.0
2017_12_24_S26 12/25/2017 05:25:00 0.0203
2017_12_24_S26 12/25/2017 05:30:00 0.4899
2017_12_24_S26 12/25/2017 05:35:00 1.0523
2017_12_24_S26 12/25/2017 05:40:00 1.8973
2017_12_24_S26 12/25/2017 05:45:00 0.4825
2017_12_24_S26 12/25/2017 05:50:00 0.2904
2017_12_24_S26 12/25/2017 05:55:00 0.0137
2017_12_24_S26 12/25/2017 06:00:00 0.2353
2017_12_24_S26 12/25/2017 06:05:00 0.1495
2017_12_24_S26 12/25/2017 06:10:00 0.1398
2017_12_24_S26 12/25/2017 06:15:00 0.0009
2017_12_24_S26 12/25/2017 06:20:00 0.0
2017_12_24_S26 12/25/2017 06:25:00 0.0
2017_12_24_S26 12/25/2017 06:30:00 0.0
2017_12_24_S26 12/25/2017 06:35:00 0.0
2017_12_24_S26 12/25/2017 06:40:00 0.0
2017_12_24_S26 12/25/2017 06:45:00 0.0
2017_12_24_S26 12/25/2017 06:50:00 0.0
2017_12_24_S26 12/25/2017 06:55:00 0.0
2017_12_24_S26 12/25/2017 07:00:00 0.0
2017_12_24_S26 12/25/2017 07:05:00 0.0
2017_12_24_S26 12/25/2017 07:10:00 0.0
2017_12_24_S26 12/25/2017 07:15:00 0.0
2017_12_24_S26 12/25/2017 07:20:00 0.0
2017_12_24_S26 12/25/2017 07:25:00 0.0
2017_12_24_S26 12/25/2017 07:30:00 0.0
2017_12_24_S26 12/25/2017 07:35:00 0.0
2017_12_24_S26 12/25/2017 07:40:00 0.0
2017_12_24_S26 12/25/2017 07:45:00 0.0
2017_12_24_S26 12/25/2017 07:50:00 0.0
2017_12_24_S26 12/25/2017 07:55:00 0.0
2017_12_24_S26 12/25/2017 08:00:00 0.0

2017_12_24_S27 12/24/2017 12:10:00 0.1728
2017_12_24_S27 12/24/2017 12:15:00 0.6563
2017_12_24_S27 12/24/2017 12:20:00 4.3779
2017_12_24_S27 12/24/2017 12:25:00 1.3276
2017_12_24_S27 12/24/2017 12:30:00 0.6294
2017_12_24_S27 12/24/2017 12:35:00 0.3795
2017_12_24_S27 12/24/2017 12:40:00 0.5967
2017_12_24_S27 12/24/2017 12:45:00 0.5285
2017_12_24_S27 12/24/2017 12:50:00 0.4799
2017_12_24_S27 12/24/2017 12:55:00 0.1304
2017_12_24_S27 12/24/2017 13:00:00 0.0984
2017_12_24_S27 12/24/2017 13:05:00 0.0351
2017_12_24_S27 12/24/2017 13:10:00 0.0256
2017_12_24_S27 12/24/2017 13:15:00 0.0202
2017_12_24_S27 12/24/2017 13:20:00 0.0551
2017_12_24_S27 12/24/2017 13:25:00 0.0481
2017_12_24_S27 12/24/2017 13:30:00 0.0438
2017_12_24_S27 12/24/2017 13:35:00 0.0154
2017_12_24_S27 12/24/2017 13:40:00 0.0104
2017_12_24_S27 12/24/2017 13:45:00 0.0052
2017_12_24_S27 12/24/2017 13:50:00 0.0
2017_12_24_S27 12/24/2017 13:55:00 0.0034
2017_12_24_S27 12/24/2017 14:00:00 0.0
2017_12_24_S27 12/24/2017 14:05:00 0.0
2017_12_24_S27 12/24/2017 14:10:00 0.0
2017_12_24_S27 12/24/2017 14:15:00 0.0
2017_12_24_S27 12/24/2017 14:20:00 0.0
2017_12_24_S27 12/24/2017 14:25:00 0.0
2017_12_24_S27 12/24/2017 14:30:00 0.0
2017_12_24_S27 12/24/2017 14:35:00 0.0
2017_12_24_S27 12/24/2017 14:40:00 0.0
2017_12_24_S27 12/24/2017 14:45:00 0.0
2017_12_24_S27 12/24/2017 14:50:00 0.0
2017_12_24_S27 12/24/2017 14:55:00 0.0
2017_12_24_S27 12/24/2017 15:00:00 0.0
2017_12_24_S27 12/24/2017 15:05:00 0.0
2017_12_24_S27 12/24/2017 15:10:00 0.0001
2017_12_24_S27 12/24/2017 15:15:00 0.0
2017_12_24_S27 12/24/2017 15:20:00 0.0076
2017_12_24_S27 12/24/2017 15:25:00 0.0495
2017_12_24_S27 12/24/2017 15:30:00 0.0474
2017_12_24_S27 12/24/2017 15:35:00 0.7462
2017_12_24_S27 12/24/2017 15:40:00 0.467
2017_12_24_S27 12/24/2017 15:45:00 0.0229
2017_12_24_S27 12/24/2017 15:50:00 0.0
2017_12_24_S27 12/24/2017 15:55:00 0.0302
2017_12_24_S27 12/24/2017 16:00:00 0.4686
2017_12_24_S27 12/24/2017 16:05:00 0.6987
2017_12_24_S27 12/24/2017 16:10:00 0.0004
2017_12_24_S27 12/24/2017 16:15:00 0.0
2017_12_24_S27 12/24/2017 16:20:00 0.0995
2017_12_24_S27 12/24/2017 16:25:00 0.0998
2017_12_24_S27 12/24/2017 16:30:00 0.0461
2017_12_24_S27 12/24/2017 16:35:00 0.0371
2017_12_24_S27 12/24/2017 16:40:00 0.1046
2017_12_24_S27 12/24/2017 16:45:00 0.0717
2017_12_24_S27 12/24/2017 16:50:00 0.0387
2017_12_24_S27 12/24/2017 16:55:00 0.0433
2017_12_24_S27 12/24/2017 17:00:00 0.0228
2017_12_24_S27 12/24/2017 17:05:00 0.0
2017_12_24_S27 12/24/2017 17:10:00 0.0158
2017_12_24_S27 12/24/2017 17:15:00 0.0925
2017_12_24_S27 12/24/2017 17:20:00 0.11
2017_12_24_S27 12/24/2017 17:25:00 0.0402
2017_12_24_S27 12/24/2017 17:30:00 0.0591
2017_12_24_S27 12/24/2017 17:35:00 0.129
2017_12_24_S27 12/24/2017 17:40:00 0.1616
2017_12_24_S27 12/24/2017 17:45:00 0.0723
2017_12_24_S27 12/24/2017 17:50:00 0.0124
2017_12_24_S27 12/24/2017 17:55:00 0.0339
2017_12_24_S27 12/24/2017 18:00:00 0.0386
2017_12_24_S27 12/24/2017 18:05:00 0.0321
2017_12_24_S27 12/24/2017 18:10:00 0.2446
2017_12_24_S27 12/24/2017 18:15:00 0.1618
2017_12_24_S27 12/24/2017 18:20:00 0.0081
2017_12_24_S27 12/24/2017 18:25:00 0.0019
2017_12_24_S27 12/24/2017 18:30:00 0.0043
2017_12_24_S27 12/24/2017 18:35:00 0.007
2017_12_24_S27 12/24/2017 18:40:00 0.0297
2017_12_24_S27 12/24/2017 18:45:00 0.0092
2017_12_24_S27 12/24/2017 18:50:00 0.0
2017_12_24_S27 12/24/2017 18:55:00 0.0
2017_12_24_S27 12/24/2017 19:00:00 0.0094
2017_12_24_S27 12/24/2017 19:05:00 0.0192
2017_12_24_S27 12/24/2017 19:10:00 0.1455
2017_12_24_S27 12/24/2017 19:15:00 0.2708
2017_12_24_S27 12/24/2017 19:20:00 0.0585
2017_12_24_S27 12/24/2017 19:25:00 0.0234
2017_12_24_S27 12/24/2017 19:30:00 0.0
2017_12_24_S27 12/24/2017 19:35:00 0.0044
2017_12_24_S27 12/24/2017 19:40:00 0.0096
2017_12_24_S27 12/24/2017 19:45:00 0.0001
2017_12_24_S27 12/24/2017 19:50:00 0.008
2017_12_24_S27 12/24/2017 19:55:00 0.055
2017_12_24_S27 12/24/2017 20:00:00 0.1187
2017_12_24_S27 12/24/2017 20:05:00 0.0449
2017_12_24_S27 12/24/2017 20:10:00 0.0153
2017_12_24_S27 12/24/2017 20:15:00 0.0039
2017_12_24_S27 12/24/2017 20:20:00 0.006
2017_12_24_S27 12/24/2017 20:25:00 0.009
2017_12_24_S27 12/24/2017 20:30:00 0.0466
2017_12_24_S27 12/24/2017 20:35:00 0.0137
2017_12_24_S27 12/24/2017 20:40:00 0.0062
2017_12_24_S27 12/24/2017 20:45:00 0.0082
2017_12_24_S27 12/24/2017 20:50:00 0.0042
2017_12_24_S27 12/24/2017 20:55:00 0.0781
2017_12_24_S27 12/24/2017 21:00:00 0.1177
2017_12_24_S27 12/24/2017 21:05:00 0.0368
2017_12_24_S27 12/24/2017 21:10:00 0.0233
2017_12_24_S27 12/24/2017 21:15:00 0.0099
2017_12_24_S27 12/24/2017 21:20:00 0.0612
2017_12_24_S27 12/24/2017 21:25:00 0.0236
2017_12_24_S27 12/24/2017 21:30:00 0.0
2017_12_24_S27 12/24/2017 21:35:00 0.0002
2017_12_24_S27 12/24/2017 21:40:00 0.0106
2017_12_24_S27 12/24/2017 21:45:00 0.1843
2017_12_24_S27 12/24/2017 21:50:00 0.0251
2017_12_24_S27 12/24/2017 21:55:00 0.0247
2017_12_24_S27 12/24/2017 22:00:00 0.5744
2017_12_24_S27 12/24/2017 22:05:00 0.1352
2017_12_24_S27 12/24/2017 22:10:00 0.1386
2017_12_24_S27 12/24/2017 22:15:00 0.0291
2017_12_24_S27 12/24/2017 22:20:00 0.0
2017_12_24_S27 12/24/2017 22:25:00 0.08
2017_12_24_S27 12/24/2017 22:30:00 0.3137
2017_12_24_S27 12/24/2017 22:35:00 0.054
2017_12_24_S27 12/24/2017 22:40:00 0.0592
2017_12_24_S27 12/24/2017 22:45:00 0.1053
2017_12_24_S27 12/24/2017 22:50:00 0.0459
2017_12_24_S27 12/24/2017 22:55:00 0.1676
2017_12_24_S27 12/24/2017 23:00:00 0.035
2017_12_24_S27 12/24/2017 23:05:00 0.0497
2017_12_24_S27 12/24/2017 23:10:00 0.1198
2017_12_24_S27 12/24/2017 23:15:00 0.337
2017_12_24_S27 12/24/2017 23:20:00 0.2269
2017_12_24_S27 12/24/2017 23:25:00 0.3372
2017_12_24_S27 12/24/2017 23:30:00 0.1452
2017_12_24_S27 12/24/2017 23:35:00 0.0484
2017_12_24_S27 12/24/2017 23:40:00 0.0094
2017_12_24_S27 12/24/2017 23:45:00 0.0566
2017_12_24_S27 12/24/2017 23:50:00 0.0078
2017_12_24_S27 12/24/2017 23:55:00 0.0
2017_12_24_S27 12/25/2017 00:00:00 0.0
2017_12_24_S27 12/25/2017 00:05:00 0.0
2017_12_24_S27 12/25/2017 00:10:00 0.0017
2017_12_24_S27 12/25/2017 00:15:00 0.1063
2017_12_24_S27 12/25/2017 00:20:00 0.2442
2017_12_24_S27 12/25/2017 00:25:00 0.0002
2017_12_24_S27 12/25/2017 00:30:00 0.0
2017_12_24_S27 12/25/2017 00:35:00 0.0
2017_12_24_S27 12/25/2017 00:40:00 0.0
2017_12_24_S27 12/25/2017 00:45:00 0.0
2017_12_24_S27 12/25/2017 00:50:00 0.0
2017_12_24_S27 12/25/2017 00:55:00 0.0
2017_12_24_S27 12/25/2017 01:00:00 0.0
2017_12_24_S27 12/25/2017 01:05:00 0.0
2017_12_24_S27 12/25/2017 01:10:00 0.0186
2017_12_24_S27 12/25/2017 01:15:00 0.2863
2017_12_24_S27 12/25/2017 01:20:00 0.0
2017_12_24_S27 12/25/2017 01:25:00 0.0
2017_12_24_S27 12/25/2017 01:30:00 0.0
2017_12_24_S27 12/25/2017 01:35:00 0.0
2017_12_24_S27 12/25/2017 01:40:00 0.0
2017_12_24_S27 12/25/2017 01:45:00 0.0001
2017_12_24_S27 12/25/2017 01:50:00 0.0007
2017_12_24_S27 12/25/2017 01:55:00 0.0009
2017_12_24_S27 12/25/2017 02:00:00 0.107
2017_12_24_S27 12/25/2017 02:05:00 0.0765
2017_12_24_S27 12/25/2017 02:10:00 0.0002
2017_12_24_S27 12/25/2017 02:15:00 0.0
2017_12_24_S27 12/25/2017 02:20:00 0.009
2017_12_24_S27 12/25/2017 02:25:00 0.3815
2017_12_24_S27 12/25/2017 02:30:00 0.0002
2017_12_24_S27 12/25/2017 02:35:00 0.0
2017_12_24_S27 12/25/2017 02:40:00 0.0
2017_12_24_S27 12/25/2017 02:45:00 0.0
2017_12_24_S27 12/25/2017 02:50:00 0.0
2017_12_24_S27 12/25/2017 02:55:00 0.0
2017_12_24_S27 12/25/2017 03:00:00 0.1222
2017_12_24_S27 12/25/2017 03:05:00 0.0
2017_12_24_S27 12/25/2017 03:10:00 0.0
2017_12_24_S27 12/25/2017 03:15:00 0.0
2017_12_24_S27 12/25/2017 03:20:00 0.0
2017_12_24_S27 12/25/2017 03:25:00 0.0005
2017_12_24_S27 12/25/2017 03:30:00 0.0744
2017_12_24_S27 12/25/2017 03:35:00 0.0002
2017_12_24_S27 12/25/2017 03:40:00 0.0
2017_12_24_S27 12/25/2017 03:45:00 0.0
2017_12_24_S27 12/25/2017 03:50:00 0.0
2017_12_24_S27 12/25/2017 03:55:00 0.0
2017_12_24_S27 12/25/2017 04:00:00 0.0
2017_12_24_S27 12/25/2017 04:05:00 0.0
2017_12_24_S27 12/25/2017 04:10:00 0.0
2017_12_24_S27 12/25/2017 04:15:00 0.0
2017_12_24_S27 12/25/2017 04:20:00 0.0
2017_12_24_S27 12/25/2017 04:25:00 0.0
2017_12_24_S27 12/25/2017 04:30:00 0.0
2017_12_24_S27 12/25/2017 04:35:00 0.0
2017_12_24_S27 12/25/2017 04:40:00 0.0
2017_12_24_S27 12/25/2017 04:45:00 0.0
2017_12_24_S27 12/25/2017 04:50:00 0.4957
2017_12_24_S27 12/25/2017 04:55:00 0.6092
2017_12_24_S27 12/25/2017 05:00:00 0.6711
2017_12_24_S27 12/25/2017 05:05:00 0.1246
2017_12_24_S27 12/25/2017 05:10:00 0.0022
2017_12_24_S27 12/25/2017 05:15:00 0.0
2017_12_24_S27 12/25/2017 05:20:00 0.0
2017_12_24_S27 12/25/2017 05:25:00 0.0108
2017_12_24_S27 12/25/2017 05:30:00 0.4912
2017_12_24_S27 12/25/2017 05:35:00 1.3931
2017_12_24_S27 12/25/2017 05:40:00 0.948
2017_12_24_S27 12/25/2017 05:45:00 0.0661
2017_12_24_S27 12/25/2017 05:50:00 0.1397
2017_12_24_S27 12/25/2017 05:55:00 0.0236
2017_12_24_S27 12/25/2017 06:00:00 0.1497
2017_12_24_S27 12/25/2017 06:05:00 0.1474
2017_12_24_S27 12/25/2017 06:10:00 0.0827
2017_12_24_S27 12/25/2017 06:15:00 0.0072
2017_12_24_S27 12/25/2017 06:20:00 0.0
2017_12_24_S27 12/25/2017 06:25:00 0.0
2017_12_24_S27 12/25/2017 06:30:00 0.0
2017_12_24_S27 12/25/2017 06:35:00 0.0
2017_12_24_S27 12/25/2017 06:40:00 0.0
2017_12_24_S27 12/25/2017 06:45:00 0.0
2017_12_24_S27 12/25/2017 06:50:00 0.0
2017_12_24_S27 12/25/2017 06:55:00 0.0
2017_12_24_S27 12/25/2017 07:00:00 0.0
2017_12_24_S27 12/25/2017 07:05:00 0.0
2017_12_24_S27 12/25/2017 07:10:00 0.0
2017_12_24_S27 12/25/2017 07:15:00 0.0
2017_12_24_S27 12/25/2017 07:20:00 0.0
2017_12_24_S27 12/25/2017 07:25:00 0.0
2017_12_24_S27 12/25/2017 07:30:00 0.0
2017_12_24_S27 12/25/2017 07:35:00 0.0
2017_12_24_S27 12/25/2017 07:40:00 0.0
2017_12_24_S27 12/25/2017 07:45:00 0.0
2017_12_24_S27 12/25/2017 07:50:00 0.0
2017_12_24_S27 12/25/2017 07:55:00 0.0
2017_12_24_S27 12/25/2017 08:00:00 0.0

2017_12_24_S28 12/24/2017 12:10:00 0.6047
2017_12_24_S28 12/24/2017 12:15:00 0.9321
2017_12_24_S28 12/24/2017 12:20:00 6.608
2017_12_24_S28 12/24/2017 12:25:00 0.6375
2017_12_24_S28 12/24/2017 12:30:00 0.2076
2017_12_24_S28 12/24/2017 12:35:00 0.1573
2017_12_24_S28 12/24/2017 12:40:00 0.2465
2017_12_24_S28 12/24/2017 12:45:00 0.2419
2017_12_24_S28 12/24/2017 12:50:00 0.5013
2017_12_24_S28 12/24/2017 12:55:00 0.0749
2017_12_24_S28 12/24/2017 13:00:00 0.0463
2017_12_24_S28 12/24/2017 13:05:00 0.0104
2017_12_24_S28 12/24/2017 13:10:00 0.0317
2017_12_24_S28 12/24/2017 13:15:00 0.0204
2017_12_24_S28 12/24/2017 13:20:00 0.0553
2017_12_24_S28 12/24/2017 13:25:00 0.0377
2017_12_24_S28 12/24/2017 13:30:00 0.0364
2017_12_24_S28 12/24/2017 13:35:00 0.0079
2017_12_24_S28 12/24/2017 13:40:00 0.0096
2017_12_24_S28 12/24/2017 13:45:00 0.0048
2017_12_24_S28 12/24/2017 13:50:00 0.0
2017_12_24_S28 12/24/2017 13:55:00 0.0049
2017_12_24_S28 12/24/2017 14:00:00 0.0
2017_12_24_S28 12/24/2017 14:05:00 0.0
2017_12_24_S28 12/24/2017 14:10:00 0.0
2017_12_24_S28 12/24/2017 14:15:00 0.0
2017_12_24_S28 12/24/2017 14:20:00 0.0
2017_12_24_S28 12/24/2017 14:25:00 0.0
2017_12_24_S28 12/24/2017 14:30:00 0.0
2017_12_24_S28 12/24/2017 14:35:00 0.0
2017_12_24_S28 12/24/2017 14:40:00 0.0
2017_12_24_S28 12/24/2017 14:45:00 0.0
2017_12_24_S28 12/24/2017 14:50:00 0.0
2017_12_24_S28 12/24/2017 14:55:00 0.0
2017_12_24_S28 12/24/2017 15:00:00 0.0
2017_12_24_S28 12/24/2017 15:05:00 0.0
2017_12_24_S28 12/24/2017 15:10:00 0.0008
2017_12_24_S28 12/24/2017 15:15:00 0.0006
2017_12_24_S28 12/24/2017 15:20:00 0.0084
2017_12_24_S28 12/24/2017 15:25:00 0.0752
2017_12_24_S28 12/24/2017 15:30:00 0.0918
2017_12_24_S28 12/24/2017 15:35:00 0.8307
2017_12_24_S28 12/24/2017 15:40:00 0.4892
2017_12_24_S28 12/24/2017 15:45:00 0.0066
2017_12_24_S28 12/24/2017 15:50:00 0.0
2017_12_24_S28 12/24/2017 15:55:00 0.052
2017_12_24_S28 12/24/2017 16:00:00 0.3069
2017_12_24_S28 12/24/2017 16:05:00 0.5185
2017_12_24_S28 12/24/2017 16:10:00 0.0
2017_12_24_S28 12/24/2017 16:15:00 0.0
2017_12_24_S28 12/24/2017 16:20:00 0.1023
2017_12_24_S28 12/24/2017 16:25:00 0.1139
2017_12_24_S28 12/24/2017 16:30:00 0.0566
2017_12_24_S28 12/24/2017 16:35:00 0.0284
2017_12_24_S28 12/24/2017 16:40:00 0.067
2017_12_24_S28 12/24/2017 16:45:00 0.0422
2017_12_24_S28 12/24/2017 16:50:00 0.0174
2017_12_24_S28 12/24/2017 16:55:00 0.0331
2017_12_24_S28 12/24/2017 17:00:00 0.0158
2017_12_24_S28 12/24/2017 17:05:00 0.0
2017_12_24_S28 12/24/2017 17:10:00 0.0125
2017_12_24_S28 12/24/2017 17:15:00 0.0496
2017_12_24_S28 12/24/2017 17:20:00 0.1385
2017_12_24_S28 12/24/2017 17:25:00 0.0493
2017_12_24_S28 12/24/2017 17:30:00 0.0702
2017_12_24_S28 12/24/2017 17:35:00 0.1488
2017_12_24_S28 12/24/2017 17:40:00 0.135
2017_12_24_S28 12/24/2017 17:45:00 0.0476
2017_12_24_S28 12/24/2017 17:50:00 0.0117
2017_12_24_S28 12/24/2017 17:55:00 0.042
2017_12_24_S28 12/24/2017 18:00:00 0.0228
2017_12_24_S28 12/24/2017 18:05:00 0.0216
2017_12_24_S28 12/24/2017 18:10:00 0.1026
2017_12_24_S28 12/24/2017 18:15:00 0.0921
2017_12_24_S28 12/24/2017 18:20:00 0.0005
2017_12_24_S28 12/24/2017 18:25:00 0.0
2017_12_24_S28 12/24/2017 18:30:00 0.0004
2017_12_24_S28 12/24/2017 18:35:00 0.0051
2017_12_24_S28 12/24/2017 18:40:00 0.0399
2017_12_24_S28 12/24/2017 18:45:00 0.0136
2017_12_24_S28 12/24/2017 18:50:00 0.0
2017_12_24_S28 12/24/2017 18:55:00 0.0
2017_12_24_S28 12/24/2017 19:00:00 0.0178
2017_12_24_S28 12/24/2017 19:05:00 0.0128
2017_12_24_S28 12/24/2017 19:10:00 0.1403
2017_12_24_S28 12/24/2017 19:15:00 0.2777
2017_12_24_S28 12/24/2017 19:20:00 0.0498
2017_12_24_S28 12/24/2017 19:25:00 0.0208
2017_12_24_S28 12/24/2017 19:30:00 0.0
2017_12_24_S28 12/24/2017 19:35:00 0.0005
2017_12_24_S28 12/24/2017 19:40:00 0.0129
2017_12_24_S28 12/24/2017 19:45:00 0.0
2017_12_24_S28 12/24/2017 19:50:00 0.008
2017_12_24_S28 12/24/2017 19:55:00 0.052
2017_12_24_S28 12/24/2017 20:00:00 0.1062
2017_12_24_S28 12/24/2017 20:05:00 0.05
2017_12_24_S28 12/24/2017 20:10:00 0.0132
2017_12_24_S28 12/24/2017 20:15:00 0.0045
2017_12_24_S28 12/24/2017 20:20:00 0.0056
2017_12_24_S28 12/24/2017 20:25:00 0.0092
2017_12_24_S28 12/24/2017 20:30:00 0.0489
2017_12_24_S28 12/24/2017 20:35:00 0.0093
2017_12_24_S28 12/24/2017 20:40:00 0.006
2017_12_24_S28 12/24/2017 20:45:00 0.01
2017_12_24_S28 12/24/2017 20:50:00 0.0099
2017_12_24_S28 12/24/2017 20:55:00 0.0504
2017_12_24_S28 12/24/2017 21:00:00 0.1231
2017_12_24_S28 12/24/2017 21:05:00 0.0494
2017_12_24_S28 12/24/2017 21:10:00 0.0312
2017_12_24_S28 12/24/2017 21:15:00 0.013
2017_12_24_S28 12/24/2017 21:20:00 0.0778
2017_12_24_S28 12/24/2017 21:25:00 0.0202
2017_12_24_S28 12/24/2017 21:30:00 0.0
2017_12_24_S28 12/24/2017 21:35:00 0.0042
2017_12_24_S28 12/24/2017 21:40:00 0.0245
2017_12_24_S28 12/24/2017 21:45:00 0.0899
2017_12_24_S28 12/24/2017 21:50:00 0.0232
2017_12_24_S28 12/24/2017 21:55:00 0.0363
2017_12_24_S28 12/24/2017 22:00:00 0.4671
2017_12_24_S28 12/24/2017 22:05:00 0.1181
2017_12_24_S28 12/24/2017 22:10:00 0.0916
2017_12_24_S28 12/24/2017 22:15:00 0.0227
2017_12_24_S28 12/24/2017 22:20:00 0.0
2017_12_24_S28 12/24/2017 22:25:00 0.0997
2017_12_24_S28 12/24/2017 22:30:00 0.2802
2017_12_24_S28 12/24/2017 22:35:00 0.0485
2017_12_24_S28 12/24/2017 22:40:00 0.0317
2017_12_24_S28 12/24/2017 22:45:00 0.09
2017_12_24_S28 12/24/2017 22:50:00 0.0305
2017_12_24_S28 12/24/2017 22:55:00 0.1691
2017_12_24_S28 12/24/2017 23:00:00 0.0265
2017_12_24_S28 12/24/2017 23:05:00 0.0565
2017_12_24_S28 12/24/2017 23:10:00 0.1175
2017_12_24_S28 12/24/2017 23:15:00 0.4557
2017_12_24_S28 12/24/2017 23:20:00 0.2318
2017_12_24_S28 12/24/2017 23:25:00 0.3355
2017_12_24_S28 12/24/2017 23:30:00 0.1892
2017_12_24_S28 12/24/2017 23:35:00 0.0414
2017_12_24_S28 12/24/2017 23:40:00 0.0075
2017_12_24_S28 12/24/2017 23:45:00 0.0755
2017_12_24_S28 12/24/2017 23:50:00 0.0056
2017_12_24_S28 12/24/2017 23:55:00 0.0
2017_12_24_S28 12/25/2017 00:00:00 0.0
2017_12_24_S28 12/25/2017 00:05:00 0.0
2017_12_24_S28 12/25/2017 00:10:00 0.0
2017_12_24_S28 12/25/2017 00:15:00 0.1152
2017_12_24_S28 12/25/2017 00:20:00 0.2583
2017_12_24_S28 12/25/2017 00:25:00 0.0
2017_12_24_S28 12/25/2017 00:30:00 0.0
2017_12_24_S28 12/25/2017 00:35:00 0.0
2017_12_24_S28 12/25/2017 00:40:00 0.0
2017_12_24_S28 12/25/2017 00:45:00 0.0
2017_12_24_S28 12/25/2017 00:50:00 0.0
2017_12_24_S28 12/25/2017 00:55:00 0.0
2017_12_24_S28 12/25/2017 01:00:00 0.0
2017_12_24_S28 12/25/2017 01:05:00 0.0
2017_12_24_S28 12/25/2017 01:10:00 0.0551
2017_12_24_S28 12/25/2017 01:15:00 0.2031
2017_12_24_S28 12/25/2017 01:20:00 0.0
2017_12_24_S28 12/25/2017 01:25:00 0.0
2017_12_24_S28 12/25/2017 01:30:00 0.0
2017_12_24_S28 12/25/2017 01:35:00 0.0
2017_12_24_S28 12/25/2017 01:40:00 0.0
2017_12_24_S28 12/25/2017 01:45:00 0.0
2017_12_24_S28 12/25/2017 01:50:00 0.0
2017_12_24_S28 12/25/2017 01:55:00 0.0061
2017_12_24_S28 12/25/2017 02:00:00 0.0381
2017_12_24_S28 12/25/2017 02:05:00 0.0694
2017_12_24_S28 12/25/2017 02:10:00 0.0
2017_12_24_S28 12/25/2017 02:15:00 0.0
2017_12_24_S28 12/25/2017 02:20:00 0.0102
2017_12_24_S28 12/25/2017 02:25:00 0.7851
2017_12_24_S28 12/25/2017 02:30:00 0.0
2017_12_24_S28 12/25/2017 02:35:00 0.0
2017_12_24_S28 12/25/2017 02:40:00 0.0
2017_12_24_S28 12/25/2017 02:45:00 0.0
2017_12_24_S28 12/25/2017 02:50:00 0.0
2017_12_24_S28 12/25/2017 02:55:00 0.0
2017_12_24_S28 12/25/2017 03:00:00 0.146
2017_12_24_S28 12/25/2017 03:05:00 0.0
2017_12_24_S28 12/25/2017 03:10:00 0.0
2017_12_24_S28 12/25/2017 03:15:00 0.0
2017_12_24_S28 12/25/2017 03:20:00 0.0
2017_12_24_S28 12/25/2017 03:25:00 0.0
2017_12_24_S28 12/25/2017 03:30:00 0.0424
2017_12_24_S28 12/25/2017 03:35:00 0.0
2017_12_24_S28 12/25/2017 03:40:00 0.0
2017_12_24_S28 12/25/2017 03:45:00 0.0
2017_12_24_S28 12/25/2017 03:50:00 0.0
2017_12_24_S28 12/25/2017 03:55:00 0.0
2017_12_24_S28 12/25/2017 04:00:00 0.0
2017_12_24_S28 12/25/2017 04:05:00 0.0
2017_12_24_S28 12/25/2017 04:10:00 0.0
2017_12_24_S28 12/25/2017 04:15:00 0.0
2017_12_24_S28 12/25/2017 04:20:00 0.0
2017_12_24_S28 12/25/2017 04:25:00 0.0
2017_12_24_S28 12/25/2017 04:30:00 0.0
2017_12_24_S28 12/25/2017 04:35:00 0.0
2017_12_24_S28 12/25/2017 04:40:00 0.0
2017_12_24_S28 12/25/2017 04:45:00 0.0
2017_12_24_S28 12/25/2017 04:50:00 0.5525
2017_12_24_S28 12/25/2017 04:55:00 0.5386
2017_12_24_S28 12/25/2017 05:00:00 0.4431
2017_12_24_S28 12/25/2017 05:05:00 0.1675
2017_12_24_S28 12/25/2017 05:10:00 0.0
2017_12_24_S28 12/25/2017 05:15:00 0.0
2017_12_24_S28 12/25/2017 05:20:00 0.0
2017_12_24_S28 12/25/2017 05:25:00 0.0109
2017_12_24_S28 12/25/2017 05:30:00 0.5256
2017_12_24_S28 12/25/2017 05:35:00 1.3315
2017_12_24_S28 12/25/2017 05:40:00 0.7583
2017_12_24_S28 12/25/2017 05:45:00 0.0258
2017_12_24_S28 12/25/2017 05:50:00 0.0764
2017_12_24_S28 12/25/2017 05:55:00 0.0215
2017_12_24_S28 12/25/2017 06:00:00 0.0434
2017_12_24_S28 12/25/2017 06:05:00 0.1482
2017_12_24_S28 12/25/2017 06:10:00 0.0732
2017_12_24_S28 12/25/2017 06:15:00 0.0081
2017_12_24_S28 12/25/2017 06:20:00 0.0
2017_12_24_S28 12/25/2017 06:25:00 0.0
2017_12_24_S28 12/25/2017 06:30:00 0.0
2017_12_24_S28 12/25/2017 06:35:00 0.0
2017_12_24_S28 12/25/2017 06:40:00 0.0
2017_12_24_S28 12/25/2017 06:45:00 0.0
2017_12_24_S28 12/25/2017 06:50:00 0.0
2017_12_24_S28 12/25/2017 06:55:00 0.0
2017_12_24_S28 12/25/2017 07:00:00 0.0
2017_12_24_S28 12/25/2017 07:05:00 0.0
2017_12_24_S28 12/25/2017 07:10:00 0.0
2017_12_24_S28 12/25/2017 07:15:00 0.0
2017_12_24_S28 12/25/2017 07:20:00 0.0
2017_12_24_S28 12/25/2017 07:25:00 0.0
2017_12_24_S28 12/25/2017 07:30:00 0.0
2017_12_24_S28 12/25/2017 07:35:00 0.0
2017_12_24_S28 12/25/2017 07:40:00 0.0
2017_12_24_S28 12/25/2017 07:45:00 0.0
2017_12_24_S28 12/25/2017 07:50:00 0.0
2017_12_24_S28 12/25/2017 07:55:00 0.0
2017_12_24_S28 12/25/2017 08:00:00 0.0

;;____________________________________________________________________________________________________
[REPORT]
;;Reporting Options
SUBCATCHMENTS ALL
NODES ALL
LINKS ALL

;;____________________________________________________________________________________________________
[MAP]
DIMENSIONS 185865.396 673350.000 190772.001 679332.930
Units      Meters

;;____________________________________________________________________________________________________
[COORDINATES]
;;Node           X-Coord            Y-Coord           
;;-------------- ------------------ ------------------
J1               188416.573         678864.133        
J10              187876.949         676421.351        
J11              187771.585         676118.430        
J12              187745.244         675971.909        
J13              187705.733         675874.777        
J14              187172.330         676006.482        
J15              186808.496         675525.760        
J16              187588.852         675315.403        
J17              187325.287         674633.430        
J18              186976.064         674336.920        
J2               188485.717         678548.042        
J20              188922.377         677824.394        
J21              189159.110         677387.020        
J22              189116.281         676672.101        
J23              188928.977         676213.404        
J24              188829.655         675802.338        
J25              188998.163         675748.871        
J26              189650.485         676542.859        
J3               188483.151         678441.702        
J4               188316.513         677812.480        
J5               188232.551         677631.386        
J6               188137.065         677425.598        
J7               188104.139         677267.552        
J8               188018.531         676976.156        
J9               187918.106         676592.567        
O1               188423.158         679007.361

;;____________________________________________________________________________________________________
[VERTICES]
;;Link           X-Coord            Y-Coord           
;;-------------- ------------------ ------------------
C2               188487.548         678593.979        
C2               188403.586         678740.501        
C21              189211.773         677639.351        
C21              189047.045         677701.947        
C21              189037.161         677797.490        
C22              189218.362         677049.625        
C22              189093.169         677092.455        
C23              188968.026         676309.700        
C23              189040.506         676306.405        
C4               188383.830         677872.897        
C4               188365.721         677925.579        
C4               188360.782         678067.161        
C4               188415.110         678221.914        
C4               188480.962         678429.349        
C5               188251.288         677708.747

;;____________________________________________________________________________________________________
[POLYGONS]
;;Subcatchment   X-Coord            Y-Coord           
;;-------------- ------------------ ------------------
S01              187279.862         678858.156        
S01              187414.939         678805.443        
S01              187494.009         678798.854        
S01              187622.496         678838.389        
S01              187675.209         678818.621        
S01              187790.519         678812.032        
S01              187823.464         678848.272        
S01              187866.293         678854.861        
S01              187899.239         678868.040        
S01              187981.603         678802.148        
S01              188027.727         678798.854        
S01              188077.145         678805.443        
S01              188123.269         678821.916        
S01              188162.804         678844.978        
S01              188205.633         678861.450        
S01              188281.408         678874.629        
S01              188337.415         678910.869        
S01              188390.128         678950.403        
S01              188406.601         678999.822        
S01              188446.135         679009.705        
S01              188446.135         678980.054        
S01              188423.073         678854.861        
S01              188416.484         678756.025        
S01              188495.554         678591.297        
S01              188067.261         678535.289        
S01              187734.511         678525.406        
S01              187095.367         678528.700        
S01              187194.204         678607.770        
S01              187167.848         678634.126        
S01              187164.553         678680.250        
S01              187276.568         678841.683        
S02              188311.826         678562.991        
S02              188093.122         678531.748        
S02              187825.817         678517.862        
S02              187121.103         678531.748        
S02              187034.315         678455.375        
S02              186964.886         678427.603        
S02              187003.072         678170.712        
S02              186968.357         678125.583        
S02              186933.642         678021.438        
S02              186874.627         677899.935        
S02              186982.243         677882.578        
S02              187207.890         677858.277        
S02              187277.320         677872.163        
S02              187659.185         677872.163        
S02              188023.692         677865.220        
S02              188318.769         677851.334        
S02              188322.241         677934.650        
S02              188339.598         678087.396        
S02              188402.085         678212.370        
S02              188412.500         678292.215        
S02              188468.044         678431.074        
S02              188464.572         678583.820        
S03              186866.088         677850.375        
S03              186852.202         677826.075        
S03              186855.674         677753.174        
S03              186914.689         677610.842        
S03              186994.534         677586.542        
S03              187067.435         677558.770        
S03              187109.093         677503.226        
S03              187154.222         677492.811        
S03              187244.481         677524.055        
S03              187383.341         677562.241        
S03              187466.657         677576.127        
S03              187570.802         677534.469        
S03              187855.465         677503.226        
S03              187987.382         677548.355        
S03              188126.241         677635.143        
S03              188188.728         677697.630        
S03              188240.801         677718.459        
S03              188285.930         677774.003        
S03              188320.645         677843.432        
S03              187740.905         677857.318        
S03              187185.466         677846.904        
S03              186886.917         677878.147        
S04              187214.648         677432.470        
S04              187264.984         677411.641        
S04              187275.399         677323.118        
S04              187509.725         677234.595        
S04              187551.383         677357.833        
S04              187709.336         677323.118        
S04              187735.372         677366.512        
S04              187898.533         677333.532        
S04              187919.361         677422.056        
S04              188125.916         677369.983        
S04              188223.117         677611.252        
S04              188240.475         677727.547        
S04              188037.392         677592.159        
S04              187900.268         677515.786        
S04              187593.041         677538.351        
S04              187488.896         677571.330        
S04              187419.466         677571.330        
S04              187232.005         677514.050        
S05              187478.475         677233.098        
S05              187442.024         677106.389        
S05              187785.702         677003.980        
S05              187822.153         677102.917        
S05              187962.749         677075.145        
S05              187985.313         677113.332        
S05              188053.008         677106.389        
S05              188139.795         677359.808        
S05              187924.562         677406.673        
S05              187910.676         677325.093        
S05              187740.573         677354.601        
S05              187712.801         677323.357        
S05              187539.226         677342.450        
S05              187527.076         677264.342        
S05              187494.097         677220.948        
S06              186705.854         677552.926        
S06              186698.911         677467.875        
S06              186665.932         677434.896        
S06              186657.253         677073.860        
S06              186627.745         677021.788        
S06              186652.046         676938.472        
S06              187217.900         676783.990        
S06              187261.293         676910.700        
S06              187933.028         676740.596        
S06              188044.116         677108.575        
S06              187981.629         677118.989        
S06              187946.914         677089.482        
S06              187813.261         677125.932        
S06              187792.432         677009.637        
S06              187441.811         677108.575        
S06              187466.112         677242.228        
S06              187259.558         677320.336        
S06              187250.879         677412.331        
S06              187197.071         677408.859        
S06              187209.221         677500.854        
S06              187117.226         677493.911        
S06              187056.475         677565.077        
S06              186898.522         677613.678        
S06              186836.035         677537.305        
S06              186711.061         677559.869        
S07              186650.642         676928.193        
S07              186604.518         676855.713        
S07              186578.162         676763.466        
S07              186650.642         676608.621        
S07              186742.890         676457.072        
S07              186917.501         676407.654        
S07              186940.563         676473.545        
S07              187457.809         676331.879        
S07              187431.452         676256.104        
S07              187790.559         676147.384        
S07              187978.348         676727.226        
S07              187260.135         676921.604        
S07              187227.190         676786.528        
S07              186644.053         676931.488        
S08              186765.952         676443.894        
S08              186848.316         676364.824        
S08              186756.068         676249.515        
S08              186769.246         676239.631        
S08              187105.291         676134.205        
S08              187141.531         676018.896        
S08              187711.489         675864.052        
S08              187810.326         676144.089        
S08              187434.747         676236.337        
S08              187464.398         676331.879        
S08              186940.563         676476.839        
S08              186930.680         676407.654        
S08              186746.184         676453.777        
S09              186774.094         676232.497        
S09              187105.622         676117.938        
S09              187136.865         676013.793        
S09              187254.896         675973.871        
S09              187091.736         675496.540        
S09              186834.845         675557.291        
S09              186846.995         675678.794        
S09              186650.856         675720.452        
S09              186619.612         675847.161        
S09              186609.198         676031.151        
S09              186640.441         676112.731        
S09              186770.622         676249.855        
S10              186660.526         675669.673        
S10              186588.046         675623.549        
S10              186541.922         675534.596        
S10              186403.551         675514.829        
S10              186370.605         675465.410        
S10              186367.310         675386.341        
S10              186291.536         675359.985        
S10              186258.590         675294.094        
S10              186278.357         675261.148        
S10              186261.885         675211.730        
S10              186268.474         675089.831        
S10              186298.125         675116.188        
S10              186360.721         675053.591        
S10              186456.263         675040.413        
S10              186476.031         674967.932        
S10              186624.286         674911.925        
S10              186848.316         675053.591        
S10              186924.090         675231.497        
S10              186999.865         675521.418        
S10              186825.254         675551.069        
S10              186851.610         675676.262        
S10              186627.580         675722.386        
S11              186996.571         675488.472        
S11              186943.858         675290.799        
S11              186854.905         675066.769        
S11              186630.875         674921.809        
S11              186627.580         674625.299        
S11              186574.867         674526.462        
S11              186739.595         674302.432        
S11              186733.006         674167.355        
S11              187306.259         674061.929        
S11              187372.150         674028.984        
S11              187263.430         674529.756        
S11              187167.888         674533.051        
S11              187227.190         674895.452        
S11              187335.910         675228.202        
S11              187319.437         675310.566        
S11              187246.957         675392.930        
S11              187131.647         675491.767        
S11              186996.571         675514.829        
S12              186752.882         674155.010        
S12              187356.922         674047.394        
S12              187353.450         673849.518        
S12              187304.850         673898.119        
S12              187204.176         673918.948        
S12              187075.731         673936.306        
S12              187016.715         673842.575        
S12              186752.882         673832.161        
S12              186669.566         673905.062        
S12              186659.151         673932.834        
S12              186738.996         674016.150        
S12              186735.524         674144.595        
S13              187362.328         673864.932        
S13              187369.271         674069.750        
S13              187279.013         674527.988        
S13              187174.868         674538.402        
S13              187268.598         675059.126        
S13              187334.556         675257.002        
S13              187289.427         675357.675        
S13              187192.225         675434.048        
S13              187108.909         675472.235        
S13              187258.184         675968.659        
S13              187806.680         675833.270        
S13              187806.680         675753.426        
S13              188230.203         675645.809        
S13              188230.203         675562.493        
S13              188414.192         675562.493        
S13              188455.850         675007.054        
S13              188275.332         674850.837        
S13              188094.814         674753.635        
S13              188039.270         674538.402        
S13              187955.954         674462.029        
S13              187917.768         674267.625        
S13              187942.068         674205.138        
S13              187949.011         674062.807        
S13              187883.053         673996.849        
S13              187848.338         674000.320        
S13              187758.079         673962.134        
S13              187695.592         673812.859        
S13              187626.162         673764.258        
S13              187476.888         673788.559        
S13              187358.857         673864.932        
S14              187715.284         675871.166        
S14              187833.314         676235.673        
S14              188503.313         676062.098        
S14              188454.712         675905.881        
S14              188291.552         675912.824        
S14              188246.423         675659.404        
S14              187819.429         675756.606        
S14              187812.486         675857.280        
S14              187729.170         675874.637        
S15              188699.856         674898.747        
S15              188604.314         674846.034        
S15              188469.237         674987.700        
S15              188423.114         675570.836        
S15              188235.324         675560.953        
S15              188228.735         675643.317        
S15              188245.207         675705.913        
S15              188274.858         675722.386        
S15              188571.369         675643.317        
S15              188614.198         675794.866        
S15              189009.545         675705.913        
S15              189035.901         675788.277        
S15              189388.419         675323.745        
S15              189312.644         675336.923        
S15              189200.629         675307.272        
S15              189095.203         675191.962        
S15              189088.614         675014.056        
S15              188956.832         674974.522        
S15              188917.297         674872.390        
S15              188762.453         674859.212        
S15              188706.445         674905.336        
S16              189072.141         675738.859        
S16              189391.713         675310.566        
S16              189427.953         675336.923        
S16              189622.332         675336.923        
S16              189734.347         675373.163        
S16              189803.533         675313.861        
S16              189935.315         675458.821        
S16              189968.260         675633.433        
S16              189510.317         675653.200        
S16              189507.023         675808.044        
S16              189605.859         676018.896        
S16              189605.859         676068.314        
S16              189424.659         676078.198        
S16              189358.767         675775.099        
S16              189049.079         675775.099        
S17              188292.964         675915.061        
S17              188470.010         675880.346        
S17              188619.285         676414.957        
S17              188640.114         676418.428        
S17              189521.874         676165.009        
S17              189501.045         676078.221        
S17              189431.615         676071.278        
S17              189421.200         676046.978        
S17              189348.299         675779.673        
S17              189028.921         675793.559        
S17              189018.507         675724.129        
S17              188612.342         675803.973        
S17              188588.041         675661.642        
S17              188275.607         675734.543        
S17              188310.322         675911.590        
S18              187933.690         676600.013        
S18              187833.017         676245.920        
S18              188506.487         676075.817        
S18              188624.518         676422.967        
S18              187937.162         676596.541        
S19              188046.282         676980.558        
S19              188310.116         676883.356        
S19              188337.888         676956.257        
S19              188712.810         676865.998        
S19              188716.281         676848.641        
S19              188629.494         676588.278        
S19              188639.908         676439.004        
S19              187931.723         676602.164        
S19              188046.282         676977.086        
S20              188151.099         677391.191        
S20              188699.596         677300.932        
S20              188692.653         677186.373        
S20              188786.383         677148.186        
S20              188716.953         676839.223        
S20              188345.503         676960.726        
S20              188314.260         676898.239        
S20              188046.954         676967.669        
S20              188151.099         677384.248        
S21              188644.301         676422.695        
S21              188630.415         676474.768        
S21              188717.202         676811.503        
S21              188800.518         677141.295        
S21              189776.009         676901.762        
S21              189633.677         676290.778        
S21              189592.019         676075.545        
S21              189505.232         676072.074        
S21              189519.118         676186.633        
S21              188640.829         676433.110        
S22              189609.358         676094.851        
S22              189796.819         676879.409        
S22              189828.062         676993.969        
S22              189848.891         676948.839        
S22              189921.793         676855.109        
S22              189977.337         676827.337        
S22              190053.710         676733.606        
S22              190119.668         676695.420        
S22              190185.627         676695.420        
S22              190268.943         676636.404        
S22              190362.673         676660.705        
S22              190432.103         676594.746        
S22              190452.932         676521.845        
S22              190425.160         676476.716        
S22              190553.605         676386.457        
S22              190557.077         676303.141        
S22              190494.590         676202.467        
S22              190525.833         676060.136        
S22              190515.419         675955.991        
S22              190414.745         675865.732        
S22              190161.326         675667.857        
S22              190088.425         675695.629        
S22              189977.337         675640.085        
S22              189522.571         675647.028        
S22              189508.685         675792.831        
S22              189619.773         676063.608        
S23              188878.835         677825.274        
S23              188944.793         677832.217        
S23              189187.798         677755.844        
S23              189392.616         677717.657        
S23              189691.165         677696.828        
S23              189684.222         677578.797        
S23              189760.595         677540.611        
S23              189750.181         677429.523        
S23              189718.937         677349.679        
S23              189791.838         677269.834        
S23              189798.781         677040.716        
S23              189777.953         676922.685        
S23              188944.793         677134.446        
S23              188965.622         677262.891        
S23              188913.550         677262.891        
S23              188930.907         677495.482        
S23              188885.778         677498.953        
S23              188861.477         677825.274        
S24              188340.468         677855.197        
S24              188784.820         677851.726        
S24              188868.135         677834.368        
S24              188864.664         677511.519        
S24              188923.679         677490.690        
S24              188902.850         677261.571        
S24              188951.451         677258.100        
S24              188947.980         677140.069        
S24              188916.736         677140.069        
S24              188708.447         677209.499        
S24              188684.146         677615.664        
S24              188267.567         677671.208        
S24              188333.525         677855.197        
S25              188250.451         677657.676        
S25              188691.331         677605.603        
S25              188691.331         677588.246        
S25              188698.274         677463.272        
S25              188712.160         677400.785        
S25              188705.217         677310.526        
S25              188160.192         677386.899        
S25              188246.979         677654.204        
S26              188709.123         678042.797        
S26              188719.538         677869.222        
S26              188820.211         677876.165        
S26              188861.869         677844.922        
S26              189007.672         677820.621        
S26              189299.278         677747.720        
S26              189688.085         677681.761        
S26              189698.500         677713.005        
S26              189681.142         677855.336        
S26              189629.070         677980.310        
S26              189483.267         678126.113        
S26              189313.163         678122.641        
S26              189268.034         678146.942        
S26              189014.615         678136.527        
S26              189004.200         678098.341        
S26              188702.180         678042.797        
S27              188509.779         678591.953        
S27              188617.395         678623.196        
S27              188929.830         678640.554        
S27              188884.700         679064.076        
S27              188981.902         679039.776        
S27              189207.550         679022.419        
S27              189259.622         678970.346        
S27              189419.311         678959.932        
S27              189467.912         678932.160        
S27              189471.383         678817.600        
S27              189433.197         678758.585        
S27              189502.627         678720.398        
S27              189572.057         678682.212        
S27              189596.357         678598.896        
S27              189565.114         678581.538        
S27              189526.927         678539.881        
S27              189509.570         678456.565        
S27              189471.383         678383.663        
S27              189471.383         678144.130        
S27              189308.223         678123.301        
S27              189290.866         678161.487        
S27              189006.203         678147.601        
S27              189009.674         678105.943        
S27              188714.597         678050.400        
S27              188718.069         677883.768        
S27              188363.976         677855.996        
S27              188363.976         677883.768        
S27              188377.862         678060.814        
S27              188409.105         678137.187        
S27              188475.064         678376.720        
S27              188506.307         678598.896        
S28              188431.500         678929.384        
S28              188415.027         678744.888        
S28              188474.329         678599.928        
S28              188569.871         678616.401        
S28              188747.777         678636.168        
S28              188849.908         678639.463        
S28              188909.210         678622.990        
S28              188912.505         678688.881        
S28              188892.738         678850.314        
S28              188863.087         679061.166        
S28              188635.762         679067.755        
S28              188606.111         679051.282        
S28              188507.274         678988.686        
S28              188434.794         678988.686

;;____________________________________________________________________________________________________
[SYMBOLS]
;;Gage           X-Coord            Y-Coord           
;;-------------- ------------------ ------------------

;;____________________________________________________________________________________________________
[BACKDROP]
FILE       "raanana_24subcatchments.png"
DIMENSIONS 185865.396 673350.000 190728.391 679250.737