[TITLE]
;;Project Title/Notes

;;____________________________________________________________________________________________________
[OPTIONS]
FLOW_UNITS           CMS
INFILTRATION         CURVE_NUMBER
FLOW_ROUTING         DYNWAVE
LINK_OFFSETS         DEPTH
MIN_SLOPE            0
ALLOW_PONDING        NO
SKIP_STEADY_STATE    NO
START_DATE           10/28/2015
START_TIME           08:25:00
REPORT_START_DATE    10/28/2015
REPORT_START_TIME    08:25:00
END_DATE             10/28/2015
END_TIME             20:00:00
SWEEP_START          01/01
SWEEP_END            12/31
DRY_DAYS             0
REPORT_STEP          00:05:00
WET_STEP             00:05:00
DRY_STEP             01:00:00
ROUTING_STEP         0:00:20
RULE_STEP            00:00:00
INERTIAL_DAMPING     PARTIAL
NORMAL_FLOW_LIMITED  BOTH
FORCE_MAIN_EQUATION  H-W
VARIABLE_STEP        0.75
LENGTHENING_STEP     0
MIN_SURFAREA         1.167
MAX_TRIALS           8
HEAD_TOLERANCE       0.0015
SYS_FLOW_TOL         5
LAT_FLOW_TOL         5
MINIMUM_STEP         0.5
THREADS              1

;;____________________________________________________________________________________________________
[EVAPORATION]
CONSTANT  4
DRY_ONLY  NO

;;____________________________________________________________________________________________________
[RAINGAGES]
R01 VOLUME 0:05 0 TIMESERIES 2015_10_28_S1
R02 VOLUME 0:05 0 TIMESERIES 2015_10_28_S2
R03 VOLUME 0:05 0 TIMESERIES 2015_10_28_S3
R04 VOLUME 0:05 0 TIMESERIES 2015_10_28_S4
R05 VOLUME 0:05 0 TIMESERIES 2015_10_28_S5
R06 VOLUME 0:05 0 TIMESERIES 2015_10_28_S6
R07 VOLUME 0:05 0 TIMESERIES 2015_10_28_S7
R08 VOLUME 0:05 0 TIMESERIES 2015_10_28_S8
R09 VOLUME 0:05 0 TIMESERIES 2015_10_28_S9
R10 VOLUME 0:05 0 TIMESERIES 2015_10_28_S10
R11 VOLUME 0:05 0 TIMESERIES 2015_10_28_S11
R12 VOLUME 0:05 0 TIMESERIES 2015_10_28_S12
R13 VOLUME 0:05 0 TIMESERIES 2015_10_28_S13
R14 VOLUME 0:05 0 TIMESERIES 2015_10_28_S14
R15 VOLUME 0:05 0 TIMESERIES 2015_10_28_S15
R16 VOLUME 0:05 0 TIMESERIES 2015_10_28_S16
R17 VOLUME 0:05 0 TIMESERIES 2015_10_28_S17
R18 VOLUME 0:05 0 TIMESERIES 2015_10_28_S18
R19 VOLUME 0:05 0 TIMESERIES 2015_10_28_S19
R20 VOLUME 0:05 0 TIMESERIES 2015_10_28_S20
R21 VOLUME 0:05 0 TIMESERIES 2015_10_28_S21
R22 VOLUME 0:05 0 TIMESERIES 2015_10_28_S22
R23 VOLUME 0:05 0 TIMESERIES 2015_10_28_S23
R24 VOLUME 0:05 0 TIMESERIES 2015_10_28_S24
R25 VOLUME 0:05 0 TIMESERIES 2015_10_28_S25
R26 VOLUME 0:05 0 TIMESERIES 2015_10_28_S26
R27 VOLUME 0:05 0 TIMESERIES 2015_10_28_S27
R28 VOLUME 0:05 0 TIMESERIES 2015_10_28_S28

;;____________________________________________________________________________________________________
[SUBCATCHMENTS]
S01 R01 J1 35.9 6 3211 3 0
S02 R02 J2 92.9 54 3640 2.6 0
S03 R03 J4 40.8 64.5 3640 2.2 0
S04 R04 J6 20.1 70.5 2457 2.4 0
S05 R05 J7 17.4 67.5 1508 3.5 0
S06 R06 J8 61.1 70.5 3692 1.9 0
S07 R07 J9 60.2 70.5 3458 2 0
S08 R08 J11 29 70.5 2600 2.8 0
S09 R09 J14 31.1 19.5 1482 3 0
S10 R10 J15 35.6 70.5 1820 2.2 0
S11 R11 J17 67.4 70.5 702 3.5 0
S12 R12 J18 15.2 16.5 2860 4 0
S13 R13 J16 177.1 10.5 5408 1.3 0
S14 R14 J12 27 73.5 1391 3 0
S15 R15 J24 59.2 24 1703 2.5 0
S16 R16 J25 28.6 45 1703 2.3 0
S17 R17 J23 53.4 73.5 1560 2.4 0
S18 R18 J10 25.4 73.5 1872 2.9 0
S19 R19 J8 27.8 73.5 1820 3.2 0
S20 R20 J7 28.2 70.5 1820 3.3 0
S21 R21 J22 76.7 70.5 1976 2.8 0
S22 R22 J26 87.9 82.5 2405 2.4 0
S23 R23 J21 60.3 69 2262 2.1 0
S24 R24 J4 21.6 70.5 3255.2 2 0
S25 R25 J5 14 76.5 1274 3.6 0
S26 R26 J20 30.9 94.5 2470 2.1 0
S27 R27 J3 82 97.5 2782 1.9 0
S28 R28 J1 18.8 3 1235 2.4 0


;;____________________________________________________________________________________________________
[SUBAREAS]
S01 0.011 0.06 14.4 40 30 PERVIOUS 45
S02 0.011 0.06 14.4 40 50 PERVIOUS 45
S03 0.011 0.06 14.4 40 50 PERVIOUS 45
S04 0.011 0.06 14.4 40 50 PERVIOUS 45
S05 0.011 0.06 14.4 40 50 PERVIOUS 45
S06 0.011 0.06 14.4 40 50 PERVIOUS 45
S07 0.011 0.06 14.4 40 50 PERVIOUS 45
S08 0.011 0.06 14.4 40 50 PERVIOUS 45
S09 0.011 0.06 14.4 40 30 PERVIOUS 45
S10 0.011 0.06 14.4 40 50 PERVIOUS 45
S11 0.011 0.06 14.4 40 50 PERVIOUS 45
S12 0.011 0.06 14.4 40 30 PERVIOUS 45
S13 0.011 0.06 14.4 40 30 PERVIOUS 45
S14 0.011 0.06 14.4 40 50 PERVIOUS 45
S15 0.011 0.06 14.4 40 30 PERVIOUS 45
S16 0.011 0.06 14.4 40 50 PERVIOUS 45
S17 0.011 0.06 14.4 40 50 PERVIOUS 45
S18 0.011 0.06 14.4 40 50 PERVIOUS 45
S19 0.011 0.06 14.4 40 50 PERVIOUS 45
S20 0.011 0.06 14.4 40 50 PERVIOUS 45
S21 0.011 0.06 14.4 40 50 PERVIOUS 45
S22 0.011 0.06 14.4 40 60 PERVIOUS 45
S23 0.011 0.06 14.4 40 50 PERVIOUS 45
S24 0.011 0.06 14.4 40 50 PERVIOUS 45
S25 0.011 0.06 14.4 40 50 PERVIOUS 45
S26 0.011 0.06 14.4 40 60 PERVIOUS 45
S27 0.011 0.06 14.4 40 60 PERVIOUS 45
S28 0.011 0.06 14.4 40 30 PERVIOUS 45


;;____________________________________________________________________________________________________
[INFILTRATION]
S01 39 0.5 4
S02 39 0.5 4
S03 39 0.5 4
S04 39 0.5 4
S05 39 0.5 4
S06 39 0.5 4
S07 39 0.5 4
S08 39 0.5 4
S09 39 0.5 4
S10 39 0.5 4
S11 39 0.5 4
S12 39 0.5 4
S13 39 0.5 4
S14 39 0.5 4
S15 39 0.5 4
S16 39 0.5 4
S17 39 0.5 4
S18 39 0.5 4
S19 39 0.5 4
S20 39 0.5 4
S21 39 0.5 4
S22 39 0.5 4
S23 39 0.5 4
S24 39 0.5 4
S25 39 0.5 4
S26 39 0.5 4
S27 39 0.5 4
S28 39 0.5 4


;;____________________________________________________________________________________________________
[JUNCTIONS]
;;Name           Elevation  MaxDepth   InitDepth  SurDepth   Aponded   
;;-------------- ---------- ---------- ---------- ---------- ----------
J1               28.6       0          0          0          0         
J10              41.7       0          0          0          0         
J11              43.4       0          0          0          0         
J12              44.5       0          0          0          0         
J13              45.2       0          0          0          0         
J14              54.6       0          0          0          0         
J15              60.3       0          0          0          0         
J16              49         0          0          0          0         
J17              55.5       0          0          0          0         
J18              65.1       0          0          0          0         
J2               31.6       0          0          0          0         
J20              37.3       0          0          0          0         
J21              42.7       0          0          0          0         
J22              46.8       0          0          0          0         
J23              49.5       0          0          0          0         
J24              50.1       0          0          0          0         
J25              53.6       0          0          0          0         
J26              53.8       0          0          0          0         
J3               31.8       0          0          0          0         
J4               33.2       0          0          0          0         
J5               35.8       0          0          0          0         
J6               38         0          0          0          0         
J7               38.5       0          0          0          0         
J8               39.9       0          0          0          0         
J9               40.6       0          0          0          0

;;____________________________________________________________________________________________________
[OUTFALLS]
;;Name           Elevation  Type       Stage Data       Gated    Route To        
;;-------------- ---------- ---------- ---------------- -------- ----------------
O1               28         FREE                        NO

;;____________________________________________________________________________________________________
[CONDUITS]
;;Name           From Node        To Node          Length     Roughness  InOffset   OutOffset  InitFlow   MaxFlow   
;;-------------- ---------------- ---------------- ---------- ---------- ---------- ---------- ---------- ----------
C1               J1               O1               130        0.05       0          0          0          0         
C10              J10              J9               320        0.01       0          0          0          0         
C11              J11              J10              315        0.01       0          0          0          0         
C12              J12              J11              130        0.01       0          0          0          0         
C13              J13              J12              110        0.01       0          0          0          0         
C14              J13              J14              550        0.01       0          0          0          0         
C15              J15              J14              540        0.01       0          0          0          0         
C16              J16              J13              590        0.01       0          0          0          0         
C17              J17              J16              770        0.01       0          0          0          0         
C18              J18              J17              505        0.01       0          0          0          0         
C2               J2               J1               330        0.01       0          0          0          0         
C20              J20              J4               600        0.01       0          0          0          0         
C21              J21              J20              620        0.01       0          0          0          0         
C22              J22              J21              850        0.01       0          0          0          0         
C23              J23              J22              530        0.01       0          0          0          0         
C24              J24              J23              440        0.01       0          0          0          0         
C25              J25              J24              190        0.01       0          0          0          0         
C26              J26              J22              600        0.01       0          0          0          0         
C3               J3               J2               95         0.01       0          0          0          0         
C4               J4               J3               660        0.01       0          0          0          0         
C5               J5               J4               175        0.01       0          0          0          0         
C6               J6               J5               280        0.01       0          0          0          0         
C7               J7               J6               120        0.01       0          0          0          0         
C8               J8               J7               300        0.01       0          0          0          0         
C9               J9               J8               250        0.01       0          0          0          0

;;____________________________________________________________________________________________________
[XSECTIONS]
;;Link           Shape        Geom1            Geom2      Geom3      Geom4      Barrels    Culvert   
;;-------------- ------------ ---------------- ---------- ---------- ---------- ---------- ----------
C1               PARABOLIC    5                12         0          0          1                    
C10              RECT_CLOSED  1.5              1.7        0          0          1                    
C11              RECT_CLOSED  1.25             1.5        0          0          1                    
C12              RECT_CLOSED  1.25             1.5        0          0          1                    
C13              RECT_CLOSED  1.95             3.85       0          0          1                    
C14              CIRCULAR     0.6              0          0          0          1                    
C15              RECT_CLOSED  1.95             3.85       0          0          1                    
C16              PARABOLIC    1.95             3.85       0          0          1                    
C17              RECT_CLOSED  1.95             3.85       0          0          1                    
C18              RECT_CLOSED  1.95             3.85       0          0          1                    
C2               PARABOLIC    5                12         0          0          1                    
C20              RECT_CLOSED  1.25             4.5        0          0          1                    
C21              CIRCULAR     1.5              0          0          0          1                    
C22              CIRCULAR     1.8              0          0          0          1                    
C23              CIRCULAR     1.25             0          0          0          1                    
C24              CIRCULAR     1.5              0          0          0          1                    
C25              RECT_CLOSED  1.95             3.85       0          0          1                    
C26              CIRCULAR     1.25             0          0          0          1                    
C3               RECT_CLOSED  3.70             6          0          0          1                    
C4               RECT_CLOSED  3.60             5.85       0          0          1                    
C5               RECT_CLOSED  1.85             2.5        0          0          1                    
C6               RECT_CLOSED  1.85             2.5        0          0          1                    
C7               RECT_CLOSED  1.95             3.85       0          0          1                    
C8               RECT_CLOSED  1.85             2          0          0          1                    
C9               RECT_CLOSED  1.85             2          0          0          1

;;____________________________________________________________________________________________________
[TIMESERIES]
2015_10_28_S1 10/28/2015 10:25:00 0.0051
2015_10_28_S1 10/28/2015 10:30:00 0.0
2015_10_28_S1 10/28/2015 10:35:00 0.0
2015_10_28_S1 10/28/2015 10:40:00 0.0
2015_10_28_S1 10/28/2015 10:45:00 0.0019
2015_10_28_S1 10/28/2015 10:50:00 0.4758
2015_10_28_S1 10/28/2015 10:55:00 0.2383
2015_10_28_S1 10/28/2015 11:00:00 0.1274
2015_10_28_S1 10/28/2015 11:05:00 1.3659
2015_10_28_S1 10/28/2015 11:10:00 0.8708
2015_10_28_S1 10/28/2015 11:15:00 2.1791
2015_10_28_S1 10/28/2015 11:20:00 2.3246
2015_10_28_S1 10/28/2015 11:25:00 2.765
2015_10_28_S1 10/28/2015 11:30:00 3.2054
2015_10_28_S1 10/28/2015 11:35:00 1.1727
2015_10_28_S1 10/28/2015 11:40:00 2.0776
2015_10_28_S1 10/28/2015 11:45:00 3.855
2015_10_28_S1 10/28/2015 11:50:00 3.2801
2015_10_28_S1 10/28/2015 11:55:00 0.9026
2015_10_28_S1 10/28/2015 12:00:00 2.105
2015_10_28_S1 10/28/2015 12:05:00 4.5645
2015_10_28_S1 10/28/2015 12:10:00 4.438
2015_10_28_S1 10/28/2015 12:15:00 5.7689
2015_10_28_S1 10/28/2015 12:20:00 2.8964
2015_10_28_S1 10/28/2015 12:25:00 0.3636
2015_10_28_S1 10/28/2015 12:30:00 0.007
2015_10_28_S1 10/28/2015 12:35:00 0.0
2015_10_28_S1 10/28/2015 12:40:00 0.1443
2015_10_28_S1 10/28/2015 12:45:00 0.0845
2015_10_28_S1 10/28/2015 12:50:00 0.0063
2015_10_28_S1 10/28/2015 12:55:00 0.0
2015_10_28_S1 10/28/2015 13:00:00 0.0
2015_10_28_S1 10/28/2015 13:05:00 0.0
2015_10_28_S1 10/28/2015 13:10:00 0.0
2015_10_28_S1 10/28/2015 13:15:00 0.0
2015_10_28_S1 10/28/2015 13:20:00 0.0
2015_10_28_S1 10/28/2015 13:25:00 0.0
2015_10_28_S1 10/28/2015 13:30:00 0.0
2015_10_28_S1 10/28/2015 13:35:00 0.0
2015_10_28_S1 10/28/2015 13:40:00 0.0
2015_10_28_S1 10/28/2015 13:45:00 0.0
2015_10_28_S1 10/28/2015 13:50:00 0.0
2015_10_28_S1 10/28/2015 13:55:00 0.0
2015_10_28_S1 10/28/2015 14:00:00 0.0
2015_10_28_S1 10/28/2015 14:05:00 0.0
2015_10_28_S1 10/28/2015 14:10:00 0.1022
2015_10_28_S1 10/28/2015 14:15:00 0.0
2015_10_28_S1 10/28/2015 14:20:00 0.0
2015_10_28_S1 10/28/2015 14:25:00 0.0297
2015_10_28_S1 10/28/2015 14:30:00 0.1182
2015_10_28_S1 10/28/2015 14:35:00 0.0592
2015_10_28_S1 10/28/2015 14:40:00 0.0257
2015_10_28_S1 10/28/2015 14:45:00 0.0081
2015_10_28_S1 10/28/2015 14:50:00 0.0066
2015_10_28_S1 10/28/2015 14:55:00 0.016
2015_10_28_S1 10/28/2015 15:00:00 0.0
2015_10_28_S1 10/28/2015 15:05:00 0.0
2015_10_28_S1 10/28/2015 15:10:00 0.0
2015_10_28_S1 10/28/2015 15:15:00 0.0
2015_10_28_S1 10/28/2015 15:20:00 0.0
2015_10_28_S1 10/28/2015 15:25:00 0.0
2015_10_28_S1 10/28/2015 15:30:00 0.0
2015_10_28_S1 10/28/2015 15:35:00 0.0
2015_10_28_S1 10/28/2015 15:40:00 0.0
2015_10_28_S1 10/28/2015 15:45:00 0.0
2015_10_28_S1 10/28/2015 15:50:00 0.0
2015_10_28_S1 10/28/2015 15:55:00 0.0
2015_10_28_S1 10/28/2015 16:00:00 0.0
2015_10_28_S1 10/28/2015 16:05:00 0.0
2015_10_28_S1 10/28/2015 16:10:00 0.0
2015_10_28_S1 10/28/2015 16:15:00 0.0
2015_10_28_S1 10/28/2015 16:20:00 0.0
2015_10_28_S1 10/28/2015 16:25:00 0.0
2015_10_28_S1 10/28/2015 16:30:00 0.0
2015_10_28_S1 10/28/2015 16:35:00 0.0
2015_10_28_S1 10/28/2015 16:40:00 0.02
2015_10_28_S1 10/28/2015 16:45:00 0.0
2015_10_28_S1 10/28/2015 16:50:00 0.0
2015_10_28_S1 10/28/2015 16:55:00 0.0
2015_10_28_S1 10/28/2015 17:00:00 0.0138
2015_10_28_S1 10/28/2015 17:05:00 0.0
2015_10_28_S1 10/28/2015 17:10:00 0.0
2015_10_28_S1 10/28/2015 17:15:00 0.0
2015_10_28_S1 10/28/2015 17:20:00 0.0
2015_10_28_S1 10/28/2015 17:25:00 0.0
2015_10_28_S1 10/28/2015 17:30:00 0.0
2015_10_28_S1 10/28/2015 17:35:00 0.0
2015_10_28_S1 10/28/2015 17:40:00 0.0
2015_10_28_S1 10/28/2015 17:45:00 0.0
2015_10_28_S1 10/28/2015 17:50:00 0.0
2015_10_28_S1 10/28/2015 17:55:00 0.0
2015_10_28_S1 10/28/2015 18:00:00 0.0
2015_10_28_S1 10/28/2015 18:05:00 0.0
2015_10_28_S1 10/28/2015 18:10:00 0.0
2015_10_28_S1 10/28/2015 18:15:00 0.0
2015_10_28_S1 10/28/2015 18:20:00 0.0
2015_10_28_S1 10/28/2015 18:25:00 0.0
2015_10_28_S1 10/28/2015 18:30:00 0.0
2015_10_28_S1 10/28/2015 18:35:00 0.0
2015_10_28_S1 10/28/2015 18:40:00 0.0
2015_10_28_S1 10/28/2015 18:45:00 0.0
2015_10_28_S1 10/28/2015 18:50:00 0.0
2015_10_28_S1 10/28/2015 18:55:00 0.0
2015_10_28_S1 10/28/2015 19:00:00 0.0
2015_10_28_S1 10/28/2015 19:05:00 0.0
2015_10_28_S1 10/28/2015 19:10:00 0.0
2015_10_28_S1 10/28/2015 19:15:00 0.0
2015_10_28_S1 10/28/2015 19:20:00 0.0
2015_10_28_S1 10/28/2015 19:25:00 0.0
2015_10_28_S1 10/28/2015 19:30:00 0.0
2015_10_28_S1 10/28/2015 19:35:00 0.0
2015_10_28_S1 10/28/2015 19:40:00 0.0
2015_10_28_S1 10/28/2015 19:45:00 0.0
2015_10_28_S1 10/28/2015 19:50:00 0.0
2015_10_28_S1 10/28/2015 19:55:00 0.0
2015_10_28_S1 10/28/2015 20:00:00 0.0
2015_10_28_S1 10/28/2015 20:05:00 0.0
2015_10_28_S1 10/28/2015 20:10:00 0.0
2015_10_28_S1 10/28/2015 20:15:00 0.0
2015_10_28_S1 10/28/2015 20:20:00 0.0
2015_10_28_S1 10/28/2015 20:25:00 0.0
2015_10_28_S1 10/28/2015 20:30:00 0.0
2015_10_28_S1 10/28/2015 20:35:00 0.0
2015_10_28_S1 10/28/2015 20:40:00 0.0
2015_10_28_S1 10/28/2015 20:45:00 0.0
2015_10_28_S1 10/28/2015 20:50:00 0.0
2015_10_28_S1 10/28/2015 20:55:00 0.0
2015_10_28_S1 10/28/2015 21:00:00 0.0
2015_10_28_S1 10/28/2015 21:05:00 0.0
2015_10_28_S1 10/28/2015 21:10:00 0.0
2015_10_28_S1 10/28/2015 21:15:00 0.0
2015_10_28_S1 10/28/2015 21:20:00 0.0
2015_10_28_S1 10/28/2015 21:25:00 0.0
2015_10_28_S1 10/28/2015 21:30:00 0.0
2015_10_28_S1 10/28/2015 21:35:00 0.0
2015_10_28_S1 10/28/2015 21:40:00 0.0
2015_10_28_S1 10/28/2015 21:45:00 0.0
2015_10_28_S1 10/28/2015 21:50:00 0.0
2015_10_28_S1 10/28/2015 21:55:00 0.0
2015_10_28_S1 10/28/2015 22:00:00 0.0
2015_10_28_S1 10/28/2015 22:05:00 0.0
2015_10_28_S1 10/28/2015 22:10:00 0.0
2015_10_28_S1 10/28/2015 22:15:00 0.0
2015_10_28_S1 10/28/2015 22:20:00 0.0
2015_10_28_S1 10/28/2015 22:25:00 0.0
2015_10_28_S1 10/28/2015 22:30:00 0.0
2015_10_28_S1 10/28/2015 22:35:00 0.0
2015_10_28_S1 10/28/2015 22:40:00 0.0
2015_10_28_S1 10/28/2015 22:45:00 0.0
2015_10_28_S1 10/28/2015 22:50:00 0.0399
2015_10_28_S1 10/28/2015 22:55:00 0.8674
2015_10_28_S1 10/28/2015 23:00:00 3.1214
2015_10_28_S1 10/28/2015 23:05:00 0.3481
2015_10_28_S1 10/28/2015 23:10:00 0.0
2015_10_28_S1 10/28/2015 23:15:00 0.0
2015_10_28_S1 10/28/2015 23:20:00 0.0
2015_10_28_S1 10/28/2015 23:25:00 0.0009
2015_10_28_S1 10/28/2015 23:30:00 0.0153
2015_10_28_S1 10/28/2015 23:35:00 0.0476
2015_10_28_S1 10/28/2015 23:40:00 0.0415
2015_10_28_S1 10/28/2015 23:45:00 0.0258
2015_10_28_S1 10/28/2015 23:50:00 0.028
2015_10_28_S1 10/28/2015 23:55:00 0.0627
2015_10_28_S1 10/29/2015 00:00:00 0.077
2015_10_28_S1 10/29/2015 00:05:00 0.0206
2015_10_28_S1 10/29/2015 00:10:00 0.0
2015_10_28_S1 10/29/2015 00:15:00 0.0
2015_10_28_S1 10/29/2015 00:20:00 0.0
2015_10_28_S1 10/29/2015 00:25:00 0.0067
2015_10_28_S1 10/29/2015 00:30:00 0.0222
2015_10_28_S1 10/29/2015 00:35:00 0.0082
2015_10_28_S1 10/29/2015 00:40:00 0.0207
2015_10_28_S1 10/29/2015 00:45:00 0.1208
2015_10_28_S1 10/29/2015 00:50:00 0.1396
2015_10_28_S1 10/29/2015 00:55:00 0.2031
2015_10_28_S1 10/29/2015 01:00:00 0.1019
2015_10_28_S1 10/29/2015 01:05:00 0.1187
2015_10_28_S1 10/29/2015 01:10:00 0.1685
2015_10_28_S1 10/29/2015 01:15:00 0.0849
2015_10_28_S1 10/29/2015 01:20:00 0.1347
2015_10_28_S1 10/29/2015 01:25:00 0.1888
2015_10_28_S1 10/29/2015 01:30:00 0.102
2015_10_28_S1 10/29/2015 01:35:00 0.1819
2015_10_28_S1 10/29/2015 01:40:00 0.2782
2015_10_28_S1 10/29/2015 01:45:00 0.2572
2015_10_28_S1 10/29/2015 01:50:00 0.0938
2015_10_28_S1 10/29/2015 01:55:00 0.0024
2015_10_28_S1 10/29/2015 02:00:00 0.0
2015_10_28_S1 10/29/2015 02:05:00 0.0
2015_10_28_S1 10/29/2015 02:10:00 0.0
2015_10_28_S1 10/29/2015 02:15:00 0.0
2015_10_28_S1 10/29/2015 02:20:00 0.0
2015_10_28_S1 10/29/2015 02:25:00 0.0
2015_10_28_S1 10/29/2015 02:30:00 0.0
2015_10_28_S1 10/29/2015 02:35:00 0.0
2015_10_28_S1 10/29/2015 02:40:00 0.0
2015_10_28_S1 10/29/2015 02:45:00 0.0
2015_10_28_S1 10/29/2015 02:50:00 0.0
2015_10_28_S1 10/29/2015 02:55:00 0.0
2015_10_28_S1 10/29/2015 03:00:00 0.0
2015_10_28_S1 10/29/2015 03:05:00 0.0
2015_10_28_S1 10/29/2015 03:10:00 0.0
2015_10_28_S1 10/29/2015 03:15:00 0.0
2015_10_28_S1 10/29/2015 03:20:00 0.0
2015_10_28_S1 10/29/2015 03:25:00 0.0
2015_10_28_S1 10/29/2015 03:30:00 0.0
2015_10_28_S1 10/29/2015 03:35:00 0.0
2015_10_28_S1 10/29/2015 03:40:00 0.0
2015_10_28_S1 10/29/2015 03:45:00 0.0
2015_10_28_S1 10/29/2015 03:50:00 0.0
2015_10_28_S1 10/29/2015 03:55:00 0.0
2015_10_28_S1 10/29/2015 04:00:00 0.0
2015_10_28_S1 10/29/2015 04:05:00 0.0
2015_10_28_S1 10/29/2015 04:10:00 0.0
2015_10_28_S1 10/29/2015 04:15:00 0.0
2015_10_28_S1 10/29/2015 04:20:00 0.0
2015_10_28_S1 10/29/2015 04:25:00 0.0
2015_10_28_S1 10/29/2015 04:30:00 0.0
2015_10_28_S1 10/29/2015 04:35:00 0.0
2015_10_28_S1 10/29/2015 04:40:00 0.0
2015_10_28_S1 10/29/2015 04:45:00 0.0
2015_10_28_S1 10/29/2015 04:50:00 0.0
2015_10_28_S1 10/29/2015 04:55:00 0.0
2015_10_28_S1 10/29/2015 05:00:00 0.0
2015_10_28_S1 10/29/2015 05:05:00 0.0
2015_10_28_S1 10/29/2015 05:10:00 0.0
2015_10_28_S1 10/29/2015 05:15:00 0.0
2015_10_28_S1 10/29/2015 05:20:00 0.0
2015_10_28_S1 10/29/2015 05:25:00 0.0
2015_10_28_S1 10/29/2015 05:30:00 0.0
2015_10_28_S1 10/29/2015 05:35:00 0.0
2015_10_28_S1 10/29/2015 05:40:00 0.0
2015_10_28_S1 10/29/2015 05:45:00 0.0
2015_10_28_S1 10/29/2015 05:50:00 0.0
2015_10_28_S1 10/29/2015 05:55:00 0.0008
2015_10_28_S1 10/29/2015 06:00:00 0.0211
2015_10_28_S1 10/29/2015 06:05:00 0.0
2015_10_28_S1 10/29/2015 06:10:00 0.0033
2015_10_28_S1 10/29/2015 06:15:00 0.0
2015_10_28_S1 10/29/2015 06:20:00 0.0
2015_10_28_S1 10/29/2015 06:25:00 0.0
2015_10_28_S1 10/29/2015 06:30:00 0.0
2015_10_28_S1 10/29/2015 06:35:00 0.0
2015_10_28_S1 10/29/2015 06:40:00 0.0
2015_10_28_S1 10/29/2015 06:45:00 0.0
2015_10_28_S1 10/29/2015 06:50:00 0.0
2015_10_28_S1 10/29/2015 06:55:00 0.0
2015_10_28_S1 10/29/2015 07:00:00 0.0
2015_10_28_S1 10/29/2015 07:05:00 0.0
2015_10_28_S1 10/29/2015 07:10:00 0.0
2015_10_28_S1 10/29/2015 07:15:00 0.0
2015_10_28_S1 10/29/2015 07:20:00 0.0
2015_10_28_S1 10/29/2015 07:25:00 0.0
2015_10_28_S1 10/29/2015 07:30:00 0.0
2015_10_28_S1 10/29/2015 07:35:00 0.0
2015_10_28_S1 10/29/2015 07:40:00 0.0
2015_10_28_S1 10/29/2015 07:45:00 0.0
2015_10_28_S1 10/29/2015 07:50:00 0.0
2015_10_28_S1 10/29/2015 07:55:00 0.0
2015_10_28_S1 10/29/2015 08:00:00 0.0

2015_10_28_S2 10/28/2015 10:25:00 0.009
2015_10_28_S2 10/28/2015 10:30:00 0.0
2015_10_28_S2 10/28/2015 10:35:00 0.0
2015_10_28_S2 10/28/2015 10:40:00 0.0
2015_10_28_S2 10/28/2015 10:45:00 0.0092
2015_10_28_S2 10/28/2015 10:50:00 0.6555
2015_10_28_S2 10/28/2015 10:55:00 0.1752
2015_10_28_S2 10/28/2015 11:00:00 0.3143
2015_10_28_S2 10/28/2015 11:05:00 1.6462
2015_10_28_S2 10/28/2015 11:10:00 1.2799
2015_10_28_S2 10/28/2015 11:15:00 0.8557
2015_10_28_S2 10/28/2015 11:20:00 2.8097
2015_10_28_S2 10/28/2015 11:25:00 3.5157
2015_10_28_S2 10/28/2015 11:30:00 4.2217
2015_10_28_S2 10/28/2015 11:35:00 0.8943
2015_10_28_S2 10/28/2015 11:40:00 1.7206
2015_10_28_S2 10/28/2015 11:45:00 5.1577
2015_10_28_S2 10/28/2015 11:50:00 2.9715
2015_10_28_S2 10/28/2015 11:55:00 0.4018
2015_10_28_S2 10/28/2015 12:00:00 3.0267
2015_10_28_S2 10/28/2015 12:05:00 7.8355
2015_10_28_S2 10/28/2015 12:10:00 4.9706
2015_10_28_S2 10/28/2015 12:15:00 5.3609
2015_10_28_S2 10/28/2015 12:20:00 2.1369
2015_10_28_S2 10/28/2015 12:25:00 0.0408
2015_10_28_S2 10/28/2015 12:30:00 0.0021
2015_10_28_S2 10/28/2015 12:35:00 0.0028
2015_10_28_S2 10/28/2015 12:40:00 0.3611
2015_10_28_S2 10/28/2015 12:45:00 0.2133
2015_10_28_S2 10/28/2015 12:50:00 0.0082
2015_10_28_S2 10/28/2015 12:55:00 0.0036
2015_10_28_S2 10/28/2015 13:00:00 0.0
2015_10_28_S2 10/28/2015 13:05:00 0.0
2015_10_28_S2 10/28/2015 13:10:00 0.0
2015_10_28_S2 10/28/2015 13:15:00 0.0
2015_10_28_S2 10/28/2015 13:20:00 0.0
2015_10_28_S2 10/28/2015 13:25:00 0.0
2015_10_28_S2 10/28/2015 13:30:00 0.0
2015_10_28_S2 10/28/2015 13:35:00 0.0
2015_10_28_S2 10/28/2015 13:40:00 0.0
2015_10_28_S2 10/28/2015 13:45:00 0.0
2015_10_28_S2 10/28/2015 13:50:00 0.0
2015_10_28_S2 10/28/2015 13:55:00 0.0
2015_10_28_S2 10/28/2015 14:00:00 0.0
2015_10_28_S2 10/28/2015 14:05:00 0.0
2015_10_28_S2 10/28/2015 14:10:00 0.0131
2015_10_28_S2 10/28/2015 14:15:00 0.0
2015_10_28_S2 10/28/2015 14:20:00 0.0
2015_10_28_S2 10/28/2015 14:25:00 0.083
2015_10_28_S2 10/28/2015 14:30:00 0.1051
2015_10_28_S2 10/28/2015 14:35:00 0.0388
2015_10_28_S2 10/28/2015 14:40:00 0.0124
2015_10_28_S2 10/28/2015 14:45:00 0.0045
2015_10_28_S2 10/28/2015 14:50:00 0.0034
2015_10_28_S2 10/28/2015 14:55:00 0.0093
2015_10_28_S2 10/28/2015 15:00:00 0.0
2015_10_28_S2 10/28/2015 15:05:00 0.0
2015_10_28_S2 10/28/2015 15:10:00 0.0
2015_10_28_S2 10/28/2015 15:15:00 0.0
2015_10_28_S2 10/28/2015 15:20:00 0.0
2015_10_28_S2 10/28/2015 15:25:00 0.0
2015_10_28_S2 10/28/2015 15:30:00 0.0
2015_10_28_S2 10/28/2015 15:35:00 0.0
2015_10_28_S2 10/28/2015 15:40:00 0.0
2015_10_28_S2 10/28/2015 15:45:00 0.0
2015_10_28_S2 10/28/2015 15:50:00 0.0
2015_10_28_S2 10/28/2015 15:55:00 0.0
2015_10_28_S2 10/28/2015 16:00:00 0.0
2015_10_28_S2 10/28/2015 16:05:00 0.0
2015_10_28_S2 10/28/2015 16:10:00 0.0
2015_10_28_S2 10/28/2015 16:15:00 0.0
2015_10_28_S2 10/28/2015 16:20:00 0.0009
2015_10_28_S2 10/28/2015 16:25:00 0.0
2015_10_28_S2 10/28/2015 16:30:00 0.0
2015_10_28_S2 10/28/2015 16:35:00 0.0
2015_10_28_S2 10/28/2015 16:40:00 0.0281
2015_10_28_S2 10/28/2015 16:45:00 0.0
2015_10_28_S2 10/28/2015 16:50:00 0.0
2015_10_28_S2 10/28/2015 16:55:00 0.0
2015_10_28_S2 10/28/2015 17:00:00 0.0196
2015_10_28_S2 10/28/2015 17:05:00 0.0
2015_10_28_S2 10/28/2015 17:10:00 0.0
2015_10_28_S2 10/28/2015 17:15:00 0.0
2015_10_28_S2 10/28/2015 17:20:00 0.0
2015_10_28_S2 10/28/2015 17:25:00 0.0
2015_10_28_S2 10/28/2015 17:30:00 0.0
2015_10_28_S2 10/28/2015 17:35:00 0.0
2015_10_28_S2 10/28/2015 17:40:00 0.0
2015_10_28_S2 10/28/2015 17:45:00 0.0
2015_10_28_S2 10/28/2015 17:50:00 0.0
2015_10_28_S2 10/28/2015 17:55:00 0.0
2015_10_28_S2 10/28/2015 18:00:00 0.0
2015_10_28_S2 10/28/2015 18:05:00 0.0
2015_10_28_S2 10/28/2015 18:10:00 0.0
2015_10_28_S2 10/28/2015 18:15:00 0.0
2015_10_28_S2 10/28/2015 18:20:00 0.0
2015_10_28_S2 10/28/2015 18:25:00 0.0
2015_10_28_S2 10/28/2015 18:30:00 0.0
2015_10_28_S2 10/28/2015 18:35:00 0.0
2015_10_28_S2 10/28/2015 18:40:00 0.0
2015_10_28_S2 10/28/2015 18:45:00 0.0
2015_10_28_S2 10/28/2015 18:50:00 0.0
2015_10_28_S2 10/28/2015 18:55:00 0.0
2015_10_28_S2 10/28/2015 19:00:00 0.0
2015_10_28_S2 10/28/2015 19:05:00 0.0
2015_10_28_S2 10/28/2015 19:10:00 0.0
2015_10_28_S2 10/28/2015 19:15:00 0.0
2015_10_28_S2 10/28/2015 19:20:00 0.0
2015_10_28_S2 10/28/2015 19:25:00 0.0
2015_10_28_S2 10/28/2015 19:30:00 0.0
2015_10_28_S2 10/28/2015 19:35:00 0.0
2015_10_28_S2 10/28/2015 19:40:00 0.0
2015_10_28_S2 10/28/2015 19:45:00 0.0
2015_10_28_S2 10/28/2015 19:50:00 0.0
2015_10_28_S2 10/28/2015 19:55:00 0.0
2015_10_28_S2 10/28/2015 20:00:00 0.0
2015_10_28_S2 10/28/2015 20:05:00 0.0
2015_10_28_S2 10/28/2015 20:10:00 0.0
2015_10_28_S2 10/28/2015 20:15:00 0.0
2015_10_28_S2 10/28/2015 20:20:00 0.0
2015_10_28_S2 10/28/2015 20:25:00 0.0
2015_10_28_S2 10/28/2015 20:30:00 0.0
2015_10_28_S2 10/28/2015 20:35:00 0.0
2015_10_28_S2 10/28/2015 20:40:00 0.0
2015_10_28_S2 10/28/2015 20:45:00 0.0
2015_10_28_S2 10/28/2015 20:50:00 0.0
2015_10_28_S2 10/28/2015 20:55:00 0.0
2015_10_28_S2 10/28/2015 21:00:00 0.0
2015_10_28_S2 10/28/2015 21:05:00 0.0
2015_10_28_S2 10/28/2015 21:10:00 0.0
2015_10_28_S2 10/28/2015 21:15:00 0.0
2015_10_28_S2 10/28/2015 21:20:00 0.0
2015_10_28_S2 10/28/2015 21:25:00 0.0
2015_10_28_S2 10/28/2015 21:30:00 0.0
2015_10_28_S2 10/28/2015 21:35:00 0.0
2015_10_28_S2 10/28/2015 21:40:00 0.0
2015_10_28_S2 10/28/2015 21:45:00 0.0
2015_10_28_S2 10/28/2015 21:50:00 0.0
2015_10_28_S2 10/28/2015 21:55:00 0.0
2015_10_28_S2 10/28/2015 22:00:00 0.0
2015_10_28_S2 10/28/2015 22:05:00 0.0
2015_10_28_S2 10/28/2015 22:10:00 0.0
2015_10_28_S2 10/28/2015 22:15:00 0.0
2015_10_28_S2 10/28/2015 22:20:00 0.0
2015_10_28_S2 10/28/2015 22:25:00 0.0
2015_10_28_S2 10/28/2015 22:30:00 0.0
2015_10_28_S2 10/28/2015 22:35:00 0.0
2015_10_28_S2 10/28/2015 22:40:00 0.0
2015_10_28_S2 10/28/2015 22:45:00 0.0
2015_10_28_S2 10/28/2015 22:50:00 0.1238
2015_10_28_S2 10/28/2015 22:55:00 1.7958
2015_10_28_S2 10/28/2015 23:00:00 4.6799
2015_10_28_S2 10/28/2015 23:05:00 0.3487
2015_10_28_S2 10/28/2015 23:10:00 0.0
2015_10_28_S2 10/28/2015 23:15:00 0.0
2015_10_28_S2 10/28/2015 23:20:00 0.0
2015_10_28_S2 10/28/2015 23:25:00 0.0001
2015_10_28_S2 10/28/2015 23:30:00 0.0176
2015_10_28_S2 10/28/2015 23:35:00 0.0499
2015_10_28_S2 10/28/2015 23:40:00 0.041
2015_10_28_S2 10/28/2015 23:45:00 0.0233
2015_10_28_S2 10/28/2015 23:50:00 0.0354
2015_10_28_S2 10/28/2015 23:55:00 0.0863
2015_10_28_S2 10/29/2015 00:00:00 0.0809
2015_10_28_S2 10/29/2015 00:05:00 0.0174
2015_10_28_S2 10/29/2015 00:10:00 0.0
2015_10_28_S2 10/29/2015 00:15:00 0.0
2015_10_28_S2 10/29/2015 00:20:00 0.0
2015_10_28_S2 10/29/2015 00:25:00 0.0042
2015_10_28_S2 10/29/2015 00:30:00 0.0236
2015_10_28_S2 10/29/2015 00:35:00 0.002
2015_10_28_S2 10/29/2015 00:40:00 0.0361
2015_10_28_S2 10/29/2015 00:45:00 0.1795
2015_10_28_S2 10/29/2015 00:50:00 0.1873
2015_10_28_S2 10/29/2015 00:55:00 0.2905
2015_10_28_S2 10/29/2015 01:00:00 0.0844
2015_10_28_S2 10/29/2015 01:05:00 0.1304
2015_10_28_S2 10/29/2015 01:10:00 0.1589
2015_10_28_S2 10/29/2015 01:15:00 0.0783
2015_10_28_S2 10/29/2015 01:20:00 0.1271
2015_10_28_S2 10/29/2015 01:25:00 0.1348
2015_10_28_S2 10/29/2015 01:30:00 0.1126
2015_10_28_S2 10/29/2015 01:35:00 0.1699
2015_10_28_S2 10/29/2015 01:40:00 0.2716
2015_10_28_S2 10/29/2015 01:45:00 0.2313
2015_10_28_S2 10/29/2015 01:50:00 0.0801
2015_10_28_S2 10/29/2015 01:55:00 0.0
2015_10_28_S2 10/29/2015 02:00:00 0.0
2015_10_28_S2 10/29/2015 02:05:00 0.0
2015_10_28_S2 10/29/2015 02:10:00 0.0
2015_10_28_S2 10/29/2015 02:15:00 0.0
2015_10_28_S2 10/29/2015 02:20:00 0.0
2015_10_28_S2 10/29/2015 02:25:00 0.0
2015_10_28_S2 10/29/2015 02:30:00 0.0
2015_10_28_S2 10/29/2015 02:35:00 0.0
2015_10_28_S2 10/29/2015 02:40:00 0.0
2015_10_28_S2 10/29/2015 02:45:00 0.0
2015_10_28_S2 10/29/2015 02:50:00 0.0
2015_10_28_S2 10/29/2015 02:55:00 0.0
2015_10_28_S2 10/29/2015 03:00:00 0.0
2015_10_28_S2 10/29/2015 03:05:00 0.0
2015_10_28_S2 10/29/2015 03:10:00 0.0
2015_10_28_S2 10/29/2015 03:15:00 0.0
2015_10_28_S2 10/29/2015 03:20:00 0.0
2015_10_28_S2 10/29/2015 03:25:00 0.0
2015_10_28_S2 10/29/2015 03:30:00 0.0
2015_10_28_S2 10/29/2015 03:35:00 0.0
2015_10_28_S2 10/29/2015 03:40:00 0.0
2015_10_28_S2 10/29/2015 03:45:00 0.0
2015_10_28_S2 10/29/2015 03:50:00 0.0
2015_10_28_S2 10/29/2015 03:55:00 0.0
2015_10_28_S2 10/29/2015 04:00:00 0.0
2015_10_28_S2 10/29/2015 04:05:00 0.0
2015_10_28_S2 10/29/2015 04:10:00 0.0
2015_10_28_S2 10/29/2015 04:15:00 0.0
2015_10_28_S2 10/29/2015 04:20:00 0.0
2015_10_28_S2 10/29/2015 04:25:00 0.0
2015_10_28_S2 10/29/2015 04:30:00 0.0
2015_10_28_S2 10/29/2015 04:35:00 0.0
2015_10_28_S2 10/29/2015 04:40:00 0.0
2015_10_28_S2 10/29/2015 04:45:00 0.0
2015_10_28_S2 10/29/2015 04:50:00 0.0
2015_10_28_S2 10/29/2015 04:55:00 0.0
2015_10_28_S2 10/29/2015 05:00:00 0.0
2015_10_28_S2 10/29/2015 05:05:00 0.0
2015_10_28_S2 10/29/2015 05:10:00 0.0
2015_10_28_S2 10/29/2015 05:15:00 0.0
2015_10_28_S2 10/29/2015 05:20:00 0.0
2015_10_28_S2 10/29/2015 05:25:00 0.0
2015_10_28_S2 10/29/2015 05:30:00 0.0
2015_10_28_S2 10/29/2015 05:35:00 0.0
2015_10_28_S2 10/29/2015 05:40:00 0.0
2015_10_28_S2 10/29/2015 05:45:00 0.0
2015_10_28_S2 10/29/2015 05:50:00 0.0
2015_10_28_S2 10/29/2015 05:55:00 0.0044
2015_10_28_S2 10/29/2015 06:00:00 0.0256
2015_10_28_S2 10/29/2015 06:05:00 0.0
2015_10_28_S2 10/29/2015 06:10:00 0.0049
2015_10_28_S2 10/29/2015 06:15:00 0.0
2015_10_28_S2 10/29/2015 06:20:00 0.0
2015_10_28_S2 10/29/2015 06:25:00 0.0
2015_10_28_S2 10/29/2015 06:30:00 0.0
2015_10_28_S2 10/29/2015 06:35:00 0.0
2015_10_28_S2 10/29/2015 06:40:00 0.0
2015_10_28_S2 10/29/2015 06:45:00 0.0
2015_10_28_S2 10/29/2015 06:50:00 0.0
2015_10_28_S2 10/29/2015 06:55:00 0.0
2015_10_28_S2 10/29/2015 07:00:00 0.0
2015_10_28_S2 10/29/2015 07:05:00 0.0
2015_10_28_S2 10/29/2015 07:10:00 0.0
2015_10_28_S2 10/29/2015 07:15:00 0.0
2015_10_28_S2 10/29/2015 07:20:00 0.0
2015_10_28_S2 10/29/2015 07:25:00 0.0
2015_10_28_S2 10/29/2015 07:30:00 0.0
2015_10_28_S2 10/29/2015 07:35:00 0.0
2015_10_28_S2 10/29/2015 07:40:00 0.0
2015_10_28_S2 10/29/2015 07:45:00 0.0
2015_10_28_S2 10/29/2015 07:50:00 0.0
2015_10_28_S2 10/29/2015 07:55:00 0.0
2015_10_28_S2 10/29/2015 08:00:00 0.0

2015_10_28_S3 10/28/2015 10:25:00 0.0125
2015_10_28_S3 10/28/2015 10:30:00 0.0
2015_10_28_S3 10/28/2015 10:35:00 0.0
2015_10_28_S3 10/28/2015 10:40:00 0.0017
2015_10_28_S3 10/28/2015 10:45:00 0.0191
2015_10_28_S3 10/28/2015 10:50:00 0.6076
2015_10_28_S3 10/28/2015 10:55:00 0.1516
2015_10_28_S3 10/28/2015 11:00:00 0.5243
2015_10_28_S3 10/28/2015 11:05:00 1.693
2015_10_28_S3 10/28/2015 11:10:00 1.707
2015_10_28_S3 10/28/2015 11:15:00 0.7778
2015_10_28_S3 10/28/2015 11:20:00 3.1508
2015_10_28_S3 10/28/2015 11:25:00 3.8405
2015_10_28_S3 10/28/2015 11:30:00 4.5302
2015_10_28_S3 10/28/2015 11:35:00 0.7315
2015_10_28_S3 10/28/2015 11:40:00 1.1342
2015_10_28_S3 10/28/2015 11:45:00 5.2839
2015_10_28_S3 10/28/2015 11:50:00 2.1849
2015_10_28_S3 10/28/2015 11:55:00 1.2294
2015_10_28_S3 10/28/2015 12:00:00 3.3477
2015_10_28_S3 10/28/2015 12:05:00 9.5715
2015_10_28_S3 10/28/2015 12:10:00 7.0704
2015_10_28_S3 10/28/2015 12:15:00 4.9697
2015_10_28_S3 10/28/2015 12:20:00 1.2946
2015_10_28_S3 10/28/2015 12:25:00 0.02
2015_10_28_S3 10/28/2015 12:30:00 0.0002
2015_10_28_S3 10/28/2015 12:35:00 0.0094
2015_10_28_S3 10/28/2015 12:40:00 0.7229
2015_10_28_S3 10/28/2015 12:45:00 0.3422
2015_10_28_S3 10/28/2015 12:50:00 0.0106
2015_10_28_S3 10/28/2015 12:55:00 0.01
2015_10_28_S3 10/28/2015 13:00:00 0.0002
2015_10_28_S3 10/28/2015 13:05:00 0.0
2015_10_28_S3 10/28/2015 13:10:00 0.0
2015_10_28_S3 10/28/2015 13:15:00 0.0
2015_10_28_S3 10/28/2015 13:20:00 0.0
2015_10_28_S3 10/28/2015 13:25:00 0.0
2015_10_28_S3 10/28/2015 13:30:00 0.0
2015_10_28_S3 10/28/2015 13:35:00 0.0
2015_10_28_S3 10/28/2015 13:40:00 0.0
2015_10_28_S3 10/28/2015 13:45:00 0.0
2015_10_28_S3 10/28/2015 13:50:00 0.0
2015_10_28_S3 10/28/2015 13:55:00 0.0
2015_10_28_S3 10/28/2015 14:00:00 0.0
2015_10_28_S3 10/28/2015 14:05:00 0.0
2015_10_28_S3 10/28/2015 14:10:00 0.0
2015_10_28_S3 10/28/2015 14:15:00 0.0
2015_10_28_S3 10/28/2015 14:20:00 0.0
2015_10_28_S3 10/28/2015 14:25:00 0.1309
2015_10_28_S3 10/28/2015 14:30:00 0.0426
2015_10_28_S3 10/28/2015 14:35:00 0.017
2015_10_28_S3 10/28/2015 14:40:00 0.006
2015_10_28_S3 10/28/2015 14:45:00 0.0017
2015_10_28_S3 10/28/2015 14:50:00 0.0035
2015_10_28_S3 10/28/2015 14:55:00 0.0044
2015_10_28_S3 10/28/2015 15:00:00 0.0
2015_10_28_S3 10/28/2015 15:05:00 0.0
2015_10_28_S3 10/28/2015 15:10:00 0.0
2015_10_28_S3 10/28/2015 15:15:00 0.0
2015_10_28_S3 10/28/2015 15:20:00 0.0
2015_10_28_S3 10/28/2015 15:25:00 0.0
2015_10_28_S3 10/28/2015 15:30:00 0.0
2015_10_28_S3 10/28/2015 15:35:00 0.0
2015_10_28_S3 10/28/2015 15:40:00 0.0
2015_10_28_S3 10/28/2015 15:45:00 0.0
2015_10_28_S3 10/28/2015 15:50:00 0.0
2015_10_28_S3 10/28/2015 15:55:00 0.0
2015_10_28_S3 10/28/2015 16:00:00 0.0
2015_10_28_S3 10/28/2015 16:05:00 0.0
2015_10_28_S3 10/28/2015 16:10:00 0.0
2015_10_28_S3 10/28/2015 16:15:00 0.0002
2015_10_28_S3 10/28/2015 16:20:00 0.0028
2015_10_28_S3 10/28/2015 16:25:00 0.0
2015_10_28_S3 10/28/2015 16:30:00 0.0
2015_10_28_S3 10/28/2015 16:35:00 0.0
2015_10_28_S3 10/28/2015 16:40:00 0.0293
2015_10_28_S3 10/28/2015 16:45:00 0.0
2015_10_28_S3 10/28/2015 16:50:00 0.0
2015_10_28_S3 10/28/2015 16:55:00 0.0
2015_10_28_S3 10/28/2015 17:00:00 0.0235
2015_10_28_S3 10/28/2015 17:05:00 0.0
2015_10_28_S3 10/28/2015 17:10:00 0.0
2015_10_28_S3 10/28/2015 17:15:00 0.0
2015_10_28_S3 10/28/2015 17:20:00 0.0
2015_10_28_S3 10/28/2015 17:25:00 0.0
2015_10_28_S3 10/28/2015 17:30:00 0.0
2015_10_28_S3 10/28/2015 17:35:00 0.0
2015_10_28_S3 10/28/2015 17:40:00 0.0
2015_10_28_S3 10/28/2015 17:45:00 0.0
2015_10_28_S3 10/28/2015 17:50:00 0.0
2015_10_28_S3 10/28/2015 17:55:00 0.0
2015_10_28_S3 10/28/2015 18:00:00 0.0
2015_10_28_S3 10/28/2015 18:05:00 0.0
2015_10_28_S3 10/28/2015 18:10:00 0.0
2015_10_28_S3 10/28/2015 18:15:00 0.0
2015_10_28_S3 10/28/2015 18:20:00 0.0
2015_10_28_S3 10/28/2015 18:25:00 0.0
2015_10_28_S3 10/28/2015 18:30:00 0.0
2015_10_28_S3 10/28/2015 18:35:00 0.0
2015_10_28_S3 10/28/2015 18:40:00 0.0
2015_10_28_S3 10/28/2015 18:45:00 0.0
2015_10_28_S3 10/28/2015 18:50:00 0.0
2015_10_28_S3 10/28/2015 18:55:00 0.0
2015_10_28_S3 10/28/2015 19:00:00 0.0
2015_10_28_S3 10/28/2015 19:05:00 0.0
2015_10_28_S3 10/28/2015 19:10:00 0.0
2015_10_28_S3 10/28/2015 19:15:00 0.0
2015_10_28_S3 10/28/2015 19:20:00 0.0
2015_10_28_S3 10/28/2015 19:25:00 0.0
2015_10_28_S3 10/28/2015 19:30:00 0.0
2015_10_28_S3 10/28/2015 19:35:00 0.0
2015_10_28_S3 10/28/2015 19:40:00 0.0
2015_10_28_S3 10/28/2015 19:45:00 0.0
2015_10_28_S3 10/28/2015 19:50:00 0.0
2015_10_28_S3 10/28/2015 19:55:00 0.0
2015_10_28_S3 10/28/2015 20:00:00 0.0
2015_10_28_S3 10/28/2015 20:05:00 0.0
2015_10_28_S3 10/28/2015 20:10:00 0.0
2015_10_28_S3 10/28/2015 20:15:00 0.0
2015_10_28_S3 10/28/2015 20:20:00 0.0
2015_10_28_S3 10/28/2015 20:25:00 0.0
2015_10_28_S3 10/28/2015 20:30:00 0.0
2015_10_28_S3 10/28/2015 20:35:00 0.0
2015_10_28_S3 10/28/2015 20:40:00 0.0
2015_10_28_S3 10/28/2015 20:45:00 0.0
2015_10_28_S3 10/28/2015 20:50:00 0.0
2015_10_28_S3 10/28/2015 20:55:00 0.0
2015_10_28_S3 10/28/2015 21:00:00 0.0
2015_10_28_S3 10/28/2015 21:05:00 0.0
2015_10_28_S3 10/28/2015 21:10:00 0.0
2015_10_28_S3 10/28/2015 21:15:00 0.0
2015_10_28_S3 10/28/2015 21:20:00 0.0
2015_10_28_S3 10/28/2015 21:25:00 0.0
2015_10_28_S3 10/28/2015 21:30:00 0.0
2015_10_28_S3 10/28/2015 21:35:00 0.0
2015_10_28_S3 10/28/2015 21:40:00 0.0
2015_10_28_S3 10/28/2015 21:45:00 0.0
2015_10_28_S3 10/28/2015 21:50:00 0.0
2015_10_28_S3 10/28/2015 21:55:00 0.0
2015_10_28_S3 10/28/2015 22:00:00 0.0
2015_10_28_S3 10/28/2015 22:05:00 0.0
2015_10_28_S3 10/28/2015 22:10:00 0.0
2015_10_28_S3 10/28/2015 22:15:00 0.0
2015_10_28_S3 10/28/2015 22:20:00 0.0
2015_10_28_S3 10/28/2015 22:25:00 0.0
2015_10_28_S3 10/28/2015 22:30:00 0.0
2015_10_28_S3 10/28/2015 22:35:00 0.0
2015_10_28_S3 10/28/2015 22:40:00 0.0
2015_10_28_S3 10/28/2015 22:45:00 0.0
2015_10_28_S3 10/28/2015 22:50:00 0.3591
2015_10_28_S3 10/28/2015 22:55:00 2.9432
2015_10_28_S3 10/28/2015 23:00:00 5.2342
2015_10_28_S3 10/28/2015 23:05:00 0.2243
2015_10_28_S3 10/28/2015 23:10:00 0.0
2015_10_28_S3 10/28/2015 23:15:00 0.0
2015_10_28_S3 10/28/2015 23:20:00 0.0
2015_10_28_S3 10/28/2015 23:25:00 0.0005
2015_10_28_S3 10/28/2015 23:30:00 0.0188
2015_10_28_S3 10/28/2015 23:35:00 0.0487
2015_10_28_S3 10/28/2015 23:40:00 0.0343
2015_10_28_S3 10/28/2015 23:45:00 0.023
2015_10_28_S3 10/28/2015 23:50:00 0.0397
2015_10_28_S3 10/28/2015 23:55:00 0.1193
2015_10_28_S3 10/29/2015 00:00:00 0.0751
2015_10_28_S3 10/29/2015 00:05:00 0.0148
2015_10_28_S3 10/29/2015 00:10:00 0.0
2015_10_28_S3 10/29/2015 00:15:00 0.0
2015_10_28_S3 10/29/2015 00:20:00 0.0
2015_10_28_S3 10/29/2015 00:25:00 0.0039
2015_10_28_S3 10/29/2015 00:30:00 0.0213
2015_10_28_S3 10/29/2015 00:35:00 0.001
2015_10_28_S3 10/29/2015 00:40:00 0.0589
2015_10_28_S3 10/29/2015 00:45:00 0.2345
2015_10_28_S3 10/29/2015 00:50:00 0.1961
2015_10_28_S3 10/29/2015 00:55:00 0.3132
2015_10_28_S3 10/29/2015 01:00:00 0.0774
2015_10_28_S3 10/29/2015 01:05:00 0.1357
2015_10_28_S3 10/29/2015 01:10:00 0.1367
2015_10_28_S3 10/29/2015 01:15:00 0.0721
2015_10_28_S3 10/29/2015 01:20:00 0.1039
2015_10_28_S3 10/29/2015 01:25:00 0.1006
2015_10_28_S3 10/29/2015 01:30:00 0.1177
2015_10_28_S3 10/29/2015 01:35:00 0.1679
2015_10_28_S3 10/29/2015 01:40:00 0.2631
2015_10_28_S3 10/29/2015 01:45:00 0.2028
2015_10_28_S3 10/29/2015 01:50:00 0.0534
2015_10_28_S3 10/29/2015 01:55:00 0.0
2015_10_28_S3 10/29/2015 02:00:00 0.0
2015_10_28_S3 10/29/2015 02:05:00 0.0
2015_10_28_S3 10/29/2015 02:10:00 0.0
2015_10_28_S3 10/29/2015 02:15:00 0.0
2015_10_28_S3 10/29/2015 02:20:00 0.0
2015_10_28_S3 10/29/2015 02:25:00 0.0
2015_10_28_S3 10/29/2015 02:30:00 0.0
2015_10_28_S3 10/29/2015 02:35:00 0.0
2015_10_28_S3 10/29/2015 02:40:00 0.0
2015_10_28_S3 10/29/2015 02:45:00 0.0
2015_10_28_S3 10/29/2015 02:50:00 0.0
2015_10_28_S3 10/29/2015 02:55:00 0.0
2015_10_28_S3 10/29/2015 03:00:00 0.0
2015_10_28_S3 10/29/2015 03:05:00 0.0
2015_10_28_S3 10/29/2015 03:10:00 0.0
2015_10_28_S3 10/29/2015 03:15:00 0.0
2015_10_28_S3 10/29/2015 03:20:00 0.0
2015_10_28_S3 10/29/2015 03:25:00 0.0
2015_10_28_S3 10/29/2015 03:30:00 0.0
2015_10_28_S3 10/29/2015 03:35:00 0.0
2015_10_28_S3 10/29/2015 03:40:00 0.0
2015_10_28_S3 10/29/2015 03:45:00 0.0
2015_10_28_S3 10/29/2015 03:50:00 0.0
2015_10_28_S3 10/29/2015 03:55:00 0.0
2015_10_28_S3 10/29/2015 04:00:00 0.0
2015_10_28_S3 10/29/2015 04:05:00 0.0
2015_10_28_S3 10/29/2015 04:10:00 0.0
2015_10_28_S3 10/29/2015 04:15:00 0.0
2015_10_28_S3 10/29/2015 04:20:00 0.0
2015_10_28_S3 10/29/2015 04:25:00 0.0
2015_10_28_S3 10/29/2015 04:30:00 0.0
2015_10_28_S3 10/29/2015 04:35:00 0.0
2015_10_28_S3 10/29/2015 04:40:00 0.0
2015_10_28_S3 10/29/2015 04:45:00 0.0
2015_10_28_S3 10/29/2015 04:50:00 0.0
2015_10_28_S3 10/29/2015 04:55:00 0.0
2015_10_28_S3 10/29/2015 05:00:00 0.0
2015_10_28_S3 10/29/2015 05:05:00 0.0
2015_10_28_S3 10/29/2015 05:10:00 0.0
2015_10_28_S3 10/29/2015 05:15:00 0.0
2015_10_28_S3 10/29/2015 05:20:00 0.0
2015_10_28_S3 10/29/2015 05:25:00 0.0
2015_10_28_S3 10/29/2015 05:30:00 0.0
2015_10_28_S3 10/29/2015 05:35:00 0.0
2015_10_28_S3 10/29/2015 05:40:00 0.0
2015_10_28_S3 10/29/2015 05:45:00 0.0
2015_10_28_S3 10/29/2015 05:50:00 0.0
2015_10_28_S3 10/29/2015 05:55:00 0.0151
2015_10_28_S3 10/29/2015 06:00:00 0.0278
2015_10_28_S3 10/29/2015 06:05:00 0.0
2015_10_28_S3 10/29/2015 06:10:00 0.0068
2015_10_28_S3 10/29/2015 06:15:00 0.0
2015_10_28_S3 10/29/2015 06:20:00 0.0
2015_10_28_S3 10/29/2015 06:25:00 0.0
2015_10_28_S3 10/29/2015 06:30:00 0.0
2015_10_28_S3 10/29/2015 06:35:00 0.0
2015_10_28_S3 10/29/2015 06:40:00 0.0
2015_10_28_S3 10/29/2015 06:45:00 0.0
2015_10_28_S3 10/29/2015 06:50:00 0.0
2015_10_28_S3 10/29/2015 06:55:00 0.0
2015_10_28_S3 10/29/2015 07:00:00 0.0
2015_10_28_S3 10/29/2015 07:05:00 0.0
2015_10_28_S3 10/29/2015 07:10:00 0.0
2015_10_28_S3 10/29/2015 07:15:00 0.0
2015_10_28_S3 10/29/2015 07:20:00 0.0
2015_10_28_S3 10/29/2015 07:25:00 0.0
2015_10_28_S3 10/29/2015 07:30:00 0.0
2015_10_28_S3 10/29/2015 07:35:00 0.0
2015_10_28_S3 10/29/2015 07:40:00 0.0
2015_10_28_S3 10/29/2015 07:45:00 0.0
2015_10_28_S3 10/29/2015 07:50:00 0.0
2015_10_28_S3 10/29/2015 07:55:00 0.0
2015_10_28_S3 10/29/2015 08:00:00 0.0

2015_10_28_S4 10/28/2015 10:25:00 0.0218
2015_10_28_S4 10/28/2015 10:30:00 0.0
2015_10_28_S4 10/28/2015 10:35:00 0.0
2015_10_28_S4 10/28/2015 10:40:00 0.0073
2015_10_28_S4 10/28/2015 10:45:00 0.0307
2015_10_28_S4 10/28/2015 10:50:00 0.3128
2015_10_28_S4 10/28/2015 10:55:00 0.1558
2015_10_28_S4 10/28/2015 11:00:00 0.5503
2015_10_28_S4 10/28/2015 11:05:00 1.6954
2015_10_28_S4 10/28/2015 11:10:00 2.2841
2015_10_28_S4 10/28/2015 11:15:00 1.3267
2015_10_28_S4 10/28/2015 11:20:00 3.7119
2015_10_28_S4 10/28/2015 11:25:00 4.5889
2015_10_28_S4 10/28/2015 11:30:00 5.4659
2015_10_28_S4 10/28/2015 11:35:00 0.9587
2015_10_28_S4 10/28/2015 11:40:00 1.2851
2015_10_28_S4 10/28/2015 11:45:00 3.8746
2015_10_28_S4 10/28/2015 11:50:00 1.8089
2015_10_28_S4 10/28/2015 11:55:00 3.4161
2015_10_28_S4 10/28/2015 12:00:00 5.0767
2015_10_28_S4 10/28/2015 12:05:00 8.3461
2015_10_28_S4 10/28/2015 12:10:00 11.2338
2015_10_28_S4 10/28/2015 12:15:00 5.1196
2015_10_28_S4 10/28/2015 12:20:00 0.5017
2015_10_28_S4 10/28/2015 12:25:00 0.0296
2015_10_28_S4 10/28/2015 12:30:00 0.0018
2015_10_28_S4 10/28/2015 12:35:00 0.0123
2015_10_28_S4 10/28/2015 12:40:00 0.9707
2015_10_28_S4 10/28/2015 12:45:00 0.5706
2015_10_28_S4 10/28/2015 12:50:00 0.0322
2015_10_28_S4 10/28/2015 12:55:00 0.0189
2015_10_28_S4 10/28/2015 13:00:00 0.002
2015_10_28_S4 10/28/2015 13:05:00 0.0
2015_10_28_S4 10/28/2015 13:10:00 0.0
2015_10_28_S4 10/28/2015 13:15:00 0.0
2015_10_28_S4 10/28/2015 13:20:00 0.0
2015_10_28_S4 10/28/2015 13:25:00 0.0
2015_10_28_S4 10/28/2015 13:30:00 0.0
2015_10_28_S4 10/28/2015 13:35:00 0.0
2015_10_28_S4 10/28/2015 13:40:00 0.0
2015_10_28_S4 10/28/2015 13:45:00 0.0
2015_10_28_S4 10/28/2015 13:50:00 0.0
2015_10_28_S4 10/28/2015 13:55:00 0.0
2015_10_28_S4 10/28/2015 14:00:00 0.0
2015_10_28_S4 10/28/2015 14:05:00 0.0
2015_10_28_S4 10/28/2015 14:10:00 0.0
2015_10_28_S4 10/28/2015 14:15:00 0.0
2015_10_28_S4 10/28/2015 14:20:00 0.0
2015_10_28_S4 10/28/2015 14:25:00 0.1641
2015_10_28_S4 10/28/2015 14:30:00 0.0494
2015_10_28_S4 10/28/2015 14:35:00 0.0072
2015_10_28_S4 10/28/2015 14:40:00 0.0002
2015_10_28_S4 10/28/2015 14:45:00 0.0003
2015_10_28_S4 10/28/2015 14:50:00 0.0
2015_10_28_S4 10/28/2015 14:55:00 0.0
2015_10_28_S4 10/28/2015 15:00:00 0.0
2015_10_28_S4 10/28/2015 15:05:00 0.0
2015_10_28_S4 10/28/2015 15:10:00 0.0
2015_10_28_S4 10/28/2015 15:15:00 0.0
2015_10_28_S4 10/28/2015 15:20:00 0.0
2015_10_28_S4 10/28/2015 15:25:00 0.0
2015_10_28_S4 10/28/2015 15:30:00 0.0
2015_10_28_S4 10/28/2015 15:35:00 0.0
2015_10_28_S4 10/28/2015 15:40:00 0.0
2015_10_28_S4 10/28/2015 15:45:00 0.0
2015_10_28_S4 10/28/2015 15:50:00 0.0
2015_10_28_S4 10/28/2015 15:55:00 0.0
2015_10_28_S4 10/28/2015 16:00:00 0.0
2015_10_28_S4 10/28/2015 16:05:00 0.0
2015_10_28_S4 10/28/2015 16:10:00 0.0
2015_10_28_S4 10/28/2015 16:15:00 0.0026
2015_10_28_S4 10/28/2015 16:20:00 0.009
2015_10_28_S4 10/28/2015 16:25:00 0.0
2015_10_28_S4 10/28/2015 16:30:00 0.0
2015_10_28_S4 10/28/2015 16:35:00 0.0
2015_10_28_S4 10/28/2015 16:40:00 0.0173
2015_10_28_S4 10/28/2015 16:45:00 0.0
2015_10_28_S4 10/28/2015 16:50:00 0.0
2015_10_28_S4 10/28/2015 16:55:00 0.0
2015_10_28_S4 10/28/2015 17:00:00 0.0201
2015_10_28_S4 10/28/2015 17:05:00 0.0
2015_10_28_S4 10/28/2015 17:10:00 0.0
2015_10_28_S4 10/28/2015 17:15:00 0.0
2015_10_28_S4 10/28/2015 17:20:00 0.0
2015_10_28_S4 10/28/2015 17:25:00 0.0
2015_10_28_S4 10/28/2015 17:30:00 0.0
2015_10_28_S4 10/28/2015 17:35:00 0.0
2015_10_28_S4 10/28/2015 17:40:00 0.0
2015_10_28_S4 10/28/2015 17:45:00 0.0
2015_10_28_S4 10/28/2015 17:50:00 0.0
2015_10_28_S4 10/28/2015 17:55:00 0.0
2015_10_28_S4 10/28/2015 18:00:00 0.0
2015_10_28_S4 10/28/2015 18:05:00 0.0
2015_10_28_S4 10/28/2015 18:10:00 0.0
2015_10_28_S4 10/28/2015 18:15:00 0.0
2015_10_28_S4 10/28/2015 18:20:00 0.0
2015_10_28_S4 10/28/2015 18:25:00 0.0
2015_10_28_S4 10/28/2015 18:30:00 0.0
2015_10_28_S4 10/28/2015 18:35:00 0.0
2015_10_28_S4 10/28/2015 18:40:00 0.0
2015_10_28_S4 10/28/2015 18:45:00 0.0
2015_10_28_S4 10/28/2015 18:50:00 0.0
2015_10_28_S4 10/28/2015 18:55:00 0.0
2015_10_28_S4 10/28/2015 19:00:00 0.0
2015_10_28_S4 10/28/2015 19:05:00 0.0
2015_10_28_S4 10/28/2015 19:10:00 0.0
2015_10_28_S4 10/28/2015 19:15:00 0.0
2015_10_28_S4 10/28/2015 19:20:00 0.0
2015_10_28_S4 10/28/2015 19:25:00 0.0
2015_10_28_S4 10/28/2015 19:30:00 0.0
2015_10_28_S4 10/28/2015 19:35:00 0.0
2015_10_28_S4 10/28/2015 19:40:00 0.0
2015_10_28_S4 10/28/2015 19:45:00 0.0
2015_10_28_S4 10/28/2015 19:50:00 0.0
2015_10_28_S4 10/28/2015 19:55:00 0.0
2015_10_28_S4 10/28/2015 20:00:00 0.0
2015_10_28_S4 10/28/2015 20:05:00 0.0
2015_10_28_S4 10/28/2015 20:10:00 0.0
2015_10_28_S4 10/28/2015 20:15:00 0.0
2015_10_28_S4 10/28/2015 20:20:00 0.0
2015_10_28_S4 10/28/2015 20:25:00 0.0
2015_10_28_S4 10/28/2015 20:30:00 0.0
2015_10_28_S4 10/28/2015 20:35:00 0.0
2015_10_28_S4 10/28/2015 20:40:00 0.0
2015_10_28_S4 10/28/2015 20:45:00 0.0
2015_10_28_S4 10/28/2015 20:50:00 0.0
2015_10_28_S4 10/28/2015 20:55:00 0.0
2015_10_28_S4 10/28/2015 21:00:00 0.0
2015_10_28_S4 10/28/2015 21:05:00 0.0
2015_10_28_S4 10/28/2015 21:10:00 0.0
2015_10_28_S4 10/28/2015 21:15:00 0.0
2015_10_28_S4 10/28/2015 21:20:00 0.0
2015_10_28_S4 10/28/2015 21:25:00 0.0
2015_10_28_S4 10/28/2015 21:30:00 0.0
2015_10_28_S4 10/28/2015 21:35:00 0.0
2015_10_28_S4 10/28/2015 21:40:00 0.0
2015_10_28_S4 10/28/2015 21:45:00 0.0
2015_10_28_S4 10/28/2015 21:50:00 0.0
2015_10_28_S4 10/28/2015 21:55:00 0.0
2015_10_28_S4 10/28/2015 22:00:00 0.0
2015_10_28_S4 10/28/2015 22:05:00 0.0
2015_10_28_S4 10/28/2015 22:10:00 0.0
2015_10_28_S4 10/28/2015 22:15:00 0.0
2015_10_28_S4 10/28/2015 22:20:00 0.0
2015_10_28_S4 10/28/2015 22:25:00 0.0
2015_10_28_S4 10/28/2015 22:30:00 0.0
2015_10_28_S4 10/28/2015 22:35:00 0.0
2015_10_28_S4 10/28/2015 22:40:00 0.0
2015_10_28_S4 10/28/2015 22:45:00 0.0
2015_10_28_S4 10/28/2015 22:50:00 0.7116
2015_10_28_S4 10/28/2015 22:55:00 4.9496
2015_10_28_S4 10/28/2015 23:00:00 5.0034
2015_10_28_S4 10/28/2015 23:05:00 0.0576
2015_10_28_S4 10/28/2015 23:10:00 0.0
2015_10_28_S4 10/28/2015 23:15:00 0.0
2015_10_28_S4 10/28/2015 23:20:00 0.0
2015_10_28_S4 10/28/2015 23:25:00 0.0
2015_10_28_S4 10/28/2015 23:30:00 0.014
2015_10_28_S4 10/28/2015 23:35:00 0.0403
2015_10_28_S4 10/28/2015 23:40:00 0.0317
2015_10_28_S4 10/28/2015 23:45:00 0.0218
2015_10_28_S4 10/28/2015 23:50:00 0.0361
2015_10_28_S4 10/28/2015 23:55:00 0.1418
2015_10_28_S4 10/29/2015 00:00:00 0.0773
2015_10_28_S4 10/29/2015 00:05:00 0.0133
2015_10_28_S4 10/29/2015 00:10:00 0.0
2015_10_28_S4 10/29/2015 00:15:00 0.0
2015_10_28_S4 10/29/2015 00:20:00 0.0
2015_10_28_S4 10/29/2015 00:25:00 0.0022
2015_10_28_S4 10/29/2015 00:30:00 0.0196
2015_10_28_S4 10/29/2015 00:35:00 0.0
2015_10_28_S4 10/29/2015 00:40:00 0.0575
2015_10_28_S4 10/29/2015 00:45:00 0.2141
2015_10_28_S4 10/29/2015 00:50:00 0.1729
2015_10_28_S4 10/29/2015 00:55:00 0.2412
2015_10_28_S4 10/29/2015 01:00:00 0.0792
2015_10_28_S4 10/29/2015 01:05:00 0.148
2015_10_28_S4 10/29/2015 01:10:00 0.1246
2015_10_28_S4 10/29/2015 01:15:00 0.0804
2015_10_28_S4 10/29/2015 01:20:00 0.0972
2015_10_28_S4 10/29/2015 01:25:00 0.066
2015_10_28_S4 10/29/2015 01:30:00 0.1105
2015_10_28_S4 10/29/2015 01:35:00 0.1849
2015_10_28_S4 10/29/2015 01:40:00 0.202
2015_10_28_S4 10/29/2015 01:45:00 0.2021
2015_10_28_S4 10/29/2015 01:50:00 0.0472
2015_10_28_S4 10/29/2015 01:55:00 0.0
2015_10_28_S4 10/29/2015 02:00:00 0.0
2015_10_28_S4 10/29/2015 02:05:00 0.0
2015_10_28_S4 10/29/2015 02:10:00 0.0
2015_10_28_S4 10/29/2015 02:15:00 0.0
2015_10_28_S4 10/29/2015 02:20:00 0.0
2015_10_28_S4 10/29/2015 02:25:00 0.0
2015_10_28_S4 10/29/2015 02:30:00 0.0
2015_10_28_S4 10/29/2015 02:35:00 0.0
2015_10_28_S4 10/29/2015 02:40:00 0.0
2015_10_28_S4 10/29/2015 02:45:00 0.0
2015_10_28_S4 10/29/2015 02:50:00 0.0
2015_10_28_S4 10/29/2015 02:55:00 0.0
2015_10_28_S4 10/29/2015 03:00:00 0.0
2015_10_28_S4 10/29/2015 03:05:00 0.0
2015_10_28_S4 10/29/2015 03:10:00 0.0
2015_10_28_S4 10/29/2015 03:15:00 0.0
2015_10_28_S4 10/29/2015 03:20:00 0.0
2015_10_28_S4 10/29/2015 03:25:00 0.0
2015_10_28_S4 10/29/2015 03:30:00 0.0
2015_10_28_S4 10/29/2015 03:35:00 0.0
2015_10_28_S4 10/29/2015 03:40:00 0.0
2015_10_28_S4 10/29/2015 03:45:00 0.0
2015_10_28_S4 10/29/2015 03:50:00 0.0
2015_10_28_S4 10/29/2015 03:55:00 0.0
2015_10_28_S4 10/29/2015 04:00:00 0.0
2015_10_28_S4 10/29/2015 04:05:00 0.0
2015_10_28_S4 10/29/2015 04:10:00 0.0
2015_10_28_S4 10/29/2015 04:15:00 0.0
2015_10_28_S4 10/29/2015 04:20:00 0.0
2015_10_28_S4 10/29/2015 04:25:00 0.0
2015_10_28_S4 10/29/2015 04:30:00 0.0
2015_10_28_S4 10/29/2015 04:35:00 0.0
2015_10_28_S4 10/29/2015 04:40:00 0.0
2015_10_28_S4 10/29/2015 04:45:00 0.0
2015_10_28_S4 10/29/2015 04:50:00 0.0
2015_10_28_S4 10/29/2015 04:55:00 0.0
2015_10_28_S4 10/29/2015 05:00:00 0.0
2015_10_28_S4 10/29/2015 05:05:00 0.0
2015_10_28_S4 10/29/2015 05:10:00 0.0
2015_10_28_S4 10/29/2015 05:15:00 0.0
2015_10_28_S4 10/29/2015 05:20:00 0.0
2015_10_28_S4 10/29/2015 05:25:00 0.0
2015_10_28_S4 10/29/2015 05:30:00 0.0
2015_10_28_S4 10/29/2015 05:35:00 0.0
2015_10_28_S4 10/29/2015 05:40:00 0.0
2015_10_28_S4 10/29/2015 05:45:00 0.0
2015_10_28_S4 10/29/2015 05:50:00 0.0
2015_10_28_S4 10/29/2015 05:55:00 0.011
2015_10_28_S4 10/29/2015 06:00:00 0.0179
2015_10_28_S4 10/29/2015 06:05:00 0.0
2015_10_28_S4 10/29/2015 06:10:00 0.0047
2015_10_28_S4 10/29/2015 06:15:00 0.0
2015_10_28_S4 10/29/2015 06:20:00 0.0
2015_10_28_S4 10/29/2015 06:25:00 0.0
2015_10_28_S4 10/29/2015 06:30:00 0.0
2015_10_28_S4 10/29/2015 06:35:00 0.0
2015_10_28_S4 10/29/2015 06:40:00 0.0
2015_10_28_S4 10/29/2015 06:45:00 0.0
2015_10_28_S4 10/29/2015 06:50:00 0.0
2015_10_28_S4 10/29/2015 06:55:00 0.0
2015_10_28_S4 10/29/2015 07:00:00 0.0
2015_10_28_S4 10/29/2015 07:05:00 0.0
2015_10_28_S4 10/29/2015 07:10:00 0.0
2015_10_28_S4 10/29/2015 07:15:00 0.0
2015_10_28_S4 10/29/2015 07:20:00 0.0
2015_10_28_S4 10/29/2015 07:25:00 0.0
2015_10_28_S4 10/29/2015 07:30:00 0.0
2015_10_28_S4 10/29/2015 07:35:00 0.0
2015_10_28_S4 10/29/2015 07:40:00 0.0
2015_10_28_S4 10/29/2015 07:45:00 0.0
2015_10_28_S4 10/29/2015 07:50:00 0.0
2015_10_28_S4 10/29/2015 07:55:00 0.0
2015_10_28_S4 10/29/2015 08:00:00 0.0

2015_10_28_S5 10/28/2015 10:25:00 0.0283
2015_10_28_S5 10/28/2015 10:30:00 0.0
2015_10_28_S5 10/28/2015 10:35:00 0.0001
2015_10_28_S5 10/28/2015 10:40:00 0.0064
2015_10_28_S5 10/28/2015 10:45:00 0.0308
2015_10_28_S5 10/28/2015 10:50:00 0.2341
2015_10_28_S5 10/28/2015 10:55:00 0.1593
2015_10_28_S5 10/28/2015 11:00:00 0.5077
2015_10_28_S5 10/28/2015 11:05:00 1.5608
2015_10_28_S5 10/28/2015 11:10:00 2.6743
2015_10_28_S5 10/28/2015 11:15:00 2.2564
2015_10_28_S5 10/28/2015 11:20:00 4.4805
2015_10_28_S5 10/28/2015 11:25:00 5.5594
2015_10_28_S5 10/28/2015 11:30:00 6.6384
2015_10_28_S5 10/28/2015 11:35:00 1.0697
2015_10_28_S5 10/28/2015 11:40:00 1.1717
2015_10_28_S5 10/28/2015 11:45:00 3.2074
2015_10_28_S5 10/28/2015 11:50:00 2.2736
2015_10_28_S5 10/28/2015 11:55:00 4.7813
2015_10_28_S5 10/28/2015 12:00:00 5.8142
2015_10_28_S5 10/28/2015 12:05:00 7.3703
2015_10_28_S5 10/28/2015 12:10:00 11.3565
2015_10_28_S5 10/28/2015 12:15:00 4.878
2015_10_28_S5 10/28/2015 12:20:00 0.4429
2015_10_28_S5 10/28/2015 12:25:00 0.0334
2015_10_28_S5 10/28/2015 12:30:00 0.0039
2015_10_28_S5 10/28/2015 12:35:00 0.0134
2015_10_28_S5 10/28/2015 12:40:00 0.7388
2015_10_28_S5 10/28/2015 12:45:00 0.66
2015_10_28_S5 10/28/2015 12:50:00 0.0603
2015_10_28_S5 10/28/2015 12:55:00 0.0308
2015_10_28_S5 10/28/2015 13:00:00 0.002
2015_10_28_S5 10/28/2015 13:05:00 0.0
2015_10_28_S5 10/28/2015 13:10:00 0.0
2015_10_28_S5 10/28/2015 13:15:00 0.0
2015_10_28_S5 10/28/2015 13:20:00 0.0
2015_10_28_S5 10/28/2015 13:25:00 0.0
2015_10_28_S5 10/28/2015 13:30:00 0.0
2015_10_28_S5 10/28/2015 13:35:00 0.0
2015_10_28_S5 10/28/2015 13:40:00 0.0
2015_10_28_S5 10/28/2015 13:45:00 0.0
2015_10_28_S5 10/28/2015 13:50:00 0.0
2015_10_28_S5 10/28/2015 13:55:00 0.0
2015_10_28_S5 10/28/2015 14:00:00 0.0
2015_10_28_S5 10/28/2015 14:05:00 0.0
2015_10_28_S5 10/28/2015 14:10:00 0.0
2015_10_28_S5 10/28/2015 14:15:00 0.0
2015_10_28_S5 10/28/2015 14:20:00 0.0
2015_10_28_S5 10/28/2015 14:25:00 0.2219
2015_10_28_S5 10/28/2015 14:30:00 0.0548
2015_10_28_S5 10/28/2015 14:35:00 0.0044
2015_10_28_S5 10/28/2015 14:40:00 0.0
2015_10_28_S5 10/28/2015 14:45:00 0.0
2015_10_28_S5 10/28/2015 14:50:00 0.0
2015_10_28_S5 10/28/2015 14:55:00 0.0
2015_10_28_S5 10/28/2015 15:00:00 0.0
2015_10_28_S5 10/28/2015 15:05:00 0.0
2015_10_28_S5 10/28/2015 15:10:00 0.0
2015_10_28_S5 10/28/2015 15:15:00 0.0
2015_10_28_S5 10/28/2015 15:20:00 0.0
2015_10_28_S5 10/28/2015 15:25:00 0.0
2015_10_28_S5 10/28/2015 15:30:00 0.0
2015_10_28_S5 10/28/2015 15:35:00 0.0
2015_10_28_S5 10/28/2015 15:40:00 0.0
2015_10_28_S5 10/28/2015 15:45:00 0.0
2015_10_28_S5 10/28/2015 15:50:00 0.0
2015_10_28_S5 10/28/2015 15:55:00 0.0
2015_10_28_S5 10/28/2015 16:00:00 0.0
2015_10_28_S5 10/28/2015 16:05:00 0.0
2015_10_28_S5 10/28/2015 16:10:00 0.0
2015_10_28_S5 10/28/2015 16:15:00 0.0057
2015_10_28_S5 10/28/2015 16:20:00 0.0129
2015_10_28_S5 10/28/2015 16:25:00 0.0
2015_10_28_S5 10/28/2015 16:30:00 0.0
2015_10_28_S5 10/28/2015 16:35:00 0.0
2015_10_28_S5 10/28/2015 16:40:00 0.0051
2015_10_28_S5 10/28/2015 16:45:00 0.0
2015_10_28_S5 10/28/2015 16:50:00 0.0
2015_10_28_S5 10/28/2015 16:55:00 0.0
2015_10_28_S5 10/28/2015 17:00:00 0.0286
2015_10_28_S5 10/28/2015 17:05:00 0.0
2015_10_28_S5 10/28/2015 17:10:00 0.0
2015_10_28_S5 10/28/2015 17:15:00 0.0
2015_10_28_S5 10/28/2015 17:20:00 0.0
2015_10_28_S5 10/28/2015 17:25:00 0.0
2015_10_28_S5 10/28/2015 17:30:00 0.0
2015_10_28_S5 10/28/2015 17:35:00 0.0
2015_10_28_S5 10/28/2015 17:40:00 0.0
2015_10_28_S5 10/28/2015 17:45:00 0.0
2015_10_28_S5 10/28/2015 17:50:00 0.0
2015_10_28_S5 10/28/2015 17:55:00 0.0
2015_10_28_S5 10/28/2015 18:00:00 0.0
2015_10_28_S5 10/28/2015 18:05:00 0.0
2015_10_28_S5 10/28/2015 18:10:00 0.0
2015_10_28_S5 10/28/2015 18:15:00 0.0
2015_10_28_S5 10/28/2015 18:20:00 0.0
2015_10_28_S5 10/28/2015 18:25:00 0.0
2015_10_28_S5 10/28/2015 18:30:00 0.0
2015_10_28_S5 10/28/2015 18:35:00 0.0
2015_10_28_S5 10/28/2015 18:40:00 0.0
2015_10_28_S5 10/28/2015 18:45:00 0.0
2015_10_28_S5 10/28/2015 18:50:00 0.0
2015_10_28_S5 10/28/2015 18:55:00 0.0
2015_10_28_S5 10/28/2015 19:00:00 0.0
2015_10_28_S5 10/28/2015 19:05:00 0.0
2015_10_28_S5 10/28/2015 19:10:00 0.0
2015_10_28_S5 10/28/2015 19:15:00 0.0
2015_10_28_S5 10/28/2015 19:20:00 0.0
2015_10_28_S5 10/28/2015 19:25:00 0.0
2015_10_28_S5 10/28/2015 19:30:00 0.0
2015_10_28_S5 10/28/2015 19:35:00 0.0
2015_10_28_S5 10/28/2015 19:40:00 0.0
2015_10_28_S5 10/28/2015 19:45:00 0.0
2015_10_28_S5 10/28/2015 19:50:00 0.0
2015_10_28_S5 10/28/2015 19:55:00 0.0
2015_10_28_S5 10/28/2015 20:00:00 0.0
2015_10_28_S5 10/28/2015 20:05:00 0.0
2015_10_28_S5 10/28/2015 20:10:00 0.0
2015_10_28_S5 10/28/2015 20:15:00 0.0
2015_10_28_S5 10/28/2015 20:20:00 0.0
2015_10_28_S5 10/28/2015 20:25:00 0.0
2015_10_28_S5 10/28/2015 20:30:00 0.0
2015_10_28_S5 10/28/2015 20:35:00 0.0
2015_10_28_S5 10/28/2015 20:40:00 0.0
2015_10_28_S5 10/28/2015 20:45:00 0.0
2015_10_28_S5 10/28/2015 20:50:00 0.0
2015_10_28_S5 10/28/2015 20:55:00 0.0
2015_10_28_S5 10/28/2015 21:00:00 0.0
2015_10_28_S5 10/28/2015 21:05:00 0.0
2015_10_28_S5 10/28/2015 21:10:00 0.0
2015_10_28_S5 10/28/2015 21:15:00 0.0
2015_10_28_S5 10/28/2015 21:20:00 0.0
2015_10_28_S5 10/28/2015 21:25:00 0.0
2015_10_28_S5 10/28/2015 21:30:00 0.0
2015_10_28_S5 10/28/2015 21:35:00 0.0
2015_10_28_S5 10/28/2015 21:40:00 0.0
2015_10_28_S5 10/28/2015 21:45:00 0.0
2015_10_28_S5 10/28/2015 21:50:00 0.0
2015_10_28_S5 10/28/2015 21:55:00 0.0
2015_10_28_S5 10/28/2015 22:00:00 0.0
2015_10_28_S5 10/28/2015 22:05:00 0.0
2015_10_28_S5 10/28/2015 22:10:00 0.0
2015_10_28_S5 10/28/2015 22:15:00 0.0
2015_10_28_S5 10/28/2015 22:20:00 0.0
2015_10_28_S5 10/28/2015 22:25:00 0.0
2015_10_28_S5 10/28/2015 22:30:00 0.0
2015_10_28_S5 10/28/2015 22:35:00 0.0
2015_10_28_S5 10/28/2015 22:40:00 0.0
2015_10_28_S5 10/28/2015 22:45:00 0.0
2015_10_28_S5 10/28/2015 22:50:00 0.8745
2015_10_28_S5 10/28/2015 22:55:00 6.4095
2015_10_28_S5 10/28/2015 23:00:00 5.3772
2015_10_28_S5 10/28/2015 23:05:00 0.0225
2015_10_28_S5 10/28/2015 23:10:00 0.0
2015_10_28_S5 10/28/2015 23:15:00 0.0
2015_10_28_S5 10/28/2015 23:20:00 0.0
2015_10_28_S5 10/28/2015 23:25:00 0.0
2015_10_28_S5 10/28/2015 23:30:00 0.0106
2015_10_28_S5 10/28/2015 23:35:00 0.0371
2015_10_28_S5 10/28/2015 23:40:00 0.0324
2015_10_28_S5 10/28/2015 23:45:00 0.0178
2015_10_28_S5 10/28/2015 23:50:00 0.0309
2015_10_28_S5 10/28/2015 23:55:00 0.1506
2015_10_28_S5 10/29/2015 00:00:00 0.0863
2015_10_28_S5 10/29/2015 00:05:00 0.0136
2015_10_28_S5 10/29/2015 00:10:00 0.0
2015_10_28_S5 10/29/2015 00:15:00 0.0
2015_10_28_S5 10/29/2015 00:20:00 0.0
2015_10_28_S5 10/29/2015 00:25:00 0.0
2015_10_28_S5 10/29/2015 00:30:00 0.021
2015_10_28_S5 10/29/2015 00:35:00 0.0
2015_10_28_S5 10/29/2015 00:40:00 0.0381
2015_10_28_S5 10/29/2015 00:45:00 0.1863
2015_10_28_S5 10/29/2015 00:50:00 0.1645
2015_10_28_S5 10/29/2015 00:55:00 0.2047
2015_10_28_S5 10/29/2015 01:00:00 0.0816
2015_10_28_S5 10/29/2015 01:05:00 0.1541
2015_10_28_S5 10/29/2015 01:10:00 0.1336
2015_10_28_S5 10/29/2015 01:15:00 0.0871
2015_10_28_S5 10/29/2015 01:20:00 0.1065
2015_10_28_S5 10/29/2015 01:25:00 0.0636
2015_10_28_S5 10/29/2015 01:30:00 0.1063
2015_10_28_S5 10/29/2015 01:35:00 0.1856
2015_10_28_S5 10/29/2015 01:40:00 0.1959
2015_10_28_S5 10/29/2015 01:45:00 0.206
2015_10_28_S5 10/29/2015 01:50:00 0.049
2015_10_28_S5 10/29/2015 01:55:00 0.0
2015_10_28_S5 10/29/2015 02:00:00 0.0
2015_10_28_S5 10/29/2015 02:05:00 0.0
2015_10_28_S5 10/29/2015 02:10:00 0.0
2015_10_28_S5 10/29/2015 02:15:00 0.0
2015_10_28_S5 10/29/2015 02:20:00 0.0
2015_10_28_S5 10/29/2015 02:25:00 0.0
2015_10_28_S5 10/29/2015 02:30:00 0.0
2015_10_28_S5 10/29/2015 02:35:00 0.0
2015_10_28_S5 10/29/2015 02:40:00 0.0
2015_10_28_S5 10/29/2015 02:45:00 0.0
2015_10_28_S5 10/29/2015 02:50:00 0.0
2015_10_28_S5 10/29/2015 02:55:00 0.0
2015_10_28_S5 10/29/2015 03:00:00 0.0
2015_10_28_S5 10/29/2015 03:05:00 0.0
2015_10_28_S5 10/29/2015 03:10:00 0.0
2015_10_28_S5 10/29/2015 03:15:00 0.0
2015_10_28_S5 10/29/2015 03:20:00 0.0
2015_10_28_S5 10/29/2015 03:25:00 0.0
2015_10_28_S5 10/29/2015 03:30:00 0.0
2015_10_28_S5 10/29/2015 03:35:00 0.0
2015_10_28_S5 10/29/2015 03:40:00 0.0
2015_10_28_S5 10/29/2015 03:45:00 0.0
2015_10_28_S5 10/29/2015 03:50:00 0.0
2015_10_28_S5 10/29/2015 03:55:00 0.0
2015_10_28_S5 10/29/2015 04:00:00 0.0
2015_10_28_S5 10/29/2015 04:05:00 0.0
2015_10_28_S5 10/29/2015 04:10:00 0.0
2015_10_28_S5 10/29/2015 04:15:00 0.0
2015_10_28_S5 10/29/2015 04:20:00 0.0
2015_10_28_S5 10/29/2015 04:25:00 0.0
2015_10_28_S5 10/29/2015 04:30:00 0.0
2015_10_28_S5 10/29/2015 04:35:00 0.0
2015_10_28_S5 10/29/2015 04:40:00 0.0
2015_10_28_S5 10/29/2015 04:45:00 0.0
2015_10_28_S5 10/29/2015 04:50:00 0.0
2015_10_28_S5 10/29/2015 04:55:00 0.0
2015_10_28_S5 10/29/2015 05:00:00 0.0
2015_10_28_S5 10/29/2015 05:05:00 0.0
2015_10_28_S5 10/29/2015 05:10:00 0.0
2015_10_28_S5 10/29/2015 05:15:00 0.0
2015_10_28_S5 10/29/2015 05:20:00 0.0
2015_10_28_S5 10/29/2015 05:25:00 0.0
2015_10_28_S5 10/29/2015 05:30:00 0.0
2015_10_28_S5 10/29/2015 05:35:00 0.0
2015_10_28_S5 10/29/2015 05:40:00 0.0
2015_10_28_S5 10/29/2015 05:45:00 0.0
2015_10_28_S5 10/29/2015 05:50:00 0.0
2015_10_28_S5 10/29/2015 05:55:00 0.0002
2015_10_28_S5 10/29/2015 06:00:00 0.0081
2015_10_28_S5 10/29/2015 06:05:00 0.0
2015_10_28_S5 10/29/2015 06:10:00 0.0
2015_10_28_S5 10/29/2015 06:15:00 0.0
2015_10_28_S5 10/29/2015 06:20:00 0.0
2015_10_28_S5 10/29/2015 06:25:00 0.0
2015_10_28_S5 10/29/2015 06:30:00 0.0
2015_10_28_S5 10/29/2015 06:35:00 0.0
2015_10_28_S5 10/29/2015 06:40:00 0.0
2015_10_28_S5 10/29/2015 06:45:00 0.0
2015_10_28_S5 10/29/2015 06:50:00 0.0
2015_10_28_S5 10/29/2015 06:55:00 0.0
2015_10_28_S5 10/29/2015 07:00:00 0.0
2015_10_28_S5 10/29/2015 07:05:00 0.0
2015_10_28_S5 10/29/2015 07:10:00 0.0
2015_10_28_S5 10/29/2015 07:15:00 0.0
2015_10_28_S5 10/29/2015 07:20:00 0.0
2015_10_28_S5 10/29/2015 07:25:00 0.0
2015_10_28_S5 10/29/2015 07:30:00 0.0
2015_10_28_S5 10/29/2015 07:35:00 0.0
2015_10_28_S5 10/29/2015 07:40:00 0.0
2015_10_28_S5 10/29/2015 07:45:00 0.0
2015_10_28_S5 10/29/2015 07:50:00 0.0
2015_10_28_S5 10/29/2015 07:55:00 0.0
2015_10_28_S5 10/29/2015 08:00:00 0.0

2015_10_28_S6 10/28/2015 10:25:00 0.0126
2015_10_28_S6 10/28/2015 10:30:00 0.0
2015_10_28_S6 10/28/2015 10:35:00 0.0002
2015_10_28_S6 10/28/2015 10:40:00 0.0171
2015_10_28_S6 10/28/2015 10:45:00 0.0419
2015_10_28_S6 10/28/2015 10:50:00 0.4419
2015_10_28_S6 10/28/2015 10:55:00 0.1872
2015_10_28_S6 10/28/2015 11:00:00 1.085
2015_10_28_S6 10/28/2015 11:05:00 1.3437
2015_10_28_S6 10/28/2015 11:10:00 1.926
2015_10_28_S6 10/28/2015 11:15:00 2.0068
2015_10_28_S6 10/28/2015 11:20:00 5.0089
2015_10_28_S6 10/28/2015 11:25:00 5.9046
2015_10_28_S6 10/28/2015 11:30:00 6.8003
2015_10_28_S6 10/28/2015 11:35:00 0.4388
2015_10_28_S6 10/28/2015 11:40:00 1.8765
2015_10_28_S6 10/28/2015 11:45:00 4.1837
2015_10_28_S6 10/28/2015 11:50:00 2.177
2015_10_28_S6 10/28/2015 11:55:00 7.2509
2015_10_28_S6 10/28/2015 12:00:00 3.7486
2015_10_28_S6 10/28/2015 12:05:00 9.8181
2015_10_28_S6 10/28/2015 12:10:00 14.493
2015_10_28_S6 10/28/2015 12:15:00 4.811
2015_10_28_S6 10/28/2015 12:20:00 0.0235
2015_10_28_S6 10/28/2015 12:25:00 0.0236
2015_10_28_S6 10/28/2015 12:30:00 0.0035
2015_10_28_S6 10/28/2015 12:35:00 0.0211
2015_10_28_S6 10/28/2015 12:40:00 1.5116
2015_10_28_S6 10/28/2015 12:45:00 0.2235
2015_10_28_S6 10/28/2015 12:50:00 0.0379
2015_10_28_S6 10/28/2015 12:55:00 0.0205
2015_10_28_S6 10/28/2015 13:00:00 0.0002
2015_10_28_S6 10/28/2015 13:05:00 0.0
2015_10_28_S6 10/28/2015 13:10:00 0.0
2015_10_28_S6 10/28/2015 13:15:00 0.0
2015_10_28_S6 10/28/2015 13:20:00 0.0
2015_10_28_S6 10/28/2015 13:25:00 0.0
2015_10_28_S6 10/28/2015 13:30:00 0.0
2015_10_28_S6 10/28/2015 13:35:00 0.0
2015_10_28_S6 10/28/2015 13:40:00 0.0
2015_10_28_S6 10/28/2015 13:45:00 0.0
2015_10_28_S6 10/28/2015 13:50:00 0.0
2015_10_28_S6 10/28/2015 13:55:00 0.0
2015_10_28_S6 10/28/2015 14:00:00 0.0
2015_10_28_S6 10/28/2015 14:05:00 0.0
2015_10_28_S6 10/28/2015 14:10:00 0.0
2015_10_28_S6 10/28/2015 14:15:00 0.0
2015_10_28_S6 10/28/2015 14:20:00 0.0
2015_10_28_S6 10/28/2015 14:25:00 0.0843
2015_10_28_S6 10/28/2015 14:30:00 0.0205
2015_10_28_S6 10/28/2015 14:35:00 0.0053
2015_10_28_S6 10/28/2015 14:40:00 0.0
2015_10_28_S6 10/28/2015 14:45:00 0.0
2015_10_28_S6 10/28/2015 14:50:00 0.0029
2015_10_28_S6 10/28/2015 14:55:00 0.0
2015_10_28_S6 10/28/2015 15:00:00 0.0
2015_10_28_S6 10/28/2015 15:05:00 0.0
2015_10_28_S6 10/28/2015 15:10:00 0.0
2015_10_28_S6 10/28/2015 15:15:00 0.0
2015_10_28_S6 10/28/2015 15:20:00 0.0
2015_10_28_S6 10/28/2015 15:25:00 0.0
2015_10_28_S6 10/28/2015 15:30:00 0.0
2015_10_28_S6 10/28/2015 15:35:00 0.0
2015_10_28_S6 10/28/2015 15:40:00 0.0
2015_10_28_S6 10/28/2015 15:45:00 0.0
2015_10_28_S6 10/28/2015 15:50:00 0.0
2015_10_28_S6 10/28/2015 15:55:00 0.0
2015_10_28_S6 10/28/2015 16:00:00 0.0
2015_10_28_S6 10/28/2015 16:05:00 0.0
2015_10_28_S6 10/28/2015 16:10:00 0.0
2015_10_28_S6 10/28/2015 16:15:00 0.0068
2015_10_28_S6 10/28/2015 16:20:00 0.0066
2015_10_28_S6 10/28/2015 16:25:00 0.0
2015_10_28_S6 10/28/2015 16:30:00 0.0
2015_10_28_S6 10/28/2015 16:35:00 0.0
2015_10_28_S6 10/28/2015 16:40:00 0.0381
2015_10_28_S6 10/28/2015 16:45:00 0.0
2015_10_28_S6 10/28/2015 16:50:00 0.0
2015_10_28_S6 10/28/2015 16:55:00 0.0
2015_10_28_S6 10/28/2015 17:00:00 0.0206
2015_10_28_S6 10/28/2015 17:05:00 0.0
2015_10_28_S6 10/28/2015 17:10:00 0.0
2015_10_28_S6 10/28/2015 17:15:00 0.0
2015_10_28_S6 10/28/2015 17:20:00 0.0
2015_10_28_S6 10/28/2015 17:25:00 0.0
2015_10_28_S6 10/28/2015 17:30:00 0.0
2015_10_28_S6 10/28/2015 17:35:00 0.0
2015_10_28_S6 10/28/2015 17:40:00 0.0
2015_10_28_S6 10/28/2015 17:45:00 0.0
2015_10_28_S6 10/28/2015 17:50:00 0.0
2015_10_28_S6 10/28/2015 17:55:00 0.0
2015_10_28_S6 10/28/2015 18:00:00 0.0
2015_10_28_S6 10/28/2015 18:05:00 0.0
2015_10_28_S6 10/28/2015 18:10:00 0.0
2015_10_28_S6 10/28/2015 18:15:00 0.0
2015_10_28_S6 10/28/2015 18:20:00 0.0
2015_10_28_S6 10/28/2015 18:25:00 0.0
2015_10_28_S6 10/28/2015 18:30:00 0.0
2015_10_28_S6 10/28/2015 18:35:00 0.0
2015_10_28_S6 10/28/2015 18:40:00 0.0
2015_10_28_S6 10/28/2015 18:45:00 0.0
2015_10_28_S6 10/28/2015 18:50:00 0.0
2015_10_28_S6 10/28/2015 18:55:00 0.0
2015_10_28_S6 10/28/2015 19:00:00 0.0
2015_10_28_S6 10/28/2015 19:05:00 0.0
2015_10_28_S6 10/28/2015 19:10:00 0.0
2015_10_28_S6 10/28/2015 19:15:00 0.0
2015_10_28_S6 10/28/2015 19:20:00 0.0
2015_10_28_S6 10/28/2015 19:25:00 0.0
2015_10_28_S6 10/28/2015 19:30:00 0.0
2015_10_28_S6 10/28/2015 19:35:00 0.0
2015_10_28_S6 10/28/2015 19:40:00 0.0
2015_10_28_S6 10/28/2015 19:45:00 0.0
2015_10_28_S6 10/28/2015 19:50:00 0.0
2015_10_28_S6 10/28/2015 19:55:00 0.0
2015_10_28_S6 10/28/2015 20:00:00 0.0
2015_10_28_S6 10/28/2015 20:05:00 0.0
2015_10_28_S6 10/28/2015 20:10:00 0.0
2015_10_28_S6 10/28/2015 20:15:00 0.0
2015_10_28_S6 10/28/2015 20:20:00 0.0
2015_10_28_S6 10/28/2015 20:25:00 0.0
2015_10_28_S6 10/28/2015 20:30:00 0.0
2015_10_28_S6 10/28/2015 20:35:00 0.0
2015_10_28_S6 10/28/2015 20:40:00 0.0
2015_10_28_S6 10/28/2015 20:45:00 0.0
2015_10_28_S6 10/28/2015 20:50:00 0.0
2015_10_28_S6 10/28/2015 20:55:00 0.0
2015_10_28_S6 10/28/2015 21:00:00 0.0
2015_10_28_S6 10/28/2015 21:05:00 0.0
2015_10_28_S6 10/28/2015 21:10:00 0.0
2015_10_28_S6 10/28/2015 21:15:00 0.0
2015_10_28_S6 10/28/2015 21:20:00 0.0
2015_10_28_S6 10/28/2015 21:25:00 0.0
2015_10_28_S6 10/28/2015 21:30:00 0.0
2015_10_28_S6 10/28/2015 21:35:00 0.0
2015_10_28_S6 10/28/2015 21:40:00 0.0
2015_10_28_S6 10/28/2015 21:45:00 0.0
2015_10_28_S6 10/28/2015 21:50:00 0.0
2015_10_28_S6 10/28/2015 21:55:00 0.0
2015_10_28_S6 10/28/2015 22:00:00 0.0
2015_10_28_S6 10/28/2015 22:05:00 0.0
2015_10_28_S6 10/28/2015 22:10:00 0.0
2015_10_28_S6 10/28/2015 22:15:00 0.0
2015_10_28_S6 10/28/2015 22:20:00 0.0
2015_10_28_S6 10/28/2015 22:25:00 0.0
2015_10_28_S6 10/28/2015 22:30:00 0.0
2015_10_28_S6 10/28/2015 22:35:00 0.0
2015_10_28_S6 10/28/2015 22:40:00 0.0
2015_10_28_S6 10/28/2015 22:45:00 0.0
2015_10_28_S6 10/28/2015 22:50:00 1.1369
2015_10_28_S6 10/28/2015 22:55:00 6.4153
2015_10_28_S6 10/28/2015 23:00:00 1.48
2015_10_28_S6 10/28/2015 23:05:00 0.0
2015_10_28_S6 10/28/2015 23:10:00 0.0
2015_10_28_S6 10/28/2015 23:15:00 0.0
2015_10_28_S6 10/28/2015 23:20:00 0.0
2015_10_28_S6 10/28/2015 23:25:00 0.0
2015_10_28_S6 10/28/2015 23:30:00 0.0211
2015_10_28_S6 10/28/2015 23:35:00 0.0396
2015_10_28_S6 10/28/2015 23:40:00 0.025
2015_10_28_S6 10/28/2015 23:45:00 0.031
2015_10_28_S6 10/28/2015 23:50:00 0.0673
2015_10_28_S6 10/28/2015 23:55:00 0.1124
2015_10_28_S6 10/29/2015 00:00:00 0.0558
2015_10_28_S6 10/29/2015 00:05:00 0.0064
2015_10_28_S6 10/29/2015 00:10:00 0.0
2015_10_28_S6 10/29/2015 00:15:00 0.0
2015_10_28_S6 10/29/2015 00:20:00 0.0
2015_10_28_S6 10/29/2015 00:25:00 0.0056
2015_10_28_S6 10/29/2015 00:30:00 0.0222
2015_10_28_S6 10/29/2015 00:35:00 0.0127
2015_10_28_S6 10/29/2015 00:40:00 0.12
2015_10_28_S6 10/29/2015 00:45:00 0.2267
2015_10_28_S6 10/29/2015 00:50:00 0.1881
2015_10_28_S6 10/29/2015 00:55:00 0.254
2015_10_28_S6 10/29/2015 01:00:00 0.0864
2015_10_28_S6 10/29/2015 01:05:00 0.1216
2015_10_28_S6 10/29/2015 01:10:00 0.0773
2015_10_28_S6 10/29/2015 01:15:00 0.0812
2015_10_28_S6 10/29/2015 01:20:00 0.0789
2015_10_28_S6 10/29/2015 01:25:00 0.0947
2015_10_28_S6 10/29/2015 01:30:00 0.0948
2015_10_28_S6 10/29/2015 01:35:00 0.2024
2015_10_28_S6 10/29/2015 01:40:00 0.2144
2015_10_28_S6 10/29/2015 01:45:00 0.1538
2015_10_28_S6 10/29/2015 01:50:00 0.0233
2015_10_28_S6 10/29/2015 01:55:00 0.0
2015_10_28_S6 10/29/2015 02:00:00 0.0
2015_10_28_S6 10/29/2015 02:05:00 0.0
2015_10_28_S6 10/29/2015 02:10:00 0.0
2015_10_28_S6 10/29/2015 02:15:00 0.0
2015_10_28_S6 10/29/2015 02:20:00 0.0
2015_10_28_S6 10/29/2015 02:25:00 0.0
2015_10_28_S6 10/29/2015 02:30:00 0.0
2015_10_28_S6 10/29/2015 02:35:00 0.0
2015_10_28_S6 10/29/2015 02:40:00 0.0
2015_10_28_S6 10/29/2015 02:45:00 0.0
2015_10_28_S6 10/29/2015 02:50:00 0.0
2015_10_28_S6 10/29/2015 02:55:00 0.0
2015_10_28_S6 10/29/2015 03:00:00 0.0
2015_10_28_S6 10/29/2015 03:05:00 0.0
2015_10_28_S6 10/29/2015 03:10:00 0.0
2015_10_28_S6 10/29/2015 03:15:00 0.0
2015_10_28_S6 10/29/2015 03:20:00 0.0
2015_10_28_S6 10/29/2015 03:25:00 0.0
2015_10_28_S6 10/29/2015 03:30:00 0.0
2015_10_28_S6 10/29/2015 03:35:00 0.0
2015_10_28_S6 10/29/2015 03:40:00 0.0
2015_10_28_S6 10/29/2015 03:45:00 0.0
2015_10_28_S6 10/29/2015 03:50:00 0.0
2015_10_28_S6 10/29/2015 03:55:00 0.0
2015_10_28_S6 10/29/2015 04:00:00 0.0
2015_10_28_S6 10/29/2015 04:05:00 0.0
2015_10_28_S6 10/29/2015 04:10:00 0.0
2015_10_28_S6 10/29/2015 04:15:00 0.0
2015_10_28_S6 10/29/2015 04:20:00 0.0
2015_10_28_S6 10/29/2015 04:25:00 0.0
2015_10_28_S6 10/29/2015 04:30:00 0.0
2015_10_28_S6 10/29/2015 04:35:00 0.0
2015_10_28_S6 10/29/2015 04:40:00 0.0
2015_10_28_S6 10/29/2015 04:45:00 0.0
2015_10_28_S6 10/29/2015 04:50:00 0.0
2015_10_28_S6 10/29/2015 04:55:00 0.0
2015_10_28_S6 10/29/2015 05:00:00 0.0
2015_10_28_S6 10/29/2015 05:05:00 0.0
2015_10_28_S6 10/29/2015 05:10:00 0.0
2015_10_28_S6 10/29/2015 05:15:00 0.0
2015_10_28_S6 10/29/2015 05:20:00 0.0
2015_10_28_S6 10/29/2015 05:25:00 0.0
2015_10_28_S6 10/29/2015 05:30:00 0.0
2015_10_28_S6 10/29/2015 05:35:00 0.0
2015_10_28_S6 10/29/2015 05:40:00 0.0
2015_10_28_S6 10/29/2015 05:45:00 0.0
2015_10_28_S6 10/29/2015 05:50:00 0.0
2015_10_28_S6 10/29/2015 05:55:00 0.0208
2015_10_28_S6 10/29/2015 06:00:00 0.0252
2015_10_28_S6 10/29/2015 06:05:00 0.0
2015_10_28_S6 10/29/2015 06:10:00 0.0094
2015_10_28_S6 10/29/2015 06:15:00 0.0
2015_10_28_S6 10/29/2015 06:20:00 0.0
2015_10_28_S6 10/29/2015 06:25:00 0.0
2015_10_28_S6 10/29/2015 06:30:00 0.0
2015_10_28_S6 10/29/2015 06:35:00 0.0
2015_10_28_S6 10/29/2015 06:40:00 0.0
2015_10_28_S6 10/29/2015 06:45:00 0.0
2015_10_28_S6 10/29/2015 06:50:00 0.0
2015_10_28_S6 10/29/2015 06:55:00 0.0
2015_10_28_S6 10/29/2015 07:00:00 0.0
2015_10_28_S6 10/29/2015 07:05:00 0.0
2015_10_28_S6 10/29/2015 07:10:00 0.0
2015_10_28_S6 10/29/2015 07:15:00 0.0
2015_10_28_S6 10/29/2015 07:20:00 0.0
2015_10_28_S6 10/29/2015 07:25:00 0.0
2015_10_28_S6 10/29/2015 07:30:00 0.0
2015_10_28_S6 10/29/2015 07:35:00 0.0
2015_10_28_S6 10/29/2015 07:40:00 0.0
2015_10_28_S6 10/29/2015 07:45:00 0.0
2015_10_28_S6 10/29/2015 07:50:00 0.0
2015_10_28_S6 10/29/2015 07:55:00 0.0
2015_10_28_S6 10/29/2015 08:00:00 0.0

2015_10_28_S7 10/28/2015 10:25:00 0.0229
2015_10_28_S7 10/28/2015 10:30:00 0.0
2015_10_28_S7 10/28/2015 10:35:00 0.0189
2015_10_28_S7 10/28/2015 10:40:00 0.0319
2015_10_28_S7 10/28/2015 10:45:00 0.0584
2015_10_28_S7 10/28/2015 10:50:00 0.2353
2015_10_28_S7 10/28/2015 10:55:00 0.2722
2015_10_28_S7 10/28/2015 11:00:00 1.1853
2015_10_28_S7 10/28/2015 11:05:00 1.3036
2015_10_28_S7 10/28/2015 11:10:00 2.0458
2015_10_28_S7 10/28/2015 11:15:00 3.2164
2015_10_28_S7 10/28/2015 11:20:00 9.0041
2015_10_28_S7 10/28/2015 11:25:00 9.4613
2015_10_28_S7 10/28/2015 11:30:00 9.9185
2015_10_28_S7 10/28/2015 11:35:00 0.3955
2015_10_28_S7 10/28/2015 11:40:00 1.9982
2015_10_28_S7 10/28/2015 11:45:00 2.8097
2015_10_28_S7 10/28/2015 11:50:00 5.2141
2015_10_28_S7 10/28/2015 11:55:00 9.992
2015_10_28_S7 10/28/2015 12:00:00 5.4517
2015_10_28_S7 10/28/2015 12:05:00 5.3365
2015_10_28_S7 10/28/2015 12:10:00 13.1963
2015_10_28_S7 10/28/2015 12:15:00 2.7071
2015_10_28_S7 10/28/2015 12:20:00 0.0621
2015_10_28_S7 10/28/2015 12:25:00 0.1121
2015_10_28_S7 10/28/2015 12:30:00 0.0067
2015_10_28_S7 10/28/2015 12:35:00 0.0474
2015_10_28_S7 10/28/2015 12:40:00 1.6191
2015_10_28_S7 10/28/2015 12:45:00 0.2092
2015_10_28_S7 10/28/2015 12:50:00 0.2935
2015_10_28_S7 10/28/2015 12:55:00 0.0484
2015_10_28_S7 10/28/2015 13:00:00 0.0044
2015_10_28_S7 10/28/2015 13:05:00 0.0
2015_10_28_S7 10/28/2015 13:10:00 0.0
2015_10_28_S7 10/28/2015 13:15:00 0.0018
2015_10_28_S7 10/28/2015 13:20:00 0.0
2015_10_28_S7 10/28/2015 13:25:00 0.0
2015_10_28_S7 10/28/2015 13:30:00 0.0
2015_10_28_S7 10/28/2015 13:35:00 0.0
2015_10_28_S7 10/28/2015 13:40:00 0.0
2015_10_28_S7 10/28/2015 13:45:00 0.0
2015_10_28_S7 10/28/2015 13:50:00 0.0
2015_10_28_S7 10/28/2015 13:55:00 0.0
2015_10_28_S7 10/28/2015 14:00:00 0.0
2015_10_28_S7 10/28/2015 14:05:00 0.0
2015_10_28_S7 10/28/2015 14:10:00 0.0
2015_10_28_S7 10/28/2015 14:15:00 0.0
2015_10_28_S7 10/28/2015 14:20:00 0.0046
2015_10_28_S7 10/28/2015 14:25:00 0.1194
2015_10_28_S7 10/28/2015 14:30:00 0.0098
2015_10_28_S7 10/28/2015 14:35:00 0.0028
2015_10_28_S7 10/28/2015 14:40:00 0.0
2015_10_28_S7 10/28/2015 14:45:00 0.0
2015_10_28_S7 10/28/2015 14:50:00 0.0
2015_10_28_S7 10/28/2015 14:55:00 0.0
2015_10_28_S7 10/28/2015 15:00:00 0.0
2015_10_28_S7 10/28/2015 15:05:00 0.0
2015_10_28_S7 10/28/2015 15:10:00 0.0
2015_10_28_S7 10/28/2015 15:15:00 0.0
2015_10_28_S7 10/28/2015 15:20:00 0.0
2015_10_28_S7 10/28/2015 15:25:00 0.0
2015_10_28_S7 10/28/2015 15:30:00 0.0
2015_10_28_S7 10/28/2015 15:35:00 0.0
2015_10_28_S7 10/28/2015 15:40:00 0.0
2015_10_28_S7 10/28/2015 15:45:00 0.0
2015_10_28_S7 10/28/2015 15:50:00 0.0
2015_10_28_S7 10/28/2015 15:55:00 0.0
2015_10_28_S7 10/28/2015 16:00:00 0.0
2015_10_28_S7 10/28/2015 16:05:00 0.0
2015_10_28_S7 10/28/2015 16:10:00 0.0
2015_10_28_S7 10/28/2015 16:15:00 0.0184
2015_10_28_S7 10/28/2015 16:20:00 0.0121
2015_10_28_S7 10/28/2015 16:25:00 0.0
2015_10_28_S7 10/28/2015 16:30:00 0.0
2015_10_28_S7 10/28/2015 16:35:00 0.0
2015_10_28_S7 10/28/2015 16:40:00 0.0246
2015_10_28_S7 10/28/2015 16:45:00 0.0
2015_10_28_S7 10/28/2015 16:50:00 0.0
2015_10_28_S7 10/28/2015 16:55:00 0.0
2015_10_28_S7 10/28/2015 17:00:00 0.0465
2015_10_28_S7 10/28/2015 17:05:00 0.0
2015_10_28_S7 10/28/2015 17:10:00 0.0
2015_10_28_S7 10/28/2015 17:15:00 0.0
2015_10_28_S7 10/28/2015 17:20:00 0.0
2015_10_28_S7 10/28/2015 17:25:00 0.0
2015_10_28_S7 10/28/2015 17:30:00 0.0
2015_10_28_S7 10/28/2015 17:35:00 0.0
2015_10_28_S7 10/28/2015 17:40:00 0.0
2015_10_28_S7 10/28/2015 17:45:00 0.0
2015_10_28_S7 10/28/2015 17:50:00 0.0
2015_10_28_S7 10/28/2015 17:55:00 0.0
2015_10_28_S7 10/28/2015 18:00:00 0.0
2015_10_28_S7 10/28/2015 18:05:00 0.0
2015_10_28_S7 10/28/2015 18:10:00 0.0
2015_10_28_S7 10/28/2015 18:15:00 0.0
2015_10_28_S7 10/28/2015 18:20:00 0.0
2015_10_28_S7 10/28/2015 18:25:00 0.0
2015_10_28_S7 10/28/2015 18:30:00 0.0
2015_10_28_S7 10/28/2015 18:35:00 0.0
2015_10_28_S7 10/28/2015 18:40:00 0.0
2015_10_28_S7 10/28/2015 18:45:00 0.0
2015_10_28_S7 10/28/2015 18:50:00 0.0
2015_10_28_S7 10/28/2015 18:55:00 0.0
2015_10_28_S7 10/28/2015 19:00:00 0.0
2015_10_28_S7 10/28/2015 19:05:00 0.0
2015_10_28_S7 10/28/2015 19:10:00 0.0
2015_10_28_S7 10/28/2015 19:15:00 0.0
2015_10_28_S7 10/28/2015 19:20:00 0.0
2015_10_28_S7 10/28/2015 19:25:00 0.0
2015_10_28_S7 10/28/2015 19:30:00 0.0
2015_10_28_S7 10/28/2015 19:35:00 0.0
2015_10_28_S7 10/28/2015 19:40:00 0.0
2015_10_28_S7 10/28/2015 19:45:00 0.0
2015_10_28_S7 10/28/2015 19:50:00 0.0
2015_10_28_S7 10/28/2015 19:55:00 0.0
2015_10_28_S7 10/28/2015 20:00:00 0.0
2015_10_28_S7 10/28/2015 20:05:00 0.0
2015_10_28_S7 10/28/2015 20:10:00 0.0
2015_10_28_S7 10/28/2015 20:15:00 0.0
2015_10_28_S7 10/28/2015 20:20:00 0.0
2015_10_28_S7 10/28/2015 20:25:00 0.0
2015_10_28_S7 10/28/2015 20:30:00 0.0
2015_10_28_S7 10/28/2015 20:35:00 0.0
2015_10_28_S7 10/28/2015 20:40:00 0.0
2015_10_28_S7 10/28/2015 20:45:00 0.0
2015_10_28_S7 10/28/2015 20:50:00 0.0
2015_10_28_S7 10/28/2015 20:55:00 0.0
2015_10_28_S7 10/28/2015 21:00:00 0.0
2015_10_28_S7 10/28/2015 21:05:00 0.0
2015_10_28_S7 10/28/2015 21:10:00 0.0
2015_10_28_S7 10/28/2015 21:15:00 0.0
2015_10_28_S7 10/28/2015 21:20:00 0.0
2015_10_28_S7 10/28/2015 21:25:00 0.0
2015_10_28_S7 10/28/2015 21:30:00 0.0
2015_10_28_S7 10/28/2015 21:35:00 0.0
2015_10_28_S7 10/28/2015 21:40:00 0.0
2015_10_28_S7 10/28/2015 21:45:00 0.0
2015_10_28_S7 10/28/2015 21:50:00 0.0
2015_10_28_S7 10/28/2015 21:55:00 0.0
2015_10_28_S7 10/28/2015 22:00:00 0.0
2015_10_28_S7 10/28/2015 22:05:00 0.0
2015_10_28_S7 10/28/2015 22:10:00 0.0
2015_10_28_S7 10/28/2015 22:15:00 0.0
2015_10_28_S7 10/28/2015 22:20:00 0.0
2015_10_28_S7 10/28/2015 22:25:00 0.0
2015_10_28_S7 10/28/2015 22:30:00 0.0
2015_10_28_S7 10/28/2015 22:35:00 0.0
2015_10_28_S7 10/28/2015 22:40:00 0.0
2015_10_28_S7 10/28/2015 22:45:00 0.0008
2015_10_28_S7 10/28/2015 22:50:00 2.4496
2015_10_28_S7 10/28/2015 22:55:00 9.7166
2015_10_28_S7 10/28/2015 23:00:00 0.679
2015_10_28_S7 10/28/2015 23:05:00 0.0
2015_10_28_S7 10/28/2015 23:10:00 0.0
2015_10_28_S7 10/28/2015 23:15:00 0.0
2015_10_28_S7 10/28/2015 23:20:00 0.0
2015_10_28_S7 10/28/2015 23:25:00 0.0
2015_10_28_S7 10/28/2015 23:30:00 0.0147
2015_10_28_S7 10/28/2015 23:35:00 0.0249
2015_10_28_S7 10/28/2015 23:40:00 0.0209
2015_10_28_S7 10/28/2015 23:45:00 0.0284
2015_10_28_S7 10/28/2015 23:50:00 0.0826
2015_10_28_S7 10/28/2015 23:55:00 0.1191
2015_10_28_S7 10/29/2015 00:00:00 0.0664
2015_10_28_S7 10/29/2015 00:05:00 0.0085
2015_10_28_S7 10/29/2015 00:10:00 0.0
2015_10_28_S7 10/29/2015 00:15:00 0.0
2015_10_28_S7 10/29/2015 00:20:00 0.0
2015_10_28_S7 10/29/2015 00:25:00 0.0048
2015_10_28_S7 10/29/2015 00:30:00 0.0176
2015_10_28_S7 10/29/2015 00:35:00 0.0133
2015_10_28_S7 10/29/2015 00:40:00 0.1123
2015_10_28_S7 10/29/2015 00:45:00 0.2399
2015_10_28_S7 10/29/2015 00:50:00 0.2328
2015_10_28_S7 10/29/2015 00:55:00 0.1963
2015_10_28_S7 10/29/2015 01:00:00 0.0925
2015_10_28_S7 10/29/2015 01:05:00 0.1235
2015_10_28_S7 10/29/2015 01:10:00 0.0788
2015_10_28_S7 10/29/2015 01:15:00 0.0734
2015_10_28_S7 10/29/2015 01:20:00 0.091
2015_10_28_S7 10/29/2015 01:25:00 0.0949
2015_10_28_S7 10/29/2015 01:30:00 0.0974
2015_10_28_S7 10/29/2015 01:35:00 0.189
2015_10_28_S7 10/29/2015 01:40:00 0.2115
2015_10_28_S7 10/29/2015 01:45:00 0.146
2015_10_28_S7 10/29/2015 01:50:00 0.0182
2015_10_28_S7 10/29/2015 01:55:00 0.0
2015_10_28_S7 10/29/2015 02:00:00 0.0
2015_10_28_S7 10/29/2015 02:05:00 0.0
2015_10_28_S7 10/29/2015 02:10:00 0.0
2015_10_28_S7 10/29/2015 02:15:00 0.0
2015_10_28_S7 10/29/2015 02:20:00 0.0
2015_10_28_S7 10/29/2015 02:25:00 0.0
2015_10_28_S7 10/29/2015 02:30:00 0.0
2015_10_28_S7 10/29/2015 02:35:00 0.0
2015_10_28_S7 10/29/2015 02:40:00 0.0
2015_10_28_S7 10/29/2015 02:45:00 0.0
2015_10_28_S7 10/29/2015 02:50:00 0.0
2015_10_28_S7 10/29/2015 02:55:00 0.0
2015_10_28_S7 10/29/2015 03:00:00 0.0
2015_10_28_S7 10/29/2015 03:05:00 0.0
2015_10_28_S7 10/29/2015 03:10:00 0.0
2015_10_28_S7 10/29/2015 03:15:00 0.0
2015_10_28_S7 10/29/2015 03:20:00 0.0
2015_10_28_S7 10/29/2015 03:25:00 0.0
2015_10_28_S7 10/29/2015 03:30:00 0.0
2015_10_28_S7 10/29/2015 03:35:00 0.0
2015_10_28_S7 10/29/2015 03:40:00 0.0
2015_10_28_S7 10/29/2015 03:45:00 0.0
2015_10_28_S7 10/29/2015 03:50:00 0.0
2015_10_28_S7 10/29/2015 03:55:00 0.0
2015_10_28_S7 10/29/2015 04:00:00 0.0
2015_10_28_S7 10/29/2015 04:05:00 0.0
2015_10_28_S7 10/29/2015 04:10:00 0.0
2015_10_28_S7 10/29/2015 04:15:00 0.0
2015_10_28_S7 10/29/2015 04:20:00 0.0
2015_10_28_S7 10/29/2015 04:25:00 0.0
2015_10_28_S7 10/29/2015 04:30:00 0.0
2015_10_28_S7 10/29/2015 04:35:00 0.0
2015_10_28_S7 10/29/2015 04:40:00 0.0
2015_10_28_S7 10/29/2015 04:45:00 0.0
2015_10_28_S7 10/29/2015 04:50:00 0.0
2015_10_28_S7 10/29/2015 04:55:00 0.0
2015_10_28_S7 10/29/2015 05:00:00 0.0
2015_10_28_S7 10/29/2015 05:05:00 0.0
2015_10_28_S7 10/29/2015 05:10:00 0.0
2015_10_28_S7 10/29/2015 05:15:00 0.0
2015_10_28_S7 10/29/2015 05:20:00 0.0
2015_10_28_S7 10/29/2015 05:25:00 0.0
2015_10_28_S7 10/29/2015 05:30:00 0.0
2015_10_28_S7 10/29/2015 05:35:00 0.0
2015_10_28_S7 10/29/2015 05:40:00 0.0
2015_10_28_S7 10/29/2015 05:45:00 0.0
2015_10_28_S7 10/29/2015 05:50:00 0.0
2015_10_28_S7 10/29/2015 05:55:00 0.0082
2015_10_28_S7 10/29/2015 06:00:00 0.0135
2015_10_28_S7 10/29/2015 06:05:00 0.0
2015_10_28_S7 10/29/2015 06:10:00 0.0013
2015_10_28_S7 10/29/2015 06:15:00 0.0
2015_10_28_S7 10/29/2015 06:20:00 0.0
2015_10_28_S7 10/29/2015 06:25:00 0.0
2015_10_28_S7 10/29/2015 06:30:00 0.0
2015_10_28_S7 10/29/2015 06:35:00 0.0
2015_10_28_S7 10/29/2015 06:40:00 0.0
2015_10_28_S7 10/29/2015 06:45:00 0.0
2015_10_28_S7 10/29/2015 06:50:00 0.0
2015_10_28_S7 10/29/2015 06:55:00 0.0
2015_10_28_S7 10/29/2015 07:00:00 0.0
2015_10_28_S7 10/29/2015 07:05:00 0.0
2015_10_28_S7 10/29/2015 07:10:00 0.0
2015_10_28_S7 10/29/2015 07:15:00 0.0
2015_10_28_S7 10/29/2015 07:20:00 0.0
2015_10_28_S7 10/29/2015 07:25:00 0.0
2015_10_28_S7 10/29/2015 07:30:00 0.0
2015_10_28_S7 10/29/2015 07:35:00 0.0
2015_10_28_S7 10/29/2015 07:40:00 0.0
2015_10_28_S7 10/29/2015 07:45:00 0.0
2015_10_28_S7 10/29/2015 07:50:00 0.0
2015_10_28_S7 10/29/2015 07:55:00 0.0
2015_10_28_S7 10/29/2015 08:00:00 0.0

2015_10_28_S8 10/28/2015 10:25:00 0.0324
2015_10_28_S8 10/28/2015 10:30:00 0.0
2015_10_28_S8 10/28/2015 10:35:00 0.0643
2015_10_28_S8 10/28/2015 10:40:00 0.054
2015_10_28_S8 10/28/2015 10:45:00 0.0491
2015_10_28_S8 10/28/2015 10:50:00 0.1591
2015_10_28_S8 10/28/2015 10:55:00 0.3259
2015_10_28_S8 10/28/2015 11:00:00 1.0463
2015_10_28_S8 10/28/2015 11:05:00 1.5447
2015_10_28_S8 10/28/2015 11:10:00 1.4121
2015_10_28_S8 10/28/2015 11:15:00 2.5712
2015_10_28_S8 10/28/2015 11:20:00 9.8792
2015_10_28_S8 10/28/2015 11:25:00 10.4599
2015_10_28_S8 10/28/2015 11:30:00 11.0407
2015_10_28_S8 10/28/2015 11:35:00 0.7814
2015_10_28_S8 10/28/2015 11:40:00 2.9985
2015_10_28_S8 10/28/2015 11:45:00 2.384
2015_10_28_S8 10/28/2015 11:50:00 7.6768
2015_10_28_S8 10/28/2015 11:55:00 11.0305
2015_10_28_S8 10/28/2015 12:00:00 4.8468
2015_10_28_S8 10/28/2015 12:05:00 2.8502
2015_10_28_S8 10/28/2015 12:10:00 11.2784
2015_10_28_S8 10/28/2015 12:15:00 1.2255
2015_10_28_S8 10/28/2015 12:20:00 0.2869
2015_10_28_S8 10/28/2015 12:25:00 0.5374
2015_10_28_S8 10/28/2015 12:30:00 0.0078
2015_10_28_S8 10/28/2015 12:35:00 0.1205
2015_10_28_S8 10/28/2015 12:40:00 1.6618
2015_10_28_S8 10/28/2015 12:45:00 0.4678
2015_10_28_S8 10/28/2015 12:50:00 1.0505
2015_10_28_S8 10/28/2015 12:55:00 0.0574
2015_10_28_S8 10/28/2015 13:00:00 0.0081
2015_10_28_S8 10/28/2015 13:05:00 0.0
2015_10_28_S8 10/28/2015 13:10:00 0.0
2015_10_28_S8 10/28/2015 13:15:00 0.0041
2015_10_28_S8 10/28/2015 13:20:00 0.0
2015_10_28_S8 10/28/2015 13:25:00 0.0
2015_10_28_S8 10/28/2015 13:30:00 0.0
2015_10_28_S8 10/28/2015 13:35:00 0.0
2015_10_28_S8 10/28/2015 13:40:00 0.0
2015_10_28_S8 10/28/2015 13:45:00 0.0
2015_10_28_S8 10/28/2015 13:50:00 0.0
2015_10_28_S8 10/28/2015 13:55:00 0.0
2015_10_28_S8 10/28/2015 14:00:00 0.0
2015_10_28_S8 10/28/2015 14:05:00 0.0
2015_10_28_S8 10/28/2015 14:10:00 0.0
2015_10_28_S8 10/28/2015 14:15:00 0.0
2015_10_28_S8 10/28/2015 14:20:00 0.0097
2015_10_28_S8 10/28/2015 14:25:00 0.1311
2015_10_28_S8 10/28/2015 14:30:00 0.0013
2015_10_28_S8 10/28/2015 14:35:00 0.0
2015_10_28_S8 10/28/2015 14:40:00 0.0
2015_10_28_S8 10/28/2015 14:45:00 0.0
2015_10_28_S8 10/28/2015 14:50:00 0.0
2015_10_28_S8 10/28/2015 14:55:00 0.0
2015_10_28_S8 10/28/2015 15:00:00 0.0
2015_10_28_S8 10/28/2015 15:05:00 0.0
2015_10_28_S8 10/28/2015 15:10:00 0.0
2015_10_28_S8 10/28/2015 15:15:00 0.0
2015_10_28_S8 10/28/2015 15:20:00 0.0
2015_10_28_S8 10/28/2015 15:25:00 0.0
2015_10_28_S8 10/28/2015 15:30:00 0.0
2015_10_28_S8 10/28/2015 15:35:00 0.0
2015_10_28_S8 10/28/2015 15:40:00 0.0
2015_10_28_S8 10/28/2015 15:45:00 0.0
2015_10_28_S8 10/28/2015 15:50:00 0.0
2015_10_28_S8 10/28/2015 15:55:00 0.0
2015_10_28_S8 10/28/2015 16:00:00 0.0
2015_10_28_S8 10/28/2015 16:05:00 0.0
2015_10_28_S8 10/28/2015 16:10:00 0.0
2015_10_28_S8 10/28/2015 16:15:00 0.0265
2015_10_28_S8 10/28/2015 16:20:00 0.0139
2015_10_28_S8 10/28/2015 16:25:00 0.0
2015_10_28_S8 10/28/2015 16:30:00 0.0
2015_10_28_S8 10/28/2015 16:35:00 0.0
2015_10_28_S8 10/28/2015 16:40:00 0.0175
2015_10_28_S8 10/28/2015 16:45:00 0.0
2015_10_28_S8 10/28/2015 16:50:00 0.0
2015_10_28_S8 10/28/2015 16:55:00 0.0
2015_10_28_S8 10/28/2015 17:00:00 0.0533
2015_10_28_S8 10/28/2015 17:05:00 0.0
2015_10_28_S8 10/28/2015 17:10:00 0.0
2015_10_28_S8 10/28/2015 17:15:00 0.0
2015_10_28_S8 10/28/2015 17:20:00 0.0
2015_10_28_S8 10/28/2015 17:25:00 0.0
2015_10_28_S8 10/28/2015 17:30:00 0.0
2015_10_28_S8 10/28/2015 17:35:00 0.0
2015_10_28_S8 10/28/2015 17:40:00 0.0
2015_10_28_S8 10/28/2015 17:45:00 0.0
2015_10_28_S8 10/28/2015 17:50:00 0.0
2015_10_28_S8 10/28/2015 17:55:00 0.0
2015_10_28_S8 10/28/2015 18:00:00 0.0
2015_10_28_S8 10/28/2015 18:05:00 0.0
2015_10_28_S8 10/28/2015 18:10:00 0.0
2015_10_28_S8 10/28/2015 18:15:00 0.0
2015_10_28_S8 10/28/2015 18:20:00 0.0
2015_10_28_S8 10/28/2015 18:25:00 0.0
2015_10_28_S8 10/28/2015 18:30:00 0.0
2015_10_28_S8 10/28/2015 18:35:00 0.0
2015_10_28_S8 10/28/2015 18:40:00 0.0
2015_10_28_S8 10/28/2015 18:45:00 0.0
2015_10_28_S8 10/28/2015 18:50:00 0.0
2015_10_28_S8 10/28/2015 18:55:00 0.0
2015_10_28_S8 10/28/2015 19:00:00 0.0
2015_10_28_S8 10/28/2015 19:05:00 0.0
2015_10_28_S8 10/28/2015 19:10:00 0.0
2015_10_28_S8 10/28/2015 19:15:00 0.0
2015_10_28_S8 10/28/2015 19:20:00 0.0
2015_10_28_S8 10/28/2015 19:25:00 0.0
2015_10_28_S8 10/28/2015 19:30:00 0.0
2015_10_28_S8 10/28/2015 19:35:00 0.0
2015_10_28_S8 10/28/2015 19:40:00 0.0
2015_10_28_S8 10/28/2015 19:45:00 0.0
2015_10_28_S8 10/28/2015 19:50:00 0.0
2015_10_28_S8 10/28/2015 19:55:00 0.0
2015_10_28_S8 10/28/2015 20:00:00 0.0
2015_10_28_S8 10/28/2015 20:05:00 0.0
2015_10_28_S8 10/28/2015 20:10:00 0.0
2015_10_28_S8 10/28/2015 20:15:00 0.0
2015_10_28_S8 10/28/2015 20:20:00 0.0
2015_10_28_S8 10/28/2015 20:25:00 0.0
2015_10_28_S8 10/28/2015 20:30:00 0.0
2015_10_28_S8 10/28/2015 20:35:00 0.0
2015_10_28_S8 10/28/2015 20:40:00 0.0
2015_10_28_S8 10/28/2015 20:45:00 0.0
2015_10_28_S8 10/28/2015 20:50:00 0.0
2015_10_28_S8 10/28/2015 20:55:00 0.0
2015_10_28_S8 10/28/2015 21:00:00 0.0
2015_10_28_S8 10/28/2015 21:05:00 0.0
2015_10_28_S8 10/28/2015 21:10:00 0.0
2015_10_28_S8 10/28/2015 21:15:00 0.0
2015_10_28_S8 10/28/2015 21:20:00 0.0
2015_10_28_S8 10/28/2015 21:25:00 0.0
2015_10_28_S8 10/28/2015 21:30:00 0.0
2015_10_28_S8 10/28/2015 21:35:00 0.0
2015_10_28_S8 10/28/2015 21:40:00 0.0
2015_10_28_S8 10/28/2015 21:45:00 0.0
2015_10_28_S8 10/28/2015 21:50:00 0.0
2015_10_28_S8 10/28/2015 21:55:00 0.0
2015_10_28_S8 10/28/2015 22:00:00 0.0
2015_10_28_S8 10/28/2015 22:05:00 0.0
2015_10_28_S8 10/28/2015 22:10:00 0.0
2015_10_28_S8 10/28/2015 22:15:00 0.0
2015_10_28_S8 10/28/2015 22:20:00 0.0
2015_10_28_S8 10/28/2015 22:25:00 0.0
2015_10_28_S8 10/28/2015 22:30:00 0.0
2015_10_28_S8 10/28/2015 22:35:00 0.0
2015_10_28_S8 10/28/2015 22:40:00 0.0
2015_10_28_S8 10/28/2015 22:45:00 0.0028
2015_10_28_S8 10/28/2015 22:50:00 3.2582
2015_10_28_S8 10/28/2015 22:55:00 8.7765
2015_10_28_S8 10/28/2015 23:00:00 0.1004
2015_10_28_S8 10/28/2015 23:05:00 0.0
2015_10_28_S8 10/28/2015 23:10:00 0.0
2015_10_28_S8 10/28/2015 23:15:00 0.0
2015_10_28_S8 10/28/2015 23:20:00 0.0
2015_10_28_S8 10/28/2015 23:25:00 0.0
2015_10_28_S8 10/28/2015 23:30:00 0.0113
2015_10_28_S8 10/28/2015 23:35:00 0.0188
2015_10_28_S8 10/28/2015 23:40:00 0.0167
2015_10_28_S8 10/28/2015 23:45:00 0.0256
2015_10_28_S8 10/28/2015 23:50:00 0.0932
2015_10_28_S8 10/28/2015 23:55:00 0.1201
2015_10_28_S8 10/29/2015 00:00:00 0.0712
2015_10_28_S8 10/29/2015 00:05:00 0.0106
2015_10_28_S8 10/29/2015 00:10:00 0.0
2015_10_28_S8 10/29/2015 00:15:00 0.0
2015_10_28_S8 10/29/2015 00:20:00 0.0
2015_10_28_S8 10/29/2015 00:25:00 0.007
2015_10_28_S8 10/29/2015 00:30:00 0.0103
2015_10_28_S8 10/29/2015 00:35:00 0.0124
2015_10_28_S8 10/29/2015 00:40:00 0.1344
2015_10_28_S8 10/29/2015 00:45:00 0.3538
2015_10_28_S8 10/29/2015 00:50:00 0.2448
2015_10_28_S8 10/29/2015 00:55:00 0.179
2015_10_28_S8 10/29/2015 01:00:00 0.1032
2015_10_28_S8 10/29/2015 01:05:00 0.1123
2015_10_28_S8 10/29/2015 01:10:00 0.0794
2015_10_28_S8 10/29/2015 01:15:00 0.0684
2015_10_28_S8 10/29/2015 01:20:00 0.1032
2015_10_28_S8 10/29/2015 01:25:00 0.0974
2015_10_28_S8 10/29/2015 01:30:00 0.1088
2015_10_28_S8 10/29/2015 01:35:00 0.1755
2015_10_28_S8 10/29/2015 01:40:00 0.2147
2015_10_28_S8 10/29/2015 01:45:00 0.1491
2015_10_28_S8 10/29/2015 01:50:00 0.0139
2015_10_28_S8 10/29/2015 01:55:00 0.0
2015_10_28_S8 10/29/2015 02:00:00 0.0
2015_10_28_S8 10/29/2015 02:05:00 0.0
2015_10_28_S8 10/29/2015 02:10:00 0.0
2015_10_28_S8 10/29/2015 02:15:00 0.0
2015_10_28_S8 10/29/2015 02:20:00 0.0
2015_10_28_S8 10/29/2015 02:25:00 0.0
2015_10_28_S8 10/29/2015 02:30:00 0.0
2015_10_28_S8 10/29/2015 02:35:00 0.0
2015_10_28_S8 10/29/2015 02:40:00 0.0
2015_10_28_S8 10/29/2015 02:45:00 0.0
2015_10_28_S8 10/29/2015 02:50:00 0.0
2015_10_28_S8 10/29/2015 02:55:00 0.0
2015_10_28_S8 10/29/2015 03:00:00 0.0
2015_10_28_S8 10/29/2015 03:05:00 0.0
2015_10_28_S8 10/29/2015 03:10:00 0.0
2015_10_28_S8 10/29/2015 03:15:00 0.0
2015_10_28_S8 10/29/2015 03:20:00 0.0
2015_10_28_S8 10/29/2015 03:25:00 0.0
2015_10_28_S8 10/29/2015 03:30:00 0.0
2015_10_28_S8 10/29/2015 03:35:00 0.0
2015_10_28_S8 10/29/2015 03:40:00 0.0
2015_10_28_S8 10/29/2015 03:45:00 0.0
2015_10_28_S8 10/29/2015 03:50:00 0.0
2015_10_28_S8 10/29/2015 03:55:00 0.0
2015_10_28_S8 10/29/2015 04:00:00 0.0
2015_10_28_S8 10/29/2015 04:05:00 0.0
2015_10_28_S8 10/29/2015 04:10:00 0.0
2015_10_28_S8 10/29/2015 04:15:00 0.0
2015_10_28_S8 10/29/2015 04:20:00 0.0
2015_10_28_S8 10/29/2015 04:25:00 0.0
2015_10_28_S8 10/29/2015 04:30:00 0.0
2015_10_28_S8 10/29/2015 04:35:00 0.0
2015_10_28_S8 10/29/2015 04:40:00 0.0
2015_10_28_S8 10/29/2015 04:45:00 0.0
2015_10_28_S8 10/29/2015 04:50:00 0.0
2015_10_28_S8 10/29/2015 04:55:00 0.0
2015_10_28_S8 10/29/2015 05:00:00 0.0
2015_10_28_S8 10/29/2015 05:05:00 0.0
2015_10_28_S8 10/29/2015 05:10:00 0.0
2015_10_28_S8 10/29/2015 05:15:00 0.0
2015_10_28_S8 10/29/2015 05:20:00 0.0
2015_10_28_S8 10/29/2015 05:25:00 0.0
2015_10_28_S8 10/29/2015 05:30:00 0.0
2015_10_28_S8 10/29/2015 05:35:00 0.0
2015_10_28_S8 10/29/2015 05:40:00 0.0
2015_10_28_S8 10/29/2015 05:45:00 0.0
2015_10_28_S8 10/29/2015 05:50:00 0.0
2015_10_28_S8 10/29/2015 05:55:00 0.0012
2015_10_28_S8 10/29/2015 06:00:00 0.0031
2015_10_28_S8 10/29/2015 06:05:00 0.0
2015_10_28_S8 10/29/2015 06:10:00 0.0
2015_10_28_S8 10/29/2015 06:15:00 0.0
2015_10_28_S8 10/29/2015 06:20:00 0.0
2015_10_28_S8 10/29/2015 06:25:00 0.0
2015_10_28_S8 10/29/2015 06:30:00 0.0
2015_10_28_S8 10/29/2015 06:35:00 0.0
2015_10_28_S8 10/29/2015 06:40:00 0.0
2015_10_28_S8 10/29/2015 06:45:00 0.0
2015_10_28_S8 10/29/2015 06:50:00 0.0
2015_10_28_S8 10/29/2015 06:55:00 0.0
2015_10_28_S8 10/29/2015 07:00:00 0.0
2015_10_28_S8 10/29/2015 07:05:00 0.0
2015_10_28_S8 10/29/2015 07:10:00 0.0
2015_10_28_S8 10/29/2015 07:15:00 0.0
2015_10_28_S8 10/29/2015 07:20:00 0.0
2015_10_28_S8 10/29/2015 07:25:00 0.0
2015_10_28_S8 10/29/2015 07:30:00 0.0
2015_10_28_S8 10/29/2015 07:35:00 0.0
2015_10_28_S8 10/29/2015 07:40:00 0.0
2015_10_28_S8 10/29/2015 07:45:00 0.0
2015_10_28_S8 10/29/2015 07:50:00 0.0
2015_10_28_S8 10/29/2015 07:55:00 0.0
2015_10_28_S8 10/29/2015 08:00:00 0.0

2015_10_28_S9 10/28/2015 10:25:00 0.0255
2015_10_28_S9 10/28/2015 10:30:00 0.0
2015_10_28_S9 10/28/2015 10:35:00 0.0659
2015_10_28_S9 10/28/2015 10:40:00 0.0825
2015_10_28_S9 10/28/2015 10:45:00 0.1697
2015_10_28_S9 10/28/2015 10:50:00 0.2702
2015_10_28_S9 10/28/2015 10:55:00 0.3751
2015_10_28_S9 10/28/2015 11:00:00 1.2884
2015_10_28_S9 10/28/2015 11:05:00 2.0111
2015_10_28_S9 10/28/2015 11:10:00 1.1545
2015_10_28_S9 10/28/2015 11:15:00 1.8255
2015_10_28_S9 10/28/2015 11:20:00 8.1417
2015_10_28_S9 10/28/2015 11:25:00 9.4941
2015_10_28_S9 10/28/2015 11:30:00 10.8465
2015_10_28_S9 10/28/2015 11:35:00 0.9351
2015_10_28_S9 10/28/2015 11:40:00 2.692
2015_10_28_S9 10/28/2015 11:45:00 2.6444
2015_10_28_S9 10/28/2015 11:50:00 9.116
2015_10_28_S9 10/28/2015 11:55:00 12.8154
2015_10_28_S9 10/28/2015 12:00:00 5.6716
2015_10_28_S9 10/28/2015 12:05:00 7.402
2015_10_28_S9 10/28/2015 12:10:00 7.1359
2015_10_28_S9 10/28/2015 12:15:00 0.2266
2015_10_28_S9 10/28/2015 12:20:00 1.1324
2015_10_28_S9 10/28/2015 12:25:00 0.1303
2015_10_28_S9 10/28/2015 12:30:00 0.0061
2015_10_28_S9 10/28/2015 12:35:00 0.0931
2015_10_28_S9 10/28/2015 12:40:00 2.3179
2015_10_28_S9 10/28/2015 12:45:00 0.3985
2015_10_28_S9 10/28/2015 12:50:00 0.1815
2015_10_28_S9 10/28/2015 12:55:00 0.0181
2015_10_28_S9 10/28/2015 13:00:00 0.0035
2015_10_28_S9 10/28/2015 13:05:00 0.0001
2015_10_28_S9 10/28/2015 13:10:00 0.0
2015_10_28_S9 10/28/2015 13:15:00 0.001
2015_10_28_S9 10/28/2015 13:20:00 0.0
2015_10_28_S9 10/28/2015 13:25:00 0.0
2015_10_28_S9 10/28/2015 13:30:00 0.0
2015_10_28_S9 10/28/2015 13:35:00 0.0
2015_10_28_S9 10/28/2015 13:40:00 0.0
2015_10_28_S9 10/28/2015 13:45:00 0.0
2015_10_28_S9 10/28/2015 13:50:00 0.0
2015_10_28_S9 10/28/2015 13:55:00 0.0
2015_10_28_S9 10/28/2015 14:00:00 0.0
2015_10_28_S9 10/28/2015 14:05:00 0.0
2015_10_28_S9 10/28/2015 14:10:00 0.0
2015_10_28_S9 10/28/2015 14:15:00 0.0
2015_10_28_S9 10/28/2015 14:20:00 0.0145
2015_10_28_S9 10/28/2015 14:25:00 0.0851
2015_10_28_S9 10/28/2015 14:30:00 0.0
2015_10_28_S9 10/28/2015 14:35:00 0.0
2015_10_28_S9 10/28/2015 14:40:00 0.0
2015_10_28_S9 10/28/2015 14:45:00 0.0
2015_10_28_S9 10/28/2015 14:50:00 0.0
2015_10_28_S9 10/28/2015 14:55:00 0.0
2015_10_28_S9 10/28/2015 15:00:00 0.0
2015_10_28_S9 10/28/2015 15:05:00 0.0
2015_10_28_S9 10/28/2015 15:10:00 0.0
2015_10_28_S9 10/28/2015 15:15:00 0.0
2015_10_28_S9 10/28/2015 15:20:00 0.0
2015_10_28_S9 10/28/2015 15:25:00 0.0
2015_10_28_S9 10/28/2015 15:30:00 0.0
2015_10_28_S9 10/28/2015 15:35:00 0.0
2015_10_28_S9 10/28/2015 15:40:00 0.0
2015_10_28_S9 10/28/2015 15:45:00 0.0
2015_10_28_S9 10/28/2015 15:50:00 0.0
2015_10_28_S9 10/28/2015 15:55:00 0.0
2015_10_28_S9 10/28/2015 16:00:00 0.0
2015_10_28_S9 10/28/2015 16:05:00 0.0
2015_10_28_S9 10/28/2015 16:10:00 0.0045
2015_10_28_S9 10/28/2015 16:15:00 0.0323
2015_10_28_S9 10/28/2015 16:20:00 0.0128
2015_10_28_S9 10/28/2015 16:25:00 0.0
2015_10_28_S9 10/28/2015 16:30:00 0.0
2015_10_28_S9 10/28/2015 16:35:00 0.0
2015_10_28_S9 10/28/2015 16:40:00 0.0299
2015_10_28_S9 10/28/2015 16:45:00 0.0
2015_10_28_S9 10/28/2015 16:50:00 0.0
2015_10_28_S9 10/28/2015 16:55:00 0.0
2015_10_28_S9 10/28/2015 17:00:00 0.0274
2015_10_28_S9 10/28/2015 17:05:00 0.0
2015_10_28_S9 10/28/2015 17:10:00 0.0
2015_10_28_S9 10/28/2015 17:15:00 0.0
2015_10_28_S9 10/28/2015 17:20:00 0.0
2015_10_28_S9 10/28/2015 17:25:00 0.0
2015_10_28_S9 10/28/2015 17:30:00 0.0
2015_10_28_S9 10/28/2015 17:35:00 0.0
2015_10_28_S9 10/28/2015 17:40:00 0.0
2015_10_28_S9 10/28/2015 17:45:00 0.0
2015_10_28_S9 10/28/2015 17:50:00 0.0
2015_10_28_S9 10/28/2015 17:55:00 0.0
2015_10_28_S9 10/28/2015 18:00:00 0.0
2015_10_28_S9 10/28/2015 18:05:00 0.0
2015_10_28_S9 10/28/2015 18:10:00 0.0
2015_10_28_S9 10/28/2015 18:15:00 0.0
2015_10_28_S9 10/28/2015 18:20:00 0.0
2015_10_28_S9 10/28/2015 18:25:00 0.0
2015_10_28_S9 10/28/2015 18:30:00 0.0
2015_10_28_S9 10/28/2015 18:35:00 0.0
2015_10_28_S9 10/28/2015 18:40:00 0.0
2015_10_28_S9 10/28/2015 18:45:00 0.0
2015_10_28_S9 10/28/2015 18:50:00 0.0
2015_10_28_S9 10/28/2015 18:55:00 0.0
2015_10_28_S9 10/28/2015 19:00:00 0.0
2015_10_28_S9 10/28/2015 19:05:00 0.0
2015_10_28_S9 10/28/2015 19:10:00 0.0
2015_10_28_S9 10/28/2015 19:15:00 0.0
2015_10_28_S9 10/28/2015 19:20:00 0.0
2015_10_28_S9 10/28/2015 19:25:00 0.0
2015_10_28_S9 10/28/2015 19:30:00 0.0
2015_10_28_S9 10/28/2015 19:35:00 0.0
2015_10_28_S9 10/28/2015 19:40:00 0.0
2015_10_28_S9 10/28/2015 19:45:00 0.0
2015_10_28_S9 10/28/2015 19:50:00 0.0
2015_10_28_S9 10/28/2015 19:55:00 0.0
2015_10_28_S9 10/28/2015 20:00:00 0.0
2015_10_28_S9 10/28/2015 20:05:00 0.0
2015_10_28_S9 10/28/2015 20:10:00 0.0
2015_10_28_S9 10/28/2015 20:15:00 0.0
2015_10_28_S9 10/28/2015 20:20:00 0.0
2015_10_28_S9 10/28/2015 20:25:00 0.0
2015_10_28_S9 10/28/2015 20:30:00 0.0
2015_10_28_S9 10/28/2015 20:35:00 0.0
2015_10_28_S9 10/28/2015 20:40:00 0.0
2015_10_28_S9 10/28/2015 20:45:00 0.0
2015_10_28_S9 10/28/2015 20:50:00 0.0
2015_10_28_S9 10/28/2015 20:55:00 0.0
2015_10_28_S9 10/28/2015 21:00:00 0.0
2015_10_28_S9 10/28/2015 21:05:00 0.0
2015_10_28_S9 10/28/2015 21:10:00 0.0
2015_10_28_S9 10/28/2015 21:15:00 0.0
2015_10_28_S9 10/28/2015 21:20:00 0.0
2015_10_28_S9 10/28/2015 21:25:00 0.0
2015_10_28_S9 10/28/2015 21:30:00 0.0
2015_10_28_S9 10/28/2015 21:35:00 0.0
2015_10_28_S9 10/28/2015 21:40:00 0.0
2015_10_28_S9 10/28/2015 21:45:00 0.0
2015_10_28_S9 10/28/2015 21:50:00 0.0
2015_10_28_S9 10/28/2015 21:55:00 0.0
2015_10_28_S9 10/28/2015 22:00:00 0.0
2015_10_28_S9 10/28/2015 22:05:00 0.0
2015_10_28_S9 10/28/2015 22:10:00 0.0
2015_10_28_S9 10/28/2015 22:15:00 0.0
2015_10_28_S9 10/28/2015 22:20:00 0.0
2015_10_28_S9 10/28/2015 22:25:00 0.0
2015_10_28_S9 10/28/2015 22:30:00 0.0
2015_10_28_S9 10/28/2015 22:35:00 0.0
2015_10_28_S9 10/28/2015 22:40:00 0.0
2015_10_28_S9 10/28/2015 22:45:00 0.0367
2015_10_28_S9 10/28/2015 22:50:00 3.7617
2015_10_28_S9 10/28/2015 22:55:00 4.0687
2015_10_28_S9 10/28/2015 23:00:00 0.0225
2015_10_28_S9 10/28/2015 23:05:00 0.0
2015_10_28_S9 10/28/2015 23:10:00 0.0
2015_10_28_S9 10/28/2015 23:15:00 0.0
2015_10_28_S9 10/28/2015 23:20:00 0.0
2015_10_28_S9 10/28/2015 23:25:00 0.0
2015_10_28_S9 10/28/2015 23:30:00 0.012
2015_10_28_S9 10/28/2015 23:35:00 0.0271
2015_10_28_S9 10/28/2015 23:40:00 0.0216
2015_10_28_S9 10/28/2015 23:45:00 0.0469
2015_10_28_S9 10/28/2015 23:50:00 0.1028
2015_10_28_S9 10/28/2015 23:55:00 0.1174
2015_10_28_S9 10/29/2015 00:00:00 0.0529
2015_10_28_S9 10/29/2015 00:05:00 0.0033
2015_10_28_S9 10/29/2015 00:10:00 0.0
2015_10_28_S9 10/29/2015 00:15:00 0.0
2015_10_28_S9 10/29/2015 00:20:00 0.0
2015_10_28_S9 10/29/2015 00:25:00 0.0133
2015_10_28_S9 10/29/2015 00:30:00 0.0004
2015_10_28_S9 10/29/2015 00:35:00 0.0464
2015_10_28_S9 10/29/2015 00:40:00 0.2542
2015_10_28_S9 10/29/2015 00:45:00 0.5861
2015_10_28_S9 10/29/2015 00:50:00 0.1789
2015_10_28_S9 10/29/2015 00:55:00 0.1768
2015_10_28_S9 10/29/2015 01:00:00 0.1225
2015_10_28_S9 10/29/2015 01:05:00 0.1161
2015_10_28_S9 10/29/2015 01:10:00 0.0758
2015_10_28_S9 10/29/2015 01:15:00 0.0522
2015_10_28_S9 10/29/2015 01:20:00 0.0869
2015_10_28_S9 10/29/2015 01:25:00 0.101
2015_10_28_S9 10/29/2015 01:30:00 0.1178
2015_10_28_S9 10/29/2015 01:35:00 0.1424
2015_10_28_S9 10/29/2015 01:40:00 0.2082
2015_10_28_S9 10/29/2015 01:45:00 0.1247
2015_10_28_S9 10/29/2015 01:50:00 0.0049
2015_10_28_S9 10/29/2015 01:55:00 0.0
2015_10_28_S9 10/29/2015 02:00:00 0.0
2015_10_28_S9 10/29/2015 02:05:00 0.0
2015_10_28_S9 10/29/2015 02:10:00 0.0
2015_10_28_S9 10/29/2015 02:15:00 0.0
2015_10_28_S9 10/29/2015 02:20:00 0.0
2015_10_28_S9 10/29/2015 02:25:00 0.0
2015_10_28_S9 10/29/2015 02:30:00 0.0
2015_10_28_S9 10/29/2015 02:35:00 0.0
2015_10_28_S9 10/29/2015 02:40:00 0.0
2015_10_28_S9 10/29/2015 02:45:00 0.0
2015_10_28_S9 10/29/2015 02:50:00 0.0
2015_10_28_S9 10/29/2015 02:55:00 0.0
2015_10_28_S9 10/29/2015 03:00:00 0.0
2015_10_28_S9 10/29/2015 03:05:00 0.0
2015_10_28_S9 10/29/2015 03:10:00 0.0
2015_10_28_S9 10/29/2015 03:15:00 0.0
2015_10_28_S9 10/29/2015 03:20:00 0.0
2015_10_28_S9 10/29/2015 03:25:00 0.0
2015_10_28_S9 10/29/2015 03:30:00 0.0
2015_10_28_S9 10/29/2015 03:35:00 0.0
2015_10_28_S9 10/29/2015 03:40:00 0.0
2015_10_28_S9 10/29/2015 03:45:00 0.0
2015_10_28_S9 10/29/2015 03:50:00 0.0
2015_10_28_S9 10/29/2015 03:55:00 0.0
2015_10_28_S9 10/29/2015 04:00:00 0.0
2015_10_28_S9 10/29/2015 04:05:00 0.0
2015_10_28_S9 10/29/2015 04:10:00 0.0
2015_10_28_S9 10/29/2015 04:15:00 0.0
2015_10_28_S9 10/29/2015 04:20:00 0.0
2015_10_28_S9 10/29/2015 04:25:00 0.0
2015_10_28_S9 10/29/2015 04:30:00 0.0
2015_10_28_S9 10/29/2015 04:35:00 0.0
2015_10_28_S9 10/29/2015 04:40:00 0.0
2015_10_28_S9 10/29/2015 04:45:00 0.0
2015_10_28_S9 10/29/2015 04:50:00 0.0
2015_10_28_S9 10/29/2015 04:55:00 0.0
2015_10_28_S9 10/29/2015 05:00:00 0.0
2015_10_28_S9 10/29/2015 05:05:00 0.0
2015_10_28_S9 10/29/2015 05:10:00 0.0
2015_10_28_S9 10/29/2015 05:15:00 0.0
2015_10_28_S9 10/29/2015 05:20:00 0.0
2015_10_28_S9 10/29/2015 05:25:00 0.0
2015_10_28_S9 10/29/2015 05:30:00 0.0
2015_10_28_S9 10/29/2015 05:35:00 0.0
2015_10_28_S9 10/29/2015 05:40:00 0.0
2015_10_28_S9 10/29/2015 05:45:00 0.0
2015_10_28_S9 10/29/2015 05:50:00 0.0
2015_10_28_S9 10/29/2015 05:55:00 0.0011
2015_10_28_S9 10/29/2015 06:00:00 0.0146
2015_10_28_S9 10/29/2015 06:05:00 0.0
2015_10_28_S9 10/29/2015 06:10:00 0.0
2015_10_28_S9 10/29/2015 06:15:00 0.0
2015_10_28_S9 10/29/2015 06:20:00 0.0
2015_10_28_S9 10/29/2015 06:25:00 0.0
2015_10_28_S9 10/29/2015 06:30:00 0.0
2015_10_28_S9 10/29/2015 06:35:00 0.0
2015_10_28_S9 10/29/2015 06:40:00 0.0
2015_10_28_S9 10/29/2015 06:45:00 0.0
2015_10_28_S9 10/29/2015 06:50:00 0.0
2015_10_28_S9 10/29/2015 06:55:00 0.0
2015_10_28_S9 10/29/2015 07:00:00 0.0
2015_10_28_S9 10/29/2015 07:05:00 0.0
2015_10_28_S9 10/29/2015 07:10:00 0.0
2015_10_28_S9 10/29/2015 07:15:00 0.0
2015_10_28_S9 10/29/2015 07:20:00 0.0
2015_10_28_S9 10/29/2015 07:25:00 0.0
2015_10_28_S9 10/29/2015 07:30:00 0.0
2015_10_28_S9 10/29/2015 07:35:00 0.0
2015_10_28_S9 10/29/2015 07:40:00 0.0
2015_10_28_S9 10/29/2015 07:45:00 0.0
2015_10_28_S9 10/29/2015 07:50:00 0.0
2015_10_28_S9 10/29/2015 07:55:00 0.0
2015_10_28_S9 10/29/2015 08:00:00 0.0

2015_10_28_S10 10/28/2015 10:25:00 0.0147
2015_10_28_S10 10/28/2015 10:30:00 0.0028
2015_10_28_S10 10/28/2015 10:35:00 0.1143
2015_10_28_S10 10/28/2015 10:40:00 0.1204
2015_10_28_S10 10/28/2015 10:45:00 0.1633
2015_10_28_S10 10/28/2015 10:50:00 0.6996
2015_10_28_S10 10/28/2015 10:55:00 0.2256
2015_10_28_S10 10/28/2015 11:00:00 0.6782
2015_10_28_S10 10/28/2015 11:05:00 3.1054
2015_10_28_S10 10/28/2015 11:10:00 2.6553
2015_10_28_S10 10/28/2015 11:15:00 2.891
2015_10_28_S10 10/28/2015 11:20:00 3.823
2015_10_28_S10 10/28/2015 11:25:00 4.0374
2015_10_28_S10 10/28/2015 11:30:00 4.2518
2015_10_28_S10 10/28/2015 11:35:00 2.48
2015_10_28_S10 10/28/2015 11:40:00 3.6961
2015_10_28_S10 10/28/2015 11:45:00 11.7366
2015_10_28_S10 10/28/2015 11:50:00 12.7434
2015_10_28_S10 10/28/2015 11:55:00 12.1697
2015_10_28_S10 10/28/2015 12:00:00 3.1618
2015_10_28_S10 10/28/2015 12:05:00 7.7401
2015_10_28_S10 10/28/2015 12:10:00 8.7757
2015_10_28_S10 10/28/2015 12:15:00 0.0288
2015_10_28_S10 10/28/2015 12:20:00 2.2493
2015_10_28_S10 10/28/2015 12:25:00 0.1313
2015_10_28_S10 10/28/2015 12:30:00 0.0094
2015_10_28_S10 10/28/2015 12:35:00 0.1782
2015_10_28_S10 10/28/2015 12:40:00 1.2215
2015_10_28_S10 10/28/2015 12:45:00 0.9714
2015_10_28_S10 10/28/2015 12:50:00 0.0627
2015_10_28_S10 10/28/2015 12:55:00 0.0099
2015_10_28_S10 10/28/2015 13:00:00 0.0023
2015_10_28_S10 10/28/2015 13:05:00 0.0045
2015_10_28_S10 10/28/2015 13:10:00 0.0
2015_10_28_S10 10/28/2015 13:15:00 0.0
2015_10_28_S10 10/28/2015 13:20:00 0.0
2015_10_28_S10 10/28/2015 13:25:00 0.0
2015_10_28_S10 10/28/2015 13:30:00 0.0
2015_10_28_S10 10/28/2015 13:35:00 0.0
2015_10_28_S10 10/28/2015 13:40:00 0.0
2015_10_28_S10 10/28/2015 13:45:00 0.0
2015_10_28_S10 10/28/2015 13:50:00 0.0
2015_10_28_S10 10/28/2015 13:55:00 0.0
2015_10_28_S10 10/28/2015 14:00:00 0.0
2015_10_28_S10 10/28/2015 14:05:00 0.0
2015_10_28_S10 10/28/2015 14:10:00 0.0
2015_10_28_S10 10/28/2015 14:15:00 0.0
2015_10_28_S10 10/28/2015 14:20:00 0.0351
2015_10_28_S10 10/28/2015 14:25:00 0.0124
2015_10_28_S10 10/28/2015 14:30:00 0.0018
2015_10_28_S10 10/28/2015 14:35:00 0.0
2015_10_28_S10 10/28/2015 14:40:00 0.0
2015_10_28_S10 10/28/2015 14:45:00 0.0
2015_10_28_S10 10/28/2015 14:50:00 0.0
2015_10_28_S10 10/28/2015 14:55:00 0.0
2015_10_28_S10 10/28/2015 15:00:00 0.0
2015_10_28_S10 10/28/2015 15:05:00 0.0
2015_10_28_S10 10/28/2015 15:10:00 0.0
2015_10_28_S10 10/28/2015 15:15:00 0.0
2015_10_28_S10 10/28/2015 15:20:00 0.0
2015_10_28_S10 10/28/2015 15:25:00 0.0
2015_10_28_S10 10/28/2015 15:30:00 0.0
2015_10_28_S10 10/28/2015 15:35:00 0.0
2015_10_28_S10 10/28/2015 15:40:00 0.0
2015_10_28_S10 10/28/2015 15:45:00 0.0
2015_10_28_S10 10/28/2015 15:50:00 0.0
2015_10_28_S10 10/28/2015 15:55:00 0.0
2015_10_28_S10 10/28/2015 16:00:00 0.0
2015_10_28_S10 10/28/2015 16:05:00 0.0
2015_10_28_S10 10/28/2015 16:10:00 0.0086
2015_10_28_S10 10/28/2015 16:15:00 0.0354
2015_10_28_S10 10/28/2015 16:20:00 0.013
2015_10_28_S10 10/28/2015 16:25:00 0.0
2015_10_28_S10 10/28/2015 16:30:00 0.0025
2015_10_28_S10 10/28/2015 16:35:00 0.0
2015_10_28_S10 10/28/2015 16:40:00 0.0256
2015_10_28_S10 10/28/2015 16:45:00 0.0
2015_10_28_S10 10/28/2015 16:50:00 0.0
2015_10_28_S10 10/28/2015 16:55:00 0.0
2015_10_28_S10 10/28/2015 17:00:00 0.0116
2015_10_28_S10 10/28/2015 17:05:00 0.0
2015_10_28_S10 10/28/2015 17:10:00 0.0
2015_10_28_S10 10/28/2015 17:15:00 0.0
2015_10_28_S10 10/28/2015 17:20:00 0.0
2015_10_28_S10 10/28/2015 17:25:00 0.0
2015_10_28_S10 10/28/2015 17:30:00 0.0
2015_10_28_S10 10/28/2015 17:35:00 0.0
2015_10_28_S10 10/28/2015 17:40:00 0.0
2015_10_28_S10 10/28/2015 17:45:00 0.0
2015_10_28_S10 10/28/2015 17:50:00 0.0
2015_10_28_S10 10/28/2015 17:55:00 0.0
2015_10_28_S10 10/28/2015 18:00:00 0.0
2015_10_28_S10 10/28/2015 18:05:00 0.0
2015_10_28_S10 10/28/2015 18:10:00 0.0
2015_10_28_S10 10/28/2015 18:15:00 0.0
2015_10_28_S10 10/28/2015 18:20:00 0.0
2015_10_28_S10 10/28/2015 18:25:00 0.0
2015_10_28_S10 10/28/2015 18:30:00 0.0
2015_10_28_S10 10/28/2015 18:35:00 0.0
2015_10_28_S10 10/28/2015 18:40:00 0.0
2015_10_28_S10 10/28/2015 18:45:00 0.0
2015_10_28_S10 10/28/2015 18:50:00 0.0
2015_10_28_S10 10/28/2015 18:55:00 0.0
2015_10_28_S10 10/28/2015 19:00:00 0.0
2015_10_28_S10 10/28/2015 19:05:00 0.0
2015_10_28_S10 10/28/2015 19:10:00 0.0
2015_10_28_S10 10/28/2015 19:15:00 0.0
2015_10_28_S10 10/28/2015 19:20:00 0.0
2015_10_28_S10 10/28/2015 19:25:00 0.0
2015_10_28_S10 10/28/2015 19:30:00 0.0
2015_10_28_S10 10/28/2015 19:35:00 0.0
2015_10_28_S10 10/28/2015 19:40:00 0.0
2015_10_28_S10 10/28/2015 19:45:00 0.0
2015_10_28_S10 10/28/2015 19:50:00 0.0
2015_10_28_S10 10/28/2015 19:55:00 0.0
2015_10_28_S10 10/28/2015 20:00:00 0.0
2015_10_28_S10 10/28/2015 20:05:00 0.0
2015_10_28_S10 10/28/2015 20:10:00 0.0
2015_10_28_S10 10/28/2015 20:15:00 0.0
2015_10_28_S10 10/28/2015 20:20:00 0.0
2015_10_28_S10 10/28/2015 20:25:00 0.0
2015_10_28_S10 10/28/2015 20:30:00 0.0
2015_10_28_S10 10/28/2015 20:35:00 0.0
2015_10_28_S10 10/28/2015 20:40:00 0.0
2015_10_28_S10 10/28/2015 20:45:00 0.0
2015_10_28_S10 10/28/2015 20:50:00 0.0
2015_10_28_S10 10/28/2015 20:55:00 0.0
2015_10_28_S10 10/28/2015 21:00:00 0.0
2015_10_28_S10 10/28/2015 21:05:00 0.0
2015_10_28_S10 10/28/2015 21:10:00 0.0
2015_10_28_S10 10/28/2015 21:15:00 0.0
2015_10_28_S10 10/28/2015 21:20:00 0.0
2015_10_28_S10 10/28/2015 21:25:00 0.0
2015_10_28_S10 10/28/2015 21:30:00 0.0
2015_10_28_S10 10/28/2015 21:35:00 0.0
2015_10_28_S10 10/28/2015 21:40:00 0.0
2015_10_28_S10 10/28/2015 21:45:00 0.0
2015_10_28_S10 10/28/2015 21:50:00 0.0
2015_10_28_S10 10/28/2015 21:55:00 0.0
2015_10_28_S10 10/28/2015 22:00:00 0.0
2015_10_28_S10 10/28/2015 22:05:00 0.0
2015_10_28_S10 10/28/2015 22:10:00 0.0
2015_10_28_S10 10/28/2015 22:15:00 0.0
2015_10_28_S10 10/28/2015 22:20:00 0.0
2015_10_28_S10 10/28/2015 22:25:00 0.0
2015_10_28_S10 10/28/2015 22:30:00 0.0
2015_10_28_S10 10/28/2015 22:35:00 0.0
2015_10_28_S10 10/28/2015 22:40:00 0.0
2015_10_28_S10 10/28/2015 22:45:00 0.4176
2015_10_28_S10 10/28/2015 22:50:00 11.8545
2015_10_28_S10 10/28/2015 22:55:00 0.5554
2015_10_28_S10 10/28/2015 23:00:00 0.0007
2015_10_28_S10 10/28/2015 23:05:00 0.0
2015_10_28_S10 10/28/2015 23:10:00 0.0
2015_10_28_S10 10/28/2015 23:15:00 0.0
2015_10_28_S10 10/28/2015 23:20:00 0.0
2015_10_28_S10 10/28/2015 23:25:00 0.0
2015_10_28_S10 10/28/2015 23:30:00 0.0009
2015_10_28_S10 10/28/2015 23:35:00 0.0246
2015_10_28_S10 10/28/2015 23:40:00 0.0294
2015_10_28_S10 10/28/2015 23:45:00 0.0646
2015_10_28_S10 10/28/2015 23:50:00 0.1334
2015_10_28_S10 10/28/2015 23:55:00 0.1029
2015_10_28_S10 10/29/2015 00:00:00 0.0238
2015_10_28_S10 10/29/2015 00:05:00 0.0
2015_10_28_S10 10/29/2015 00:10:00 0.0
2015_10_28_S10 10/29/2015 00:15:00 0.0
2015_10_28_S10 10/29/2015 00:20:00 0.0
2015_10_28_S10 10/29/2015 00:25:00 0.014
2015_10_28_S10 10/29/2015 00:30:00 0.0
2015_10_28_S10 10/29/2015 00:35:00 0.1275
2015_10_28_S10 10/29/2015 00:40:00 0.301
2015_10_28_S10 10/29/2015 00:45:00 0.4883
2015_10_28_S10 10/29/2015 00:50:00 0.1607
2015_10_28_S10 10/29/2015 00:55:00 0.1413
2015_10_28_S10 10/29/2015 01:00:00 0.1033
2015_10_28_S10 10/29/2015 01:05:00 0.1035
2015_10_28_S10 10/29/2015 01:10:00 0.068
2015_10_28_S10 10/29/2015 01:15:00 0.054
2015_10_28_S10 10/29/2015 01:20:00 0.1108
2015_10_28_S10 10/29/2015 01:25:00 0.1088
2015_10_28_S10 10/29/2015 01:30:00 0.1405
2015_10_28_S10 10/29/2015 01:35:00 0.1299
2015_10_28_S10 10/29/2015 01:40:00 0.2127
2015_10_28_S10 10/29/2015 01:45:00 0.0548
2015_10_28_S10 10/29/2015 01:50:00 0.0009
2015_10_28_S10 10/29/2015 01:55:00 0.0
2015_10_28_S10 10/29/2015 02:00:00 0.0
2015_10_28_S10 10/29/2015 02:05:00 0.0
2015_10_28_S10 10/29/2015 02:10:00 0.0
2015_10_28_S10 10/29/2015 02:15:00 0.0
2015_10_28_S10 10/29/2015 02:20:00 0.0
2015_10_28_S10 10/29/2015 02:25:00 0.0
2015_10_28_S10 10/29/2015 02:30:00 0.0
2015_10_28_S10 10/29/2015 02:35:00 0.0
2015_10_28_S10 10/29/2015 02:40:00 0.0
2015_10_28_S10 10/29/2015 02:45:00 0.0
2015_10_28_S10 10/29/2015 02:50:00 0.0
2015_10_28_S10 10/29/2015 02:55:00 0.0
2015_10_28_S10 10/29/2015 03:00:00 0.0
2015_10_28_S10 10/29/2015 03:05:00 0.0
2015_10_28_S10 10/29/2015 03:10:00 0.0
2015_10_28_S10 10/29/2015 03:15:00 0.0
2015_10_28_S10 10/29/2015 03:20:00 0.0
2015_10_28_S10 10/29/2015 03:25:00 0.0
2015_10_28_S10 10/29/2015 03:30:00 0.0
2015_10_28_S10 10/29/2015 03:35:00 0.0
2015_10_28_S10 10/29/2015 03:40:00 0.0
2015_10_28_S10 10/29/2015 03:45:00 0.0
2015_10_28_S10 10/29/2015 03:50:00 0.0
2015_10_28_S10 10/29/2015 03:55:00 0.0
2015_10_28_S10 10/29/2015 04:00:00 0.0
2015_10_28_S10 10/29/2015 04:05:00 0.0
2015_10_28_S10 10/29/2015 04:10:00 0.0
2015_10_28_S10 10/29/2015 04:15:00 0.0
2015_10_28_S10 10/29/2015 04:20:00 0.0
2015_10_28_S10 10/29/2015 04:25:00 0.0
2015_10_28_S10 10/29/2015 04:30:00 0.0
2015_10_28_S10 10/29/2015 04:35:00 0.0
2015_10_28_S10 10/29/2015 04:40:00 0.0
2015_10_28_S10 10/29/2015 04:45:00 0.0
2015_10_28_S10 10/29/2015 04:50:00 0.0
2015_10_28_S10 10/29/2015 04:55:00 0.0
2015_10_28_S10 10/29/2015 05:00:00 0.0
2015_10_28_S10 10/29/2015 05:05:00 0.0
2015_10_28_S10 10/29/2015 05:10:00 0.0
2015_10_28_S10 10/29/2015 05:15:00 0.0
2015_10_28_S10 10/29/2015 05:20:00 0.0
2015_10_28_S10 10/29/2015 05:25:00 0.0
2015_10_28_S10 10/29/2015 05:30:00 0.0
2015_10_28_S10 10/29/2015 05:35:00 0.0
2015_10_28_S10 10/29/2015 05:40:00 0.0
2015_10_28_S10 10/29/2015 05:45:00 0.0
2015_10_28_S10 10/29/2015 05:50:00 0.0
2015_10_28_S10 10/29/2015 05:55:00 0.0031
2015_10_28_S10 10/29/2015 06:00:00 0.0124
2015_10_28_S10 10/29/2015 06:05:00 0.0
2015_10_28_S10 10/29/2015 06:10:00 0.0
2015_10_28_S10 10/29/2015 06:15:00 0.0
2015_10_28_S10 10/29/2015 06:20:00 0.0
2015_10_28_S10 10/29/2015 06:25:00 0.0
2015_10_28_S10 10/29/2015 06:30:00 0.0
2015_10_28_S10 10/29/2015 06:35:00 0.0
2015_10_28_S10 10/29/2015 06:40:00 0.0
2015_10_28_S10 10/29/2015 06:45:00 0.0
2015_10_28_S10 10/29/2015 06:50:00 0.0
2015_10_28_S10 10/29/2015 06:55:00 0.0
2015_10_28_S10 10/29/2015 07:00:00 0.0
2015_10_28_S10 10/29/2015 07:05:00 0.0
2015_10_28_S10 10/29/2015 07:10:00 0.0
2015_10_28_S10 10/29/2015 07:15:00 0.0
2015_10_28_S10 10/29/2015 07:20:00 0.0
2015_10_28_S10 10/29/2015 07:25:00 0.0
2015_10_28_S10 10/29/2015 07:30:00 0.0
2015_10_28_S10 10/29/2015 07:35:00 0.0
2015_10_28_S10 10/29/2015 07:40:00 0.0
2015_10_28_S10 10/29/2015 07:45:00 0.0
2015_10_28_S10 10/29/2015 07:50:00 0.0
2015_10_28_S10 10/29/2015 07:55:00 0.0
2015_10_28_S10 10/29/2015 08:00:00 0.0

2015_10_28_S11 10/28/2015 10:25:00 0.0259
2015_10_28_S11 10/28/2015 10:30:00 0.0797
2015_10_28_S11 10/28/2015 10:35:00 0.181
2015_10_28_S11 10/28/2015 10:40:00 0.1314
2015_10_28_S11 10/28/2015 10:45:00 0.1177
2015_10_28_S11 10/28/2015 10:50:00 0.3392
2015_10_28_S11 10/28/2015 10:55:00 0.0867
2015_10_28_S11 10/28/2015 11:00:00 0.4017
2015_10_28_S11 10/28/2015 11:05:00 3.49
2015_10_28_S11 10/28/2015 11:10:00 2.1527
2015_10_28_S11 10/28/2015 11:15:00 3.7779
2015_10_28_S11 10/28/2015 11:20:00 2.9023
2015_10_28_S11 10/28/2015 11:25:00 3.8763
2015_10_28_S11 10/28/2015 11:30:00 4.8502
2015_10_28_S11 10/28/2015 11:35:00 5.2984
2015_10_28_S11 10/28/2015 11:40:00 7.3958
2015_10_28_S11 10/28/2015 11:45:00 9.6009
2015_10_28_S11 10/28/2015 11:50:00 11.1985
2015_10_28_S11 10/28/2015 11:55:00 10.0193
2015_10_28_S11 10/28/2015 12:00:00 0.9139
2015_10_28_S11 10/28/2015 12:05:00 9.0092
2015_10_28_S11 10/28/2015 12:10:00 11.8036
2015_10_28_S11 10/28/2015 12:15:00 0.259
2015_10_28_S11 10/28/2015 12:20:00 1.8953
2015_10_28_S11 10/28/2015 12:25:00 0.3867
2015_10_28_S11 10/28/2015 12:30:00 0.019
2015_10_28_S11 10/28/2015 12:35:00 0.5176
2015_10_28_S11 10/28/2015 12:40:00 1.9884
2015_10_28_S11 10/28/2015 12:45:00 5.7999
2015_10_28_S11 10/28/2015 12:50:00 0.3639
2015_10_28_S11 10/28/2015 12:55:00 0.0292
2015_10_28_S11 10/28/2015 13:00:00 0.0174
2015_10_28_S11 10/28/2015 13:05:00 0.0001
2015_10_28_S11 10/28/2015 13:10:00 0.0
2015_10_28_S11 10/28/2015 13:15:00 0.0
2015_10_28_S11 10/28/2015 13:20:00 0.0
2015_10_28_S11 10/28/2015 13:25:00 0.0
2015_10_28_S11 10/28/2015 13:30:00 0.0
2015_10_28_S11 10/28/2015 13:35:00 0.0
2015_10_28_S11 10/28/2015 13:40:00 0.0
2015_10_28_S11 10/28/2015 13:45:00 0.0
2015_10_28_S11 10/28/2015 13:50:00 0.0
2015_10_28_S11 10/28/2015 13:55:00 0.0
2015_10_28_S11 10/28/2015 14:00:00 0.0
2015_10_28_S11 10/28/2015 14:05:00 0.0
2015_10_28_S11 10/28/2015 14:10:00 0.0
2015_10_28_S11 10/28/2015 14:15:00 0.0
2015_10_28_S11 10/28/2015 14:20:00 0.0271
2015_10_28_S11 10/28/2015 14:25:00 0.0245
2015_10_28_S11 10/28/2015 14:30:00 0.0
2015_10_28_S11 10/28/2015 14:35:00 0.0
2015_10_28_S11 10/28/2015 14:40:00 0.0
2015_10_28_S11 10/28/2015 14:45:00 0.0
2015_10_28_S11 10/28/2015 14:50:00 0.0
2015_10_28_S11 10/28/2015 14:55:00 0.0
2015_10_28_S11 10/28/2015 15:00:00 0.0
2015_10_28_S11 10/28/2015 15:05:00 0.0
2015_10_28_S11 10/28/2015 15:10:00 0.0
2015_10_28_S11 10/28/2015 15:15:00 0.0
2015_10_28_S11 10/28/2015 15:20:00 0.0
2015_10_28_S11 10/28/2015 15:25:00 0.0
2015_10_28_S11 10/28/2015 15:30:00 0.0
2015_10_28_S11 10/28/2015 15:35:00 0.0
2015_10_28_S11 10/28/2015 15:40:00 0.0
2015_10_28_S11 10/28/2015 15:45:00 0.0
2015_10_28_S11 10/28/2015 15:50:00 0.0
2015_10_28_S11 10/28/2015 15:55:00 0.0
2015_10_28_S11 10/28/2015 16:00:00 0.0
2015_10_28_S11 10/28/2015 16:05:00 0.0
2015_10_28_S11 10/28/2015 16:10:00 0.007
2015_10_28_S11 10/28/2015 16:15:00 0.0507
2015_10_28_S11 10/28/2015 16:20:00 0.0199
2015_10_28_S11 10/28/2015 16:25:00 0.0
2015_10_28_S11 10/28/2015 16:30:00 0.0041
2015_10_28_S11 10/28/2015 16:35:00 0.0
2015_10_28_S11 10/28/2015 16:40:00 0.0067
2015_10_28_S11 10/28/2015 16:45:00 0.0
2015_10_28_S11 10/28/2015 16:50:00 0.0
2015_10_28_S11 10/28/2015 16:55:00 0.0
2015_10_28_S11 10/28/2015 17:00:00 0.0212
2015_10_28_S11 10/28/2015 17:05:00 0.0
2015_10_28_S11 10/28/2015 17:10:00 0.0
2015_10_28_S11 10/28/2015 17:15:00 0.0
2015_10_28_S11 10/28/2015 17:20:00 0.0
2015_10_28_S11 10/28/2015 17:25:00 0.0
2015_10_28_S11 10/28/2015 17:30:00 0.0
2015_10_28_S11 10/28/2015 17:35:00 0.0
2015_10_28_S11 10/28/2015 17:40:00 0.0
2015_10_28_S11 10/28/2015 17:45:00 0.0
2015_10_28_S11 10/28/2015 17:50:00 0.0
2015_10_28_S11 10/28/2015 17:55:00 0.0
2015_10_28_S11 10/28/2015 18:00:00 0.0
2015_10_28_S11 10/28/2015 18:05:00 0.0
2015_10_28_S11 10/28/2015 18:10:00 0.0
2015_10_28_S11 10/28/2015 18:15:00 0.0
2015_10_28_S11 10/28/2015 18:20:00 0.0
2015_10_28_S11 10/28/2015 18:25:00 0.0
2015_10_28_S11 10/28/2015 18:30:00 0.0
2015_10_28_S11 10/28/2015 18:35:00 0.0
2015_10_28_S11 10/28/2015 18:40:00 0.0
2015_10_28_S11 10/28/2015 18:45:00 0.0
2015_10_28_S11 10/28/2015 18:50:00 0.0
2015_10_28_S11 10/28/2015 18:55:00 0.0
2015_10_28_S11 10/28/2015 19:00:00 0.0
2015_10_28_S11 10/28/2015 19:05:00 0.0
2015_10_28_S11 10/28/2015 19:10:00 0.0
2015_10_28_S11 10/28/2015 19:15:00 0.0
2015_10_28_S11 10/28/2015 19:20:00 0.0
2015_10_28_S11 10/28/2015 19:25:00 0.0
2015_10_28_S11 10/28/2015 19:30:00 0.0
2015_10_28_S11 10/28/2015 19:35:00 0.0
2015_10_28_S11 10/28/2015 19:40:00 0.0
2015_10_28_S11 10/28/2015 19:45:00 0.0
2015_10_28_S11 10/28/2015 19:50:00 0.0
2015_10_28_S11 10/28/2015 19:55:00 0.0
2015_10_28_S11 10/28/2015 20:00:00 0.0
2015_10_28_S11 10/28/2015 20:05:00 0.0
2015_10_28_S11 10/28/2015 20:10:00 0.0
2015_10_28_S11 10/28/2015 20:15:00 0.0
2015_10_28_S11 10/28/2015 20:20:00 0.0
2015_10_28_S11 10/28/2015 20:25:00 0.0
2015_10_28_S11 10/28/2015 20:30:00 0.0
2015_10_28_S11 10/28/2015 20:35:00 0.0
2015_10_28_S11 10/28/2015 20:40:00 0.0
2015_10_28_S11 10/28/2015 20:45:00 0.0
2015_10_28_S11 10/28/2015 20:50:00 0.0
2015_10_28_S11 10/28/2015 20:55:00 0.0
2015_10_28_S11 10/28/2015 21:00:00 0.0
2015_10_28_S11 10/28/2015 21:05:00 0.0
2015_10_28_S11 10/28/2015 21:10:00 0.0
2015_10_28_S11 10/28/2015 21:15:00 0.0
2015_10_28_S11 10/28/2015 21:20:00 0.0
2015_10_28_S11 10/28/2015 21:25:00 0.0
2015_10_28_S11 10/28/2015 21:30:00 0.0
2015_10_28_S11 10/28/2015 21:35:00 0.0
2015_10_28_S11 10/28/2015 21:40:00 0.0
2015_10_28_S11 10/28/2015 21:45:00 0.0
2015_10_28_S11 10/28/2015 21:50:00 0.0
2015_10_28_S11 10/28/2015 21:55:00 0.0
2015_10_28_S11 10/28/2015 22:00:00 0.0
2015_10_28_S11 10/28/2015 22:05:00 0.0
2015_10_28_S11 10/28/2015 22:10:00 0.0
2015_10_28_S11 10/28/2015 22:15:00 0.0
2015_10_28_S11 10/28/2015 22:20:00 0.0
2015_10_28_S11 10/28/2015 22:25:00 0.0
2015_10_28_S11 10/28/2015 22:30:00 0.0
2015_10_28_S11 10/28/2015 22:35:00 0.0
2015_10_28_S11 10/28/2015 22:40:00 0.0
2015_10_28_S11 10/28/2015 22:45:00 0.2914
2015_10_28_S11 10/28/2015 22:50:00 7.902
2015_10_28_S11 10/28/2015 22:55:00 0.5748
2015_10_28_S11 10/28/2015 23:00:00 0.0016
2015_10_28_S11 10/28/2015 23:05:00 0.0
2015_10_28_S11 10/28/2015 23:10:00 0.0
2015_10_28_S11 10/28/2015 23:15:00 0.0
2015_10_28_S11 10/28/2015 23:20:00 0.0
2015_10_28_S11 10/28/2015 23:25:00 0.0
2015_10_28_S11 10/28/2015 23:30:00 0.0
2015_10_28_S11 10/28/2015 23:35:00 0.0157
2015_10_28_S11 10/28/2015 23:40:00 0.0214
2015_10_28_S11 10/28/2015 23:45:00 0.0453
2015_10_28_S11 10/28/2015 23:50:00 0.1353
2015_10_28_S11 10/28/2015 23:55:00 0.0842
2015_10_28_S11 10/29/2015 00:00:00 0.0266
2015_10_28_S11 10/29/2015 00:05:00 0.0
2015_10_28_S11 10/29/2015 00:10:00 0.0
2015_10_28_S11 10/29/2015 00:15:00 0.0
2015_10_28_S11 10/29/2015 00:20:00 0.0019
2015_10_28_S11 10/29/2015 00:25:00 0.0021
2015_10_28_S11 10/29/2015 00:30:00 0.0
2015_10_28_S11 10/29/2015 00:35:00 0.0555
2015_10_28_S11 10/29/2015 00:40:00 0.3258
2015_10_28_S11 10/29/2015 00:45:00 0.5712
2015_10_28_S11 10/29/2015 00:50:00 0.1075
2015_10_28_S11 10/29/2015 00:55:00 0.1585
2015_10_28_S11 10/29/2015 01:00:00 0.1071
2015_10_28_S11 10/29/2015 01:05:00 0.076
2015_10_28_S11 10/29/2015 01:10:00 0.0774
2015_10_28_S11 10/29/2015 01:15:00 0.0665
2015_10_28_S11 10/29/2015 01:20:00 0.118
2015_10_28_S11 10/29/2015 01:25:00 0.1173
2015_10_28_S11 10/29/2015 01:30:00 0.1245
2015_10_28_S11 10/29/2015 01:35:00 0.2439
2015_10_28_S11 10/29/2015 01:40:00 0.256
2015_10_28_S11 10/29/2015 01:45:00 0.0519
2015_10_28_S11 10/29/2015 01:50:00 0.0047
2015_10_28_S11 10/29/2015 01:55:00 0.0
2015_10_28_S11 10/29/2015 02:00:00 0.0
2015_10_28_S11 10/29/2015 02:05:00 0.0
2015_10_28_S11 10/29/2015 02:10:00 0.0
2015_10_28_S11 10/29/2015 02:15:00 0.0
2015_10_28_S11 10/29/2015 02:20:00 0.0
2015_10_28_S11 10/29/2015 02:25:00 0.0
2015_10_28_S11 10/29/2015 02:30:00 0.0
2015_10_28_S11 10/29/2015 02:35:00 0.0
2015_10_28_S11 10/29/2015 02:40:00 0.0
2015_10_28_S11 10/29/2015 02:45:00 0.0
2015_10_28_S11 10/29/2015 02:50:00 0.0
2015_10_28_S11 10/29/2015 02:55:00 0.0
2015_10_28_S11 10/29/2015 03:00:00 0.0
2015_10_28_S11 10/29/2015 03:05:00 0.0
2015_10_28_S11 10/29/2015 03:10:00 0.0
2015_10_28_S11 10/29/2015 03:15:00 0.0
2015_10_28_S11 10/29/2015 03:20:00 0.0
2015_10_28_S11 10/29/2015 03:25:00 0.0
2015_10_28_S11 10/29/2015 03:30:00 0.0
2015_10_28_S11 10/29/2015 03:35:00 0.0
2015_10_28_S11 10/29/2015 03:40:00 0.0
2015_10_28_S11 10/29/2015 03:45:00 0.0
2015_10_28_S11 10/29/2015 03:50:00 0.0
2015_10_28_S11 10/29/2015 03:55:00 0.0
2015_10_28_S11 10/29/2015 04:00:00 0.0
2015_10_28_S11 10/29/2015 04:05:00 0.0
2015_10_28_S11 10/29/2015 04:10:00 0.0
2015_10_28_S11 10/29/2015 04:15:00 0.0
2015_10_28_S11 10/29/2015 04:20:00 0.0
2015_10_28_S11 10/29/2015 04:25:00 0.0
2015_10_28_S11 10/29/2015 04:30:00 0.0
2015_10_28_S11 10/29/2015 04:35:00 0.0
2015_10_28_S11 10/29/2015 04:40:00 0.0
2015_10_28_S11 10/29/2015 04:45:00 0.0
2015_10_28_S11 10/29/2015 04:50:00 0.0
2015_10_28_S11 10/29/2015 04:55:00 0.0
2015_10_28_S11 10/29/2015 05:00:00 0.0
2015_10_28_S11 10/29/2015 05:05:00 0.0
2015_10_28_S11 10/29/2015 05:10:00 0.0
2015_10_28_S11 10/29/2015 05:15:00 0.0
2015_10_28_S11 10/29/2015 05:20:00 0.0
2015_10_28_S11 10/29/2015 05:25:00 0.0
2015_10_28_S11 10/29/2015 05:30:00 0.0
2015_10_28_S11 10/29/2015 05:35:00 0.0
2015_10_28_S11 10/29/2015 05:40:00 0.0
2015_10_28_S11 10/29/2015 05:45:00 0.0
2015_10_28_S11 10/29/2015 05:50:00 0.0
2015_10_28_S11 10/29/2015 05:55:00 0.0
2015_10_28_S11 10/29/2015 06:00:00 0.0
2015_10_28_S11 10/29/2015 06:05:00 0.0
2015_10_28_S11 10/29/2015 06:10:00 0.0
2015_10_28_S11 10/29/2015 06:15:00 0.0
2015_10_28_S11 10/29/2015 06:20:00 0.0
2015_10_28_S11 10/29/2015 06:25:00 0.0
2015_10_28_S11 10/29/2015 06:30:00 0.0
2015_10_28_S11 10/29/2015 06:35:00 0.0
2015_10_28_S11 10/29/2015 06:40:00 0.0
2015_10_28_S11 10/29/2015 06:45:00 0.0
2015_10_28_S11 10/29/2015 06:50:00 0.0
2015_10_28_S11 10/29/2015 06:55:00 0.0
2015_10_28_S11 10/29/2015 07:00:00 0.0
2015_10_28_S11 10/29/2015 07:05:00 0.0
2015_10_28_S11 10/29/2015 07:10:00 0.0
2015_10_28_S11 10/29/2015 07:15:00 0.0
2015_10_28_S11 10/29/2015 07:20:00 0.0
2015_10_28_S11 10/29/2015 07:25:00 0.0
2015_10_28_S11 10/29/2015 07:30:00 0.0
2015_10_28_S11 10/29/2015 07:35:00 0.0
2015_10_28_S11 10/29/2015 07:40:00 0.0
2015_10_28_S11 10/29/2015 07:45:00 0.0
2015_10_28_S11 10/29/2015 07:50:00 0.0
2015_10_28_S11 10/29/2015 07:55:00 0.0
2015_10_28_S11 10/29/2015 08:00:00 0.0

2015_10_28_S12 10/28/2015 10:25:00 0.0255
2015_10_28_S12 10/28/2015 10:30:00 0.2734
2015_10_28_S12 10/28/2015 10:35:00 0.2474
2015_10_28_S12 10/28/2015 10:40:00 0.1277
2015_10_28_S12 10/28/2015 10:45:00 0.1955
2015_10_28_S12 10/28/2015 10:50:00 0.0925
2015_10_28_S12 10/28/2015 10:55:00 0.0336
2015_10_28_S12 10/28/2015 11:00:00 0.3081
2015_10_28_S12 10/28/2015 11:05:00 2.6572
2015_10_28_S12 10/28/2015 11:10:00 2.037
2015_10_28_S12 10/28/2015 11:15:00 4.22
2015_10_28_S12 10/28/2015 11:20:00 2.4756
2015_10_28_S12 10/28/2015 11:25:00 3.1104
2015_10_28_S12 10/28/2015 11:30:00 3.7451
2015_10_28_S12 10/28/2015 11:35:00 5.2792
2015_10_28_S12 10/28/2015 11:40:00 11.8486
2015_10_28_S12 10/28/2015 11:45:00 10.047
2015_10_28_S12 10/28/2015 11:50:00 12.0195
2015_10_28_S12 10/28/2015 11:55:00 6.5012
2015_10_28_S12 10/28/2015 12:00:00 0.6278
2015_10_28_S12 10/28/2015 12:05:00 6.838
2015_10_28_S12 10/28/2015 12:10:00 3.9889
2015_10_28_S12 10/28/2015 12:15:00 0.0
2015_10_28_S12 10/28/2015 12:20:00 0.2788
2015_10_28_S12 10/28/2015 12:25:00 0.1844
2015_10_28_S12 10/28/2015 12:30:00 0.0377
2015_10_28_S12 10/28/2015 12:35:00 1.1069
2015_10_28_S12 10/28/2015 12:40:00 2.538
2015_10_28_S12 10/28/2015 12:45:00 6.9313
2015_10_28_S12 10/28/2015 12:50:00 0.0634
2015_10_28_S12 10/28/2015 12:55:00 0.0115
2015_10_28_S12 10/28/2015 13:00:00 0.0056
2015_10_28_S12 10/28/2015 13:05:00 0.0
2015_10_28_S12 10/28/2015 13:10:00 0.0
2015_10_28_S12 10/28/2015 13:15:00 0.0
2015_10_28_S12 10/28/2015 13:20:00 0.0
2015_10_28_S12 10/28/2015 13:25:00 0.0
2015_10_28_S12 10/28/2015 13:30:00 0.0
2015_10_28_S12 10/28/2015 13:35:00 0.0
2015_10_28_S12 10/28/2015 13:40:00 0.0
2015_10_28_S12 10/28/2015 13:45:00 0.0
2015_10_28_S12 10/28/2015 13:50:00 0.0
2015_10_28_S12 10/28/2015 13:55:00 0.0
2015_10_28_S12 10/28/2015 14:00:00 0.0
2015_10_28_S12 10/28/2015 14:05:00 0.0
2015_10_28_S12 10/28/2015 14:10:00 0.0
2015_10_28_S12 10/28/2015 14:15:00 0.0
2015_10_28_S12 10/28/2015 14:20:00 0.0914
2015_10_28_S12 10/28/2015 14:25:00 0.0453
2015_10_28_S12 10/28/2015 14:30:00 0.0
2015_10_28_S12 10/28/2015 14:35:00 0.0
2015_10_28_S12 10/28/2015 14:40:00 0.0
2015_10_28_S12 10/28/2015 14:45:00 0.0
2015_10_28_S12 10/28/2015 14:50:00 0.0
2015_10_28_S12 10/28/2015 14:55:00 0.0
2015_10_28_S12 10/28/2015 15:00:00 0.0
2015_10_28_S12 10/28/2015 15:05:00 0.0
2015_10_28_S12 10/28/2015 15:10:00 0.0
2015_10_28_S12 10/28/2015 15:15:00 0.0
2015_10_28_S12 10/28/2015 15:20:00 0.0
2015_10_28_S12 10/28/2015 15:25:00 0.0
2015_10_28_S12 10/28/2015 15:30:00 0.0
2015_10_28_S12 10/28/2015 15:35:00 0.0
2015_10_28_S12 10/28/2015 15:40:00 0.0
2015_10_28_S12 10/28/2015 15:45:00 0.0
2015_10_28_S12 10/28/2015 15:50:00 0.0
2015_10_28_S12 10/28/2015 15:55:00 0.0
2015_10_28_S12 10/28/2015 16:00:00 0.0
2015_10_28_S12 10/28/2015 16:05:00 0.0
2015_10_28_S12 10/28/2015 16:10:00 0.0045
2015_10_28_S12 10/28/2015 16:15:00 0.0611
2015_10_28_S12 10/28/2015 16:20:00 0.0265
2015_10_28_S12 10/28/2015 16:25:00 0.0
2015_10_28_S12 10/28/2015 16:30:00 0.0078
2015_10_28_S12 10/28/2015 16:35:00 0.0
2015_10_28_S12 10/28/2015 16:40:00 0.0019
2015_10_28_S12 10/28/2015 16:45:00 0.0
2015_10_28_S12 10/28/2015 16:50:00 0.0
2015_10_28_S12 10/28/2015 16:55:00 0.0
2015_10_28_S12 10/28/2015 17:00:00 0.001
2015_10_28_S12 10/28/2015 17:05:00 0.0
2015_10_28_S12 10/28/2015 17:10:00 0.0
2015_10_28_S12 10/28/2015 17:15:00 0.0
2015_10_28_S12 10/28/2015 17:20:00 0.0
2015_10_28_S12 10/28/2015 17:25:00 0.0
2015_10_28_S12 10/28/2015 17:30:00 0.0
2015_10_28_S12 10/28/2015 17:35:00 0.0
2015_10_28_S12 10/28/2015 17:40:00 0.0
2015_10_28_S12 10/28/2015 17:45:00 0.0
2015_10_28_S12 10/28/2015 17:50:00 0.0
2015_10_28_S12 10/28/2015 17:55:00 0.0
2015_10_28_S12 10/28/2015 18:00:00 0.0
2015_10_28_S12 10/28/2015 18:05:00 0.0
2015_10_28_S12 10/28/2015 18:10:00 0.0
2015_10_28_S12 10/28/2015 18:15:00 0.0
2015_10_28_S12 10/28/2015 18:20:00 0.0
2015_10_28_S12 10/28/2015 18:25:00 0.0
2015_10_28_S12 10/28/2015 18:30:00 0.0
2015_10_28_S12 10/28/2015 18:35:00 0.0
2015_10_28_S12 10/28/2015 18:40:00 0.0
2015_10_28_S12 10/28/2015 18:45:00 0.0
2015_10_28_S12 10/28/2015 18:50:00 0.0
2015_10_28_S12 10/28/2015 18:55:00 0.0
2015_10_28_S12 10/28/2015 19:00:00 0.0
2015_10_28_S12 10/28/2015 19:05:00 0.0
2015_10_28_S12 10/28/2015 19:10:00 0.0
2015_10_28_S12 10/28/2015 19:15:00 0.0
2015_10_28_S12 10/28/2015 19:20:00 0.0
2015_10_28_S12 10/28/2015 19:25:00 0.0
2015_10_28_S12 10/28/2015 19:30:00 0.0
2015_10_28_S12 10/28/2015 19:35:00 0.0
2015_10_28_S12 10/28/2015 19:40:00 0.0
2015_10_28_S12 10/28/2015 19:45:00 0.0
2015_10_28_S12 10/28/2015 19:50:00 0.0
2015_10_28_S12 10/28/2015 19:55:00 0.0
2015_10_28_S12 10/28/2015 20:00:00 0.0
2015_10_28_S12 10/28/2015 20:05:00 0.0
2015_10_28_S12 10/28/2015 20:10:00 0.0
2015_10_28_S12 10/28/2015 20:15:00 0.0
2015_10_28_S12 10/28/2015 20:20:00 0.0
2015_10_28_S12 10/28/2015 20:25:00 0.0
2015_10_28_S12 10/28/2015 20:30:00 0.0
2015_10_28_S12 10/28/2015 20:35:00 0.0
2015_10_28_S12 10/28/2015 20:40:00 0.0
2015_10_28_S12 10/28/2015 20:45:00 0.0
2015_10_28_S12 10/28/2015 20:50:00 0.0
2015_10_28_S12 10/28/2015 20:55:00 0.0
2015_10_28_S12 10/28/2015 21:00:00 0.0
2015_10_28_S12 10/28/2015 21:05:00 0.0
2015_10_28_S12 10/28/2015 21:10:00 0.0
2015_10_28_S12 10/28/2015 21:15:00 0.0
2015_10_28_S12 10/28/2015 21:20:00 0.0
2015_10_28_S12 10/28/2015 21:25:00 0.0
2015_10_28_S12 10/28/2015 21:30:00 0.0
2015_10_28_S12 10/28/2015 21:35:00 0.0
2015_10_28_S12 10/28/2015 21:40:00 0.0
2015_10_28_S12 10/28/2015 21:45:00 0.0
2015_10_28_S12 10/28/2015 21:50:00 0.0
2015_10_28_S12 10/28/2015 21:55:00 0.0
2015_10_28_S12 10/28/2015 22:00:00 0.0
2015_10_28_S12 10/28/2015 22:05:00 0.0
2015_10_28_S12 10/28/2015 22:10:00 0.0
2015_10_28_S12 10/28/2015 22:15:00 0.0
2015_10_28_S12 10/28/2015 22:20:00 0.0
2015_10_28_S12 10/28/2015 22:25:00 0.0
2015_10_28_S12 10/28/2015 22:30:00 0.0
2015_10_28_S12 10/28/2015 22:35:00 0.0
2015_10_28_S12 10/28/2015 22:40:00 0.0
2015_10_28_S12 10/28/2015 22:45:00 0.3119
2015_10_28_S12 10/28/2015 22:50:00 2.8682
2015_10_28_S12 10/28/2015 22:55:00 0.056
2015_10_28_S12 10/28/2015 23:00:00 0.0
2015_10_28_S12 10/28/2015 23:05:00 0.0
2015_10_28_S12 10/28/2015 23:10:00 0.0
2015_10_28_S12 10/28/2015 23:15:00 0.0
2015_10_28_S12 10/28/2015 23:20:00 0.0
2015_10_28_S12 10/28/2015 23:25:00 0.0
2015_10_28_S12 10/28/2015 23:30:00 0.0
2015_10_28_S12 10/28/2015 23:35:00 0.0163
2015_10_28_S12 10/28/2015 23:40:00 0.024
2015_10_28_S12 10/28/2015 23:45:00 0.0722
2015_10_28_S12 10/28/2015 23:50:00 0.1174
2015_10_28_S12 10/28/2015 23:55:00 0.0588
2015_10_28_S12 10/29/2015 00:00:00 0.0157
2015_10_28_S12 10/29/2015 00:05:00 0.0
2015_10_28_S12 10/29/2015 00:10:00 0.0
2015_10_28_S12 10/29/2015 00:15:00 0.0
2015_10_28_S12 10/29/2015 00:20:00 0.0008
2015_10_28_S12 10/29/2015 00:25:00 0.0
2015_10_28_S12 10/29/2015 00:30:00 0.0
2015_10_28_S12 10/29/2015 00:35:00 0.1077
2015_10_28_S12 10/29/2015 00:40:00 0.4455
2015_10_28_S12 10/29/2015 00:45:00 0.8042
2015_10_28_S12 10/29/2015 00:50:00 0.0503
2015_10_28_S12 10/29/2015 00:55:00 0.2563
2015_10_28_S12 10/29/2015 01:00:00 0.0991
2015_10_28_S12 10/29/2015 01:05:00 0.065
2015_10_28_S12 10/29/2015 01:10:00 0.054
2015_10_28_S12 10/29/2015 01:15:00 0.0948
2015_10_28_S12 10/29/2015 01:20:00 0.1213
2015_10_28_S12 10/29/2015 01:25:00 0.0901
2015_10_28_S12 10/29/2015 01:30:00 0.1355
2015_10_28_S12 10/29/2015 01:35:00 0.3134
2015_10_28_S12 10/29/2015 01:40:00 0.2306
2015_10_28_S12 10/29/2015 01:45:00 0.0283
2015_10_28_S12 10/29/2015 01:50:00 0.0007
2015_10_28_S12 10/29/2015 01:55:00 0.0
2015_10_28_S12 10/29/2015 02:00:00 0.0
2015_10_28_S12 10/29/2015 02:05:00 0.0
2015_10_28_S12 10/29/2015 02:10:00 0.0
2015_10_28_S12 10/29/2015 02:15:00 0.0
2015_10_28_S12 10/29/2015 02:20:00 0.0
2015_10_28_S12 10/29/2015 02:25:00 0.0
2015_10_28_S12 10/29/2015 02:30:00 0.0
2015_10_28_S12 10/29/2015 02:35:00 0.0
2015_10_28_S12 10/29/2015 02:40:00 0.0
2015_10_28_S12 10/29/2015 02:45:00 0.0
2015_10_28_S12 10/29/2015 02:50:00 0.0
2015_10_28_S12 10/29/2015 02:55:00 0.0
2015_10_28_S12 10/29/2015 03:00:00 0.0
2015_10_28_S12 10/29/2015 03:05:00 0.0
2015_10_28_S12 10/29/2015 03:10:00 0.0
2015_10_28_S12 10/29/2015 03:15:00 0.0
2015_10_28_S12 10/29/2015 03:20:00 0.0
2015_10_28_S12 10/29/2015 03:25:00 0.0
2015_10_28_S12 10/29/2015 03:30:00 0.0
2015_10_28_S12 10/29/2015 03:35:00 0.0
2015_10_28_S12 10/29/2015 03:40:00 0.0
2015_10_28_S12 10/29/2015 03:45:00 0.0
2015_10_28_S12 10/29/2015 03:50:00 0.0
2015_10_28_S12 10/29/2015 03:55:00 0.0
2015_10_28_S12 10/29/2015 04:00:00 0.0
2015_10_28_S12 10/29/2015 04:05:00 0.0
2015_10_28_S12 10/29/2015 04:10:00 0.0
2015_10_28_S12 10/29/2015 04:15:00 0.0
2015_10_28_S12 10/29/2015 04:20:00 0.0
2015_10_28_S12 10/29/2015 04:25:00 0.0
2015_10_28_S12 10/29/2015 04:30:00 0.0
2015_10_28_S12 10/29/2015 04:35:00 0.0
2015_10_28_S12 10/29/2015 04:40:00 0.0
2015_10_28_S12 10/29/2015 04:45:00 0.0
2015_10_28_S12 10/29/2015 04:50:00 0.0
2015_10_28_S12 10/29/2015 04:55:00 0.0
2015_10_28_S12 10/29/2015 05:00:00 0.0
2015_10_28_S12 10/29/2015 05:05:00 0.0
2015_10_28_S12 10/29/2015 05:10:00 0.0
2015_10_28_S12 10/29/2015 05:15:00 0.0
2015_10_28_S12 10/29/2015 05:20:00 0.0
2015_10_28_S12 10/29/2015 05:25:00 0.0
2015_10_28_S12 10/29/2015 05:30:00 0.0
2015_10_28_S12 10/29/2015 05:35:00 0.0
2015_10_28_S12 10/29/2015 05:40:00 0.0
2015_10_28_S12 10/29/2015 05:45:00 0.0
2015_10_28_S12 10/29/2015 05:50:00 0.0
2015_10_28_S12 10/29/2015 05:55:00 0.0
2015_10_28_S12 10/29/2015 06:00:00 0.0
2015_10_28_S12 10/29/2015 06:05:00 0.0
2015_10_28_S12 10/29/2015 06:10:00 0.0
2015_10_28_S12 10/29/2015 06:15:00 0.0
2015_10_28_S12 10/29/2015 06:20:00 0.0
2015_10_28_S12 10/29/2015 06:25:00 0.0
2015_10_28_S12 10/29/2015 06:30:00 0.0
2015_10_28_S12 10/29/2015 06:35:00 0.0
2015_10_28_S12 10/29/2015 06:40:00 0.0
2015_10_28_S12 10/29/2015 06:45:00 0.0
2015_10_28_S12 10/29/2015 06:50:00 0.0
2015_10_28_S12 10/29/2015 06:55:00 0.0
2015_10_28_S12 10/29/2015 07:00:00 0.0
2015_10_28_S12 10/29/2015 07:05:00 0.0
2015_10_28_S12 10/29/2015 07:10:00 0.0
2015_10_28_S12 10/29/2015 07:15:00 0.0
2015_10_28_S12 10/29/2015 07:20:00 0.0
2015_10_28_S12 10/29/2015 07:25:00 0.0
2015_10_28_S12 10/29/2015 07:30:00 0.0
2015_10_28_S12 10/29/2015 07:35:00 0.0
2015_10_28_S12 10/29/2015 07:40:00 0.0
2015_10_28_S12 10/29/2015 07:45:00 0.0
2015_10_28_S12 10/29/2015 07:50:00 0.0
2015_10_28_S12 10/29/2015 07:55:00 0.0
2015_10_28_S12 10/29/2015 08:00:00 0.0

2015_10_28_S13 10/28/2015 10:25:00 0.0281
2015_10_28_S13 10/28/2015 10:30:00 0.0676
2015_10_28_S13 10/28/2015 10:35:00 0.2014
2015_10_28_S13 10/28/2015 10:40:00 0.1226
2015_10_28_S13 10/28/2015 10:45:00 0.0532
2015_10_28_S13 10/28/2015 10:50:00 0.1222
2015_10_28_S13 10/28/2015 10:55:00 0.0548
2015_10_28_S13 10/28/2015 11:00:00 0.3853
2015_10_28_S13 10/28/2015 11:05:00 3.2898
2015_10_28_S13 10/28/2015 11:10:00 1.5485
2015_10_28_S13 10/28/2015 11:15:00 3.7768
2015_10_28_S13 10/28/2015 11:20:00 4.2263
2015_10_28_S13 10/28/2015 11:25:00 5.1695
2015_10_28_S13 10/28/2015 11:30:00 6.1128
2015_10_28_S13 10/28/2015 11:35:00 5.3924
2015_10_28_S13 10/28/2015 11:40:00 6.3474
2015_10_28_S13 10/28/2015 11:45:00 9.5277
2015_10_28_S13 10/28/2015 11:50:00 9.1669
2015_10_28_S13 10/28/2015 11:55:00 7.2764
2015_10_28_S13 10/28/2015 12:00:00 1.729
2015_10_28_S13 10/28/2015 12:05:00 7.8446
2015_10_28_S13 10/28/2015 12:10:00 9.7009
2015_10_28_S13 10/28/2015 12:15:00 1.9747
2015_10_28_S13 10/28/2015 12:20:00 0.9001
2015_10_28_S13 10/28/2015 12:25:00 3.171
2015_10_28_S13 10/28/2015 12:30:00 0.0845
2015_10_28_S13 10/28/2015 12:35:00 0.9492
2015_10_28_S13 10/28/2015 12:40:00 6.6732
2015_10_28_S13 10/28/2015 12:45:00 6.8323
2015_10_28_S13 10/28/2015 12:50:00 2.6746
2015_10_28_S13 10/28/2015 12:55:00 0.2212
2015_10_28_S13 10/28/2015 13:00:00 0.0605
2015_10_28_S13 10/28/2015 13:05:00 0.0048
2015_10_28_S13 10/28/2015 13:10:00 0.0017
2015_10_28_S13 10/28/2015 13:15:00 0.0
2015_10_28_S13 10/28/2015 13:20:00 0.0
2015_10_28_S13 10/28/2015 13:25:00 0.0
2015_10_28_S13 10/28/2015 13:30:00 0.0
2015_10_28_S13 10/28/2015 13:35:00 0.0
2015_10_28_S13 10/28/2015 13:40:00 0.0
2015_10_28_S13 10/28/2015 13:45:00 0.0
2015_10_28_S13 10/28/2015 13:50:00 0.0
2015_10_28_S13 10/28/2015 13:55:00 0.0
2015_10_28_S13 10/28/2015 14:00:00 0.0
2015_10_28_S13 10/28/2015 14:05:00 0.0
2015_10_28_S13 10/28/2015 14:10:00 0.0
2015_10_28_S13 10/28/2015 14:15:00 0.0
2015_10_28_S13 10/28/2015 14:20:00 0.0113
2015_10_28_S13 10/28/2015 14:25:00 0.0931
2015_10_28_S13 10/28/2015 14:30:00 0.0198
2015_10_28_S13 10/28/2015 14:35:00 0.0
2015_10_28_S13 10/28/2015 14:40:00 0.0
2015_10_28_S13 10/28/2015 14:45:00 0.0
2015_10_28_S13 10/28/2015 14:50:00 0.0
2015_10_28_S13 10/28/2015 14:55:00 0.0
2015_10_28_S13 10/28/2015 15:00:00 0.0
2015_10_28_S13 10/28/2015 15:05:00 0.0
2015_10_28_S13 10/28/2015 15:10:00 0.0
2015_10_28_S13 10/28/2015 15:15:00 0.0
2015_10_28_S13 10/28/2015 15:20:00 0.0
2015_10_28_S13 10/28/2015 15:25:00 0.0
2015_10_28_S13 10/28/2015 15:30:00 0.0
2015_10_28_S13 10/28/2015 15:35:00 0.0
2015_10_28_S13 10/28/2015 15:40:00 0.0
2015_10_28_S13 10/28/2015 15:45:00 0.0
2015_10_28_S13 10/28/2015 15:50:00 0.0
2015_10_28_S13 10/28/2015 15:55:00 0.0
2015_10_28_S13 10/28/2015 16:00:00 0.0
2015_10_28_S13 10/28/2015 16:05:00 0.0
2015_10_28_S13 10/28/2015 16:10:00 0.0049
2015_10_28_S13 10/28/2015 16:15:00 0.0427
2015_10_28_S13 10/28/2015 16:20:00 0.0259
2015_10_28_S13 10/28/2015 16:25:00 0.0
2015_10_28_S13 10/28/2015 16:30:00 0.0
2015_10_28_S13 10/28/2015 16:35:00 0.0
2015_10_28_S13 10/28/2015 16:40:00 0.0007
2015_10_28_S13 10/28/2015 16:45:00 0.0
2015_10_28_S13 10/28/2015 16:50:00 0.0
2015_10_28_S13 10/28/2015 16:55:00 0.0
2015_10_28_S13 10/28/2015 17:00:00 0.0229
2015_10_28_S13 10/28/2015 17:05:00 0.0
2015_10_28_S13 10/28/2015 17:10:00 0.0
2015_10_28_S13 10/28/2015 17:15:00 0.0
2015_10_28_S13 10/28/2015 17:20:00 0.0
2015_10_28_S13 10/28/2015 17:25:00 0.0
2015_10_28_S13 10/28/2015 17:30:00 0.0
2015_10_28_S13 10/28/2015 17:35:00 0.0
2015_10_28_S13 10/28/2015 17:40:00 0.0
2015_10_28_S13 10/28/2015 17:45:00 0.0
2015_10_28_S13 10/28/2015 17:50:00 0.0
2015_10_28_S13 10/28/2015 17:55:00 0.0
2015_10_28_S13 10/28/2015 18:00:00 0.0
2015_10_28_S13 10/28/2015 18:05:00 0.0
2015_10_28_S13 10/28/2015 18:10:00 0.0
2015_10_28_S13 10/28/2015 18:15:00 0.0
2015_10_28_S13 10/28/2015 18:20:00 0.0
2015_10_28_S13 10/28/2015 18:25:00 0.0
2015_10_28_S13 10/28/2015 18:30:00 0.0
2015_10_28_S13 10/28/2015 18:35:00 0.0
2015_10_28_S13 10/28/2015 18:40:00 0.0
2015_10_28_S13 10/28/2015 18:45:00 0.0
2015_10_28_S13 10/28/2015 18:50:00 0.0
2015_10_28_S13 10/28/2015 18:55:00 0.0
2015_10_28_S13 10/28/2015 19:00:00 0.0
2015_10_28_S13 10/28/2015 19:05:00 0.0
2015_10_28_S13 10/28/2015 19:10:00 0.0
2015_10_28_S13 10/28/2015 19:15:00 0.0
2015_10_28_S13 10/28/2015 19:20:00 0.0
2015_10_28_S13 10/28/2015 19:25:00 0.0
2015_10_28_S13 10/28/2015 19:30:00 0.0
2015_10_28_S13 10/28/2015 19:35:00 0.0
2015_10_28_S13 10/28/2015 19:40:00 0.0
2015_10_28_S13 10/28/2015 19:45:00 0.0
2015_10_28_S13 10/28/2015 19:50:00 0.0
2015_10_28_S13 10/28/2015 19:55:00 0.0
2015_10_28_S13 10/28/2015 20:00:00 0.0
2015_10_28_S13 10/28/2015 20:05:00 0.0
2015_10_28_S13 10/28/2015 20:10:00 0.0
2015_10_28_S13 10/28/2015 20:15:00 0.0
2015_10_28_S13 10/28/2015 20:20:00 0.0
2015_10_28_S13 10/28/2015 20:25:00 0.0
2015_10_28_S13 10/28/2015 20:30:00 0.0
2015_10_28_S13 10/28/2015 20:35:00 0.0
2015_10_28_S13 10/28/2015 20:40:00 0.0
2015_10_28_S13 10/28/2015 20:45:00 0.0
2015_10_28_S13 10/28/2015 20:50:00 0.0
2015_10_28_S13 10/28/2015 20:55:00 0.0
2015_10_28_S13 10/28/2015 21:00:00 0.0
2015_10_28_S13 10/28/2015 21:05:00 0.0
2015_10_28_S13 10/28/2015 21:10:00 0.0
2015_10_28_S13 10/28/2015 21:15:00 0.0
2015_10_28_S13 10/28/2015 21:20:00 0.0
2015_10_28_S13 10/28/2015 21:25:00 0.0
2015_10_28_S13 10/28/2015 21:30:00 0.0
2015_10_28_S13 10/28/2015 21:35:00 0.0
2015_10_28_S13 10/28/2015 21:40:00 0.0
2015_10_28_S13 10/28/2015 21:45:00 0.0
2015_10_28_S13 10/28/2015 21:50:00 0.0
2015_10_28_S13 10/28/2015 21:55:00 0.0
2015_10_28_S13 10/28/2015 22:00:00 0.0
2015_10_28_S13 10/28/2015 22:05:00 0.0
2015_10_28_S13 10/28/2015 22:10:00 0.0
2015_10_28_S13 10/28/2015 22:15:00 0.0
2015_10_28_S13 10/28/2015 22:20:00 0.0
2015_10_28_S13 10/28/2015 22:25:00 0.0
2015_10_28_S13 10/28/2015 22:30:00 0.0
2015_10_28_S13 10/28/2015 22:35:00 0.0
2015_10_28_S13 10/28/2015 22:40:00 0.0
2015_10_28_S13 10/28/2015 22:45:00 0.0128
2015_10_28_S13 10/28/2015 22:50:00 2.3807
2015_10_28_S13 10/28/2015 22:55:00 2.0329
2015_10_28_S13 10/28/2015 23:00:00 0.0129
2015_10_28_S13 10/28/2015 23:05:00 0.0
2015_10_28_S13 10/28/2015 23:10:00 0.0
2015_10_28_S13 10/28/2015 23:15:00 0.0
2015_10_28_S13 10/28/2015 23:20:00 0.0
2015_10_28_S13 10/28/2015 23:25:00 0.0
2015_10_28_S13 10/28/2015 23:30:00 0.0005
2015_10_28_S13 10/28/2015 23:35:00 0.0089
2015_10_28_S13 10/28/2015 23:40:00 0.0137
2015_10_28_S13 10/28/2015 23:45:00 0.0235
2015_10_28_S13 10/28/2015 23:50:00 0.1091
2015_10_28_S13 10/28/2015 23:55:00 0.0839
2015_10_28_S13 10/29/2015 00:00:00 0.0334
2015_10_28_S13 10/29/2015 00:05:00 0.0024
2015_10_28_S13 10/29/2015 00:10:00 0.0
2015_10_28_S13 10/29/2015 00:15:00 0.0
2015_10_28_S13 10/29/2015 00:20:00 0.0003
2015_10_28_S13 10/29/2015 00:25:00 0.0006
2015_10_28_S13 10/29/2015 00:30:00 0.0007
2015_10_28_S13 10/29/2015 00:35:00 0.0038
2015_10_28_S13 10/29/2015 00:40:00 0.1884
2015_10_28_S13 10/29/2015 00:45:00 0.5841
2015_10_28_S13 10/29/2015 00:50:00 0.1558
2015_10_28_S13 10/29/2015 00:55:00 0.1652
2015_10_28_S13 10/29/2015 01:00:00 0.1273
2015_10_28_S13 10/29/2015 01:05:00 0.0971
2015_10_28_S13 10/29/2015 01:10:00 0.0689
2015_10_28_S13 10/29/2015 01:15:00 0.0761
2015_10_28_S13 10/29/2015 01:20:00 0.1294
2015_10_28_S13 10/29/2015 01:25:00 0.1325
2015_10_28_S13 10/29/2015 01:30:00 0.1281
2015_10_28_S13 10/29/2015 01:35:00 0.2389
2015_10_28_S13 10/29/2015 01:40:00 0.2657
2015_10_28_S13 10/29/2015 01:45:00 0.0951
2015_10_28_S13 10/29/2015 01:50:00 0.0104
2015_10_28_S13 10/29/2015 01:55:00 0.0
2015_10_28_S13 10/29/2015 02:00:00 0.0
2015_10_28_S13 10/29/2015 02:05:00 0.0
2015_10_28_S13 10/29/2015 02:10:00 0.0
2015_10_28_S13 10/29/2015 02:15:00 0.0
2015_10_28_S13 10/29/2015 02:20:00 0.0
2015_10_28_S13 10/29/2015 02:25:00 0.0
2015_10_28_S13 10/29/2015 02:30:00 0.0
2015_10_28_S13 10/29/2015 02:35:00 0.0
2015_10_28_S13 10/29/2015 02:40:00 0.0
2015_10_28_S13 10/29/2015 02:45:00 0.0
2015_10_28_S13 10/29/2015 02:50:00 0.0
2015_10_28_S13 10/29/2015 02:55:00 0.0
2015_10_28_S13 10/29/2015 03:00:00 0.0
2015_10_28_S13 10/29/2015 03:05:00 0.0
2015_10_28_S13 10/29/2015 03:10:00 0.0
2015_10_28_S13 10/29/2015 03:15:00 0.0
2015_10_28_S13 10/29/2015 03:20:00 0.0
2015_10_28_S13 10/29/2015 03:25:00 0.0
2015_10_28_S13 10/29/2015 03:30:00 0.0
2015_10_28_S13 10/29/2015 03:35:00 0.0
2015_10_28_S13 10/29/2015 03:40:00 0.0
2015_10_28_S13 10/29/2015 03:45:00 0.0
2015_10_28_S13 10/29/2015 03:50:00 0.0
2015_10_28_S13 10/29/2015 03:55:00 0.0
2015_10_28_S13 10/29/2015 04:00:00 0.0
2015_10_28_S13 10/29/2015 04:05:00 0.0
2015_10_28_S13 10/29/2015 04:10:00 0.0
2015_10_28_S13 10/29/2015 04:15:00 0.0
2015_10_28_S13 10/29/2015 04:20:00 0.0
2015_10_28_S13 10/29/2015 04:25:00 0.0
2015_10_28_S13 10/29/2015 04:30:00 0.0
2015_10_28_S13 10/29/2015 04:35:00 0.0
2015_10_28_S13 10/29/2015 04:40:00 0.0
2015_10_28_S13 10/29/2015 04:45:00 0.0
2015_10_28_S13 10/29/2015 04:50:00 0.0
2015_10_28_S13 10/29/2015 04:55:00 0.0
2015_10_28_S13 10/29/2015 05:00:00 0.0
2015_10_28_S13 10/29/2015 05:05:00 0.0
2015_10_28_S13 10/29/2015 05:10:00 0.0
2015_10_28_S13 10/29/2015 05:15:00 0.0
2015_10_28_S13 10/29/2015 05:20:00 0.0
2015_10_28_S13 10/29/2015 05:25:00 0.0
2015_10_28_S13 10/29/2015 05:30:00 0.0
2015_10_28_S13 10/29/2015 05:35:00 0.0
2015_10_28_S13 10/29/2015 05:40:00 0.0
2015_10_28_S13 10/29/2015 05:45:00 0.0
2015_10_28_S13 10/29/2015 05:50:00 0.0
2015_10_28_S13 10/29/2015 05:55:00 0.0
2015_10_28_S13 10/29/2015 06:00:00 0.0
2015_10_28_S13 10/29/2015 06:05:00 0.0
2015_10_28_S13 10/29/2015 06:10:00 0.0
2015_10_28_S13 10/29/2015 06:15:00 0.0
2015_10_28_S13 10/29/2015 06:20:00 0.0
2015_10_28_S13 10/29/2015 06:25:00 0.0
2015_10_28_S13 10/29/2015 06:30:00 0.0
2015_10_28_S13 10/29/2015 06:35:00 0.0
2015_10_28_S13 10/29/2015 06:40:00 0.0
2015_10_28_S13 10/29/2015 06:45:00 0.0
2015_10_28_S13 10/29/2015 06:50:00 0.0
2015_10_28_S13 10/29/2015 06:55:00 0.0
2015_10_28_S13 10/29/2015 07:00:00 0.0
2015_10_28_S13 10/29/2015 07:05:00 0.0
2015_10_28_S13 10/29/2015 07:10:00 0.0
2015_10_28_S13 10/29/2015 07:15:00 0.0
2015_10_28_S13 10/29/2015 07:20:00 0.0
2015_10_28_S13 10/29/2015 07:25:00 0.0
2015_10_28_S13 10/29/2015 07:30:00 0.0
2015_10_28_S13 10/29/2015 07:35:00 0.0
2015_10_28_S13 10/29/2015 07:40:00 0.0
2015_10_28_S13 10/29/2015 07:45:00 0.0
2015_10_28_S13 10/29/2015 07:50:00 0.0
2015_10_28_S13 10/29/2015 07:55:00 0.0
2015_10_28_S13 10/29/2015 08:00:00 0.0

2015_10_28_S14 10/28/2015 10:25:00 0.0456
2015_10_28_S14 10/28/2015 10:30:00 0.0053
2015_10_28_S14 10/28/2015 10:35:00 0.148
2015_10_28_S14 10/28/2015 10:40:00 0.0667
2015_10_28_S14 10/28/2015 10:45:00 0.0386
2015_10_28_S14 10/28/2015 10:50:00 0.0838
2015_10_28_S14 10/28/2015 10:55:00 0.1459
2015_10_28_S14 10/28/2015 11:00:00 0.3674
2015_10_28_S14 10/28/2015 11:05:00 0.8137
2015_10_28_S14 10/28/2015 11:10:00 2.1483
2015_10_28_S14 10/28/2015 11:15:00 4.1381
2015_10_28_S14 10/28/2015 11:20:00 8.1213
2015_10_28_S14 10/28/2015 11:25:00 8.3803
2015_10_28_S14 10/28/2015 11:30:00 8.6392
2015_10_28_S14 10/28/2015 11:35:00 2.5837
2015_10_28_S14 10/28/2015 11:40:00 4.4054
2015_10_28_S14 10/28/2015 11:45:00 4.1561
2015_10_28_S14 10/28/2015 11:50:00 9.2426
2015_10_28_S14 10/28/2015 11:55:00 9.5608
2015_10_28_S14 10/28/2015 12:00:00 2.8981
2015_10_28_S14 10/28/2015 12:05:00 2.6583
2015_10_28_S14 10/28/2015 12:10:00 11.8155
2015_10_28_S14 10/28/2015 12:15:00 8.2981
2015_10_28_S14 10/28/2015 12:20:00 0.0336
2015_10_28_S14 10/28/2015 12:25:00 4.7652
2015_10_28_S14 10/28/2015 12:30:00 0.0301
2015_10_28_S14 10/28/2015 12:35:00 0.3628
2015_10_28_S14 10/28/2015 12:40:00 1.4864
2015_10_28_S14 10/28/2015 12:45:00 3.2966
2015_10_28_S14 10/28/2015 12:50:00 4.8025
2015_10_28_S14 10/28/2015 12:55:00 0.3296
2015_10_28_S14 10/28/2015 13:00:00 0.0839
2015_10_28_S14 10/28/2015 13:05:00 0.0001
2015_10_28_S14 10/28/2015 13:10:00 0.0
2015_10_28_S14 10/28/2015 13:15:00 0.0
2015_10_28_S14 10/28/2015 13:20:00 0.0
2015_10_28_S14 10/28/2015 13:25:00 0.0
2015_10_28_S14 10/28/2015 13:30:00 0.0
2015_10_28_S14 10/28/2015 13:35:00 0.0
2015_10_28_S14 10/28/2015 13:40:00 0.0
2015_10_28_S14 10/28/2015 13:45:00 0.0
2015_10_28_S14 10/28/2015 13:50:00 0.0
2015_10_28_S14 10/28/2015 13:55:00 0.0
2015_10_28_S14 10/28/2015 14:00:00 0.0
2015_10_28_S14 10/28/2015 14:05:00 0.0
2015_10_28_S14 10/28/2015 14:10:00 0.0
2015_10_28_S14 10/28/2015 14:15:00 0.0
2015_10_28_S14 10/28/2015 14:20:00 0.0077
2015_10_28_S14 10/28/2015 14:25:00 0.164
2015_10_28_S14 10/28/2015 14:30:00 0.0098
2015_10_28_S14 10/28/2015 14:35:00 0.0
2015_10_28_S14 10/28/2015 14:40:00 0.0
2015_10_28_S14 10/28/2015 14:45:00 0.0
2015_10_28_S14 10/28/2015 14:50:00 0.0
2015_10_28_S14 10/28/2015 14:55:00 0.0
2015_10_28_S14 10/28/2015 15:00:00 0.0
2015_10_28_S14 10/28/2015 15:05:00 0.0
2015_10_28_S14 10/28/2015 15:10:00 0.0
2015_10_28_S14 10/28/2015 15:15:00 0.0
2015_10_28_S14 10/28/2015 15:20:00 0.0
2015_10_28_S14 10/28/2015 15:25:00 0.0
2015_10_28_S14 10/28/2015 15:30:00 0.0
2015_10_28_S14 10/28/2015 15:35:00 0.0
2015_10_28_S14 10/28/2015 15:40:00 0.0
2015_10_28_S14 10/28/2015 15:45:00 0.0
2015_10_28_S14 10/28/2015 15:50:00 0.0
2015_10_28_S14 10/28/2015 15:55:00 0.0
2015_10_28_S14 10/28/2015 16:00:00 0.0
2015_10_28_S14 10/28/2015 16:05:00 0.0
2015_10_28_S14 10/28/2015 16:10:00 0.0
2015_10_28_S14 10/28/2015 16:15:00 0.0304
2015_10_28_S14 10/28/2015 16:20:00 0.0298
2015_10_28_S14 10/28/2015 16:25:00 0.0
2015_10_28_S14 10/28/2015 16:30:00 0.0
2015_10_28_S14 10/28/2015 16:35:00 0.0
2015_10_28_S14 10/28/2015 16:40:00 0.0
2015_10_28_S14 10/28/2015 16:45:00 0.0
2015_10_28_S14 10/28/2015 16:50:00 0.0
2015_10_28_S14 10/28/2015 16:55:00 0.0
2015_10_28_S14 10/28/2015 17:00:00 0.0393
2015_10_28_S14 10/28/2015 17:05:00 0.0
2015_10_28_S14 10/28/2015 17:10:00 0.0
2015_10_28_S14 10/28/2015 17:15:00 0.0
2015_10_28_S14 10/28/2015 17:20:00 0.0
2015_10_28_S14 10/28/2015 17:25:00 0.0
2015_10_28_S14 10/28/2015 17:30:00 0.0
2015_10_28_S14 10/28/2015 17:35:00 0.0
2015_10_28_S14 10/28/2015 17:40:00 0.0
2015_10_28_S14 10/28/2015 17:45:00 0.0
2015_10_28_S14 10/28/2015 17:50:00 0.0
2015_10_28_S14 10/28/2015 17:55:00 0.0
2015_10_28_S14 10/28/2015 18:00:00 0.0
2015_10_28_S14 10/28/2015 18:05:00 0.0
2015_10_28_S14 10/28/2015 18:10:00 0.0
2015_10_28_S14 10/28/2015 18:15:00 0.0
2015_10_28_S14 10/28/2015 18:20:00 0.0
2015_10_28_S14 10/28/2015 18:25:00 0.0
2015_10_28_S14 10/28/2015 18:30:00 0.0
2015_10_28_S14 10/28/2015 18:35:00 0.0
2015_10_28_S14 10/28/2015 18:40:00 0.0
2015_10_28_S14 10/28/2015 18:45:00 0.0
2015_10_28_S14 10/28/2015 18:50:00 0.0
2015_10_28_S14 10/28/2015 18:55:00 0.0
2015_10_28_S14 10/28/2015 19:00:00 0.0
2015_10_28_S14 10/28/2015 19:05:00 0.0
2015_10_28_S14 10/28/2015 19:10:00 0.0
2015_10_28_S14 10/28/2015 19:15:00 0.0
2015_10_28_S14 10/28/2015 19:20:00 0.0
2015_10_28_S14 10/28/2015 19:25:00 0.0
2015_10_28_S14 10/28/2015 19:30:00 0.0
2015_10_28_S14 10/28/2015 19:35:00 0.0
2015_10_28_S14 10/28/2015 19:40:00 0.0
2015_10_28_S14 10/28/2015 19:45:00 0.0
2015_10_28_S14 10/28/2015 19:50:00 0.0
2015_10_28_S14 10/28/2015 19:55:00 0.0
2015_10_28_S14 10/28/2015 20:00:00 0.0
2015_10_28_S14 10/28/2015 20:05:00 0.0
2015_10_28_S14 10/28/2015 20:10:00 0.0
2015_10_28_S14 10/28/2015 20:15:00 0.0
2015_10_28_S14 10/28/2015 20:20:00 0.0
2015_10_28_S14 10/28/2015 20:25:00 0.0
2015_10_28_S14 10/28/2015 20:30:00 0.0
2015_10_28_S14 10/28/2015 20:35:00 0.0
2015_10_28_S14 10/28/2015 20:40:00 0.0
2015_10_28_S14 10/28/2015 20:45:00 0.0
2015_10_28_S14 10/28/2015 20:50:00 0.0
2015_10_28_S14 10/28/2015 20:55:00 0.0
2015_10_28_S14 10/28/2015 21:00:00 0.0
2015_10_28_S14 10/28/2015 21:05:00 0.0
2015_10_28_S14 10/28/2015 21:10:00 0.0
2015_10_28_S14 10/28/2015 21:15:00 0.0
2015_10_28_S14 10/28/2015 21:20:00 0.0
2015_10_28_S14 10/28/2015 21:25:00 0.0
2015_10_28_S14 10/28/2015 21:30:00 0.0
2015_10_28_S14 10/28/2015 21:35:00 0.0
2015_10_28_S14 10/28/2015 21:40:00 0.0
2015_10_28_S14 10/28/2015 21:45:00 0.0
2015_10_28_S14 10/28/2015 21:50:00 0.0
2015_10_28_S14 10/28/2015 21:55:00 0.0
2015_10_28_S14 10/28/2015 22:00:00 0.0
2015_10_28_S14 10/28/2015 22:05:00 0.0
2015_10_28_S14 10/28/2015 22:10:00 0.0
2015_10_28_S14 10/28/2015 22:15:00 0.0
2015_10_28_S14 10/28/2015 22:20:00 0.0
2015_10_28_S14 10/28/2015 22:25:00 0.0
2015_10_28_S14 10/28/2015 22:30:00 0.0
2015_10_28_S14 10/28/2015 22:35:00 0.0
2015_10_28_S14 10/28/2015 22:40:00 0.0
2015_10_28_S14 10/28/2015 22:45:00 0.0
2015_10_28_S14 10/28/2015 22:50:00 0.8032
2015_10_28_S14 10/28/2015 22:55:00 7.4507
2015_10_28_S14 10/28/2015 23:00:00 0.0831
2015_10_28_S14 10/28/2015 23:05:00 0.0
2015_10_28_S14 10/28/2015 23:10:00 0.0
2015_10_28_S14 10/28/2015 23:15:00 0.0
2015_10_28_S14 10/28/2015 23:20:00 0.0
2015_10_28_S14 10/28/2015 23:25:00 0.0
2015_10_28_S14 10/28/2015 23:30:00 0.0
2015_10_28_S14 10/28/2015 23:35:00 0.0098
2015_10_28_S14 10/28/2015 23:40:00 0.0183
2015_10_28_S14 10/28/2015 23:45:00 0.0109
2015_10_28_S14 10/28/2015 23:50:00 0.0793
2015_10_28_S14 10/28/2015 23:55:00 0.118
2015_10_28_S14 10/29/2015 00:00:00 0.0432
2015_10_28_S14 10/29/2015 00:05:00 0.0106
2015_10_28_S14 10/29/2015 00:10:00 0.0
2015_10_28_S14 10/29/2015 00:15:00 0.0
2015_10_28_S14 10/29/2015 00:20:00 0.0
2015_10_28_S14 10/29/2015 00:25:00 0.0
2015_10_28_S14 10/29/2015 00:30:00 0.0094
2015_10_28_S14 10/29/2015 00:35:00 0.0
2015_10_28_S14 10/29/2015 00:40:00 0.07
2015_10_28_S14 10/29/2015 00:45:00 0.4523
2015_10_28_S14 10/29/2015 00:50:00 0.3903
2015_10_28_S14 10/29/2015 00:55:00 0.0891
2015_10_28_S14 10/29/2015 01:00:00 0.0914
2015_10_28_S14 10/29/2015 01:05:00 0.1068
2015_10_28_S14 10/29/2015 01:10:00 0.0797
2015_10_28_S14 10/29/2015 01:15:00 0.0961
2015_10_28_S14 10/29/2015 01:20:00 0.1201
2015_10_28_S14 10/29/2015 01:25:00 0.1071
2015_10_28_S14 10/29/2015 01:30:00 0.1051
2015_10_28_S14 10/29/2015 01:35:00 0.1855
2015_10_28_S14 10/29/2015 01:40:00 0.2107
2015_10_28_S14 10/29/2015 01:45:00 0.1528
2015_10_28_S14 10/29/2015 01:50:00 0.0249
2015_10_28_S14 10/29/2015 01:55:00 0.0
2015_10_28_S14 10/29/2015 02:00:00 0.0
2015_10_28_S14 10/29/2015 02:05:00 0.0
2015_10_28_S14 10/29/2015 02:10:00 0.0
2015_10_28_S14 10/29/2015 02:15:00 0.0
2015_10_28_S14 10/29/2015 02:20:00 0.0
2015_10_28_S14 10/29/2015 02:25:00 0.0
2015_10_28_S14 10/29/2015 02:30:00 0.0
2015_10_28_S14 10/29/2015 02:35:00 0.0
2015_10_28_S14 10/29/2015 02:40:00 0.0
2015_10_28_S14 10/29/2015 02:45:00 0.0
2015_10_28_S14 10/29/2015 02:50:00 0.0
2015_10_28_S14 10/29/2015 02:55:00 0.0
2015_10_28_S14 10/29/2015 03:00:00 0.0
2015_10_28_S14 10/29/2015 03:05:00 0.0
2015_10_28_S14 10/29/2015 03:10:00 0.0
2015_10_28_S14 10/29/2015 03:15:00 0.0
2015_10_28_S14 10/29/2015 03:20:00 0.0
2015_10_28_S14 10/29/2015 03:25:00 0.0
2015_10_28_S14 10/29/2015 03:30:00 0.0
2015_10_28_S14 10/29/2015 03:35:00 0.0
2015_10_28_S14 10/29/2015 03:40:00 0.0
2015_10_28_S14 10/29/2015 03:45:00 0.0
2015_10_28_S14 10/29/2015 03:50:00 0.0
2015_10_28_S14 10/29/2015 03:55:00 0.0
2015_10_28_S14 10/29/2015 04:00:00 0.0
2015_10_28_S14 10/29/2015 04:05:00 0.0
2015_10_28_S14 10/29/2015 04:10:00 0.0
2015_10_28_S14 10/29/2015 04:15:00 0.0
2015_10_28_S14 10/29/2015 04:20:00 0.0
2015_10_28_S14 10/29/2015 04:25:00 0.0
2015_10_28_S14 10/29/2015 04:30:00 0.0
2015_10_28_S14 10/29/2015 04:35:00 0.0
2015_10_28_S14 10/29/2015 04:40:00 0.0
2015_10_28_S14 10/29/2015 04:45:00 0.0
2015_10_28_S14 10/29/2015 04:50:00 0.0
2015_10_28_S14 10/29/2015 04:55:00 0.0
2015_10_28_S14 10/29/2015 05:00:00 0.0
2015_10_28_S14 10/29/2015 05:05:00 0.0
2015_10_28_S14 10/29/2015 05:10:00 0.0
2015_10_28_S14 10/29/2015 05:15:00 0.0
2015_10_28_S14 10/29/2015 05:20:00 0.0
2015_10_28_S14 10/29/2015 05:25:00 0.0
2015_10_28_S14 10/29/2015 05:30:00 0.0
2015_10_28_S14 10/29/2015 05:35:00 0.0
2015_10_28_S14 10/29/2015 05:40:00 0.0
2015_10_28_S14 10/29/2015 05:45:00 0.0
2015_10_28_S14 10/29/2015 05:50:00 0.0
2015_10_28_S14 10/29/2015 05:55:00 0.0
2015_10_28_S14 10/29/2015 06:00:00 0.0
2015_10_28_S14 10/29/2015 06:05:00 0.0
2015_10_28_S14 10/29/2015 06:10:00 0.0
2015_10_28_S14 10/29/2015 06:15:00 0.0
2015_10_28_S14 10/29/2015 06:20:00 0.0
2015_10_28_S14 10/29/2015 06:25:00 0.0
2015_10_28_S14 10/29/2015 06:30:00 0.0
2015_10_28_S14 10/29/2015 06:35:00 0.0
2015_10_28_S14 10/29/2015 06:40:00 0.0
2015_10_28_S14 10/29/2015 06:45:00 0.0
2015_10_28_S14 10/29/2015 06:50:00 0.0
2015_10_28_S14 10/29/2015 06:55:00 0.0
2015_10_28_S14 10/29/2015 07:00:00 0.0
2015_10_28_S14 10/29/2015 07:05:00 0.0
2015_10_28_S14 10/29/2015 07:10:00 0.0
2015_10_28_S14 10/29/2015 07:15:00 0.0
2015_10_28_S14 10/29/2015 07:20:00 0.0
2015_10_28_S14 10/29/2015 07:25:00 0.0
2015_10_28_S14 10/29/2015 07:30:00 0.0
2015_10_28_S14 10/29/2015 07:35:00 0.0
2015_10_28_S14 10/29/2015 07:40:00 0.0
2015_10_28_S14 10/29/2015 07:45:00 0.0
2015_10_28_S14 10/29/2015 07:50:00 0.0
2015_10_28_S14 10/29/2015 07:55:00 0.0
2015_10_28_S14 10/29/2015 08:00:00 0.0

2015_10_28_S15 10/28/2015 10:25:00 0.0364
2015_10_28_S15 10/28/2015 10:30:00 0.0572
2015_10_28_S15 10/28/2015 10:35:00 0.1474
2015_10_28_S15 10/28/2015 10:40:00 0.0752
2015_10_28_S15 10/28/2015 10:45:00 0.0294
2015_10_28_S15 10/28/2015 10:50:00 0.0399
2015_10_28_S15 10/28/2015 10:55:00 0.0296
2015_10_28_S15 10/28/2015 11:00:00 0.0426
2015_10_28_S15 10/28/2015 11:05:00 1.6858
2015_10_28_S15 10/28/2015 11:10:00 2.586
2015_10_28_S15 10/28/2015 11:15:00 5.3579
2015_10_28_S15 10/28/2015 11:20:00 4.3972
2015_10_28_S15 10/28/2015 11:25:00 3.4561
2015_10_28_S15 10/28/2015 11:30:00 2.515
2015_10_28_S15 10/28/2015 11:35:00 5.4983
2015_10_28_S15 10/28/2015 11:40:00 4.8425
2015_10_28_S15 10/28/2015 11:45:00 9.1332
2015_10_28_S15 10/28/2015 11:50:00 7.0418
2015_10_28_S15 10/28/2015 11:55:00 4.6062
2015_10_28_S15 10/28/2015 12:00:00 2.6814
2015_10_28_S15 10/28/2015 12:05:00 3.0462
2015_10_28_S15 10/28/2015 12:10:00 4.744
2015_10_28_S15 10/28/2015 12:15:00 3.7968
2015_10_28_S15 10/28/2015 12:20:00 0.1259
2015_10_28_S15 10/28/2015 12:25:00 11.4726
2015_10_28_S15 10/28/2015 12:30:00 0.8136
2015_10_28_S15 10/28/2015 12:35:00 5.6403
2015_10_28_S15 10/28/2015 12:40:00 7.5838
2015_10_28_S15 10/28/2015 12:45:00 9.3002
2015_10_28_S15 10/28/2015 12:50:00 6.0792
2015_10_28_S15 10/28/2015 12:55:00 1.7296
2015_10_28_S15 10/28/2015 13:00:00 0.6647
2015_10_28_S15 10/28/2015 13:05:00 0.1216
2015_10_28_S15 10/28/2015 13:10:00 0.0088
2015_10_28_S15 10/28/2015 13:15:00 0.0053
2015_10_28_S15 10/28/2015 13:20:00 0.0
2015_10_28_S15 10/28/2015 13:25:00 0.0
2015_10_28_S15 10/28/2015 13:30:00 0.0
2015_10_28_S15 10/28/2015 13:35:00 0.0
2015_10_28_S15 10/28/2015 13:40:00 0.0366
2015_10_28_S15 10/28/2015 13:45:00 0.003
2015_10_28_S15 10/28/2015 13:50:00 0.0003
2015_10_28_S15 10/28/2015 13:55:00 0.0
2015_10_28_S15 10/28/2015 14:00:00 0.0
2015_10_28_S15 10/28/2015 14:05:00 0.0
2015_10_28_S15 10/28/2015 14:10:00 0.0
2015_10_28_S15 10/28/2015 14:15:00 0.0
2015_10_28_S15 10/28/2015 14:20:00 0.0
2015_10_28_S15 10/28/2015 14:25:00 0.0659
2015_10_28_S15 10/28/2015 14:30:00 0.1383
2015_10_28_S15 10/28/2015 14:35:00 0.0019
2015_10_28_S15 10/28/2015 14:40:00 0.0
2015_10_28_S15 10/28/2015 14:45:00 0.0
2015_10_28_S15 10/28/2015 14:50:00 0.0
2015_10_28_S15 10/28/2015 14:55:00 0.0
2015_10_28_S15 10/28/2015 15:00:00 0.0
2015_10_28_S15 10/28/2015 15:05:00 0.0
2015_10_28_S15 10/28/2015 15:10:00 0.0
2015_10_28_S15 10/28/2015 15:15:00 0.0
2015_10_28_S15 10/28/2015 15:20:00 0.0
2015_10_28_S15 10/28/2015 15:25:00 0.0
2015_10_28_S15 10/28/2015 15:30:00 0.0
2015_10_28_S15 10/28/2015 15:35:00 0.0
2015_10_28_S15 10/28/2015 15:40:00 0.0
2015_10_28_S15 10/28/2015 15:45:00 0.0
2015_10_28_S15 10/28/2015 15:50:00 0.0
2015_10_28_S15 10/28/2015 15:55:00 0.0
2015_10_28_S15 10/28/2015 16:00:00 0.0
2015_10_28_S15 10/28/2015 16:05:00 0.0
2015_10_28_S15 10/28/2015 16:10:00 0.0
2015_10_28_S15 10/28/2015 16:15:00 0.0267
2015_10_28_S15 10/28/2015 16:20:00 0.0546
2015_10_28_S15 10/28/2015 16:25:00 0.0083
2015_10_28_S15 10/28/2015 16:30:00 0.0
2015_10_28_S15 10/28/2015 16:35:00 0.0
2015_10_28_S15 10/28/2015 16:40:00 0.0
2015_10_28_S15 10/28/2015 16:45:00 0.0
2015_10_28_S15 10/28/2015 16:50:00 0.0
2015_10_28_S15 10/28/2015 16:55:00 0.0
2015_10_28_S15 10/28/2015 17:00:00 0.0004
2015_10_28_S15 10/28/2015 17:05:00 0.0
2015_10_28_S15 10/28/2015 17:10:00 0.0
2015_10_28_S15 10/28/2015 17:15:00 0.0
2015_10_28_S15 10/28/2015 17:20:00 0.0
2015_10_28_S15 10/28/2015 17:25:00 0.0
2015_10_28_S15 10/28/2015 17:30:00 0.0
2015_10_28_S15 10/28/2015 17:35:00 0.0
2015_10_28_S15 10/28/2015 17:40:00 0.0
2015_10_28_S15 10/28/2015 17:45:00 0.0
2015_10_28_S15 10/28/2015 17:50:00 0.0
2015_10_28_S15 10/28/2015 17:55:00 0.0
2015_10_28_S15 10/28/2015 18:00:00 0.0
2015_10_28_S15 10/28/2015 18:05:00 0.0
2015_10_28_S15 10/28/2015 18:10:00 0.0
2015_10_28_S15 10/28/2015 18:15:00 0.0
2015_10_28_S15 10/28/2015 18:20:00 0.0
2015_10_28_S15 10/28/2015 18:25:00 0.0
2015_10_28_S15 10/28/2015 18:30:00 0.0
2015_10_28_S15 10/28/2015 18:35:00 0.0
2015_10_28_S15 10/28/2015 18:40:00 0.0
2015_10_28_S15 10/28/2015 18:45:00 0.0
2015_10_28_S15 10/28/2015 18:50:00 0.0
2015_10_28_S15 10/28/2015 18:55:00 0.0
2015_10_28_S15 10/28/2015 19:00:00 0.0
2015_10_28_S15 10/28/2015 19:05:00 0.0
2015_10_28_S15 10/28/2015 19:10:00 0.0
2015_10_28_S15 10/28/2015 19:15:00 0.0
2015_10_28_S15 10/28/2015 19:20:00 0.0
2015_10_28_S15 10/28/2015 19:25:00 0.0
2015_10_28_S15 10/28/2015 19:30:00 0.0
2015_10_28_S15 10/28/2015 19:35:00 0.0
2015_10_28_S15 10/28/2015 19:40:00 0.0
2015_10_28_S15 10/28/2015 19:45:00 0.0
2015_10_28_S15 10/28/2015 19:50:00 0.0
2015_10_28_S15 10/28/2015 19:55:00 0.0
2015_10_28_S15 10/28/2015 20:00:00 0.0
2015_10_28_S15 10/28/2015 20:05:00 0.0
2015_10_28_S15 10/28/2015 20:10:00 0.0
2015_10_28_S15 10/28/2015 20:15:00 0.0
2015_10_28_S15 10/28/2015 20:20:00 0.0
2015_10_28_S15 10/28/2015 20:25:00 0.0
2015_10_28_S15 10/28/2015 20:30:00 0.0
2015_10_28_S15 10/28/2015 20:35:00 0.0
2015_10_28_S15 10/28/2015 20:40:00 0.0
2015_10_28_S15 10/28/2015 20:45:00 0.0
2015_10_28_S15 10/28/2015 20:50:00 0.0
2015_10_28_S15 10/28/2015 20:55:00 0.0
2015_10_28_S15 10/28/2015 21:00:00 0.0
2015_10_28_S15 10/28/2015 21:05:00 0.0
2015_10_28_S15 10/28/2015 21:10:00 0.0
2015_10_28_S15 10/28/2015 21:15:00 0.0
2015_10_28_S15 10/28/2015 21:20:00 0.0
2015_10_28_S15 10/28/2015 21:25:00 0.0
2015_10_28_S15 10/28/2015 21:30:00 0.0
2015_10_28_S15 10/28/2015 21:35:00 0.0
2015_10_28_S15 10/28/2015 21:40:00 0.0
2015_10_28_S15 10/28/2015 21:45:00 0.0
2015_10_28_S15 10/28/2015 21:50:00 0.0
2015_10_28_S15 10/28/2015 21:55:00 0.0
2015_10_28_S15 10/28/2015 22:00:00 0.0
2015_10_28_S15 10/28/2015 22:05:00 0.0
2015_10_28_S15 10/28/2015 22:10:00 0.0
2015_10_28_S15 10/28/2015 22:15:00 0.0
2015_10_28_S15 10/28/2015 22:20:00 0.0
2015_10_28_S15 10/28/2015 22:25:00 0.0
2015_10_28_S15 10/28/2015 22:30:00 0.0
2015_10_28_S15 10/28/2015 22:35:00 0.0
2015_10_28_S15 10/28/2015 22:40:00 0.0
2015_10_28_S15 10/28/2015 22:45:00 0.0
2015_10_28_S15 10/28/2015 22:50:00 0.0813
2015_10_28_S15 10/28/2015 22:55:00 0.7347
2015_10_28_S15 10/28/2015 23:00:00 0.0407
2015_10_28_S15 10/28/2015 23:05:00 0.0
2015_10_28_S15 10/28/2015 23:10:00 0.0
2015_10_28_S15 10/28/2015 23:15:00 0.0
2015_10_28_S15 10/28/2015 23:20:00 0.0
2015_10_28_S15 10/28/2015 23:25:00 0.0
2015_10_28_S15 10/28/2015 23:30:00 0.0
2015_10_28_S15 10/28/2015 23:35:00 0.0003
2015_10_28_S15 10/28/2015 23:40:00 0.0195
2015_10_28_S15 10/28/2015 23:45:00 0.0022
2015_10_28_S15 10/28/2015 23:50:00 0.0553
2015_10_28_S15 10/28/2015 23:55:00 0.083
2015_10_28_S15 10/29/2015 00:00:00 0.0255
2015_10_28_S15 10/29/2015 00:05:00 0.0055
2015_10_28_S15 10/29/2015 00:10:00 0.0
2015_10_28_S15 10/29/2015 00:15:00 0.0
2015_10_28_S15 10/29/2015 00:20:00 0.0
2015_10_28_S15 10/29/2015 00:25:00 0.0
2015_10_28_S15 10/29/2015 00:30:00 0.0004
2015_10_28_S15 10/29/2015 00:35:00 0.0
2015_10_28_S15 10/29/2015 00:40:00 0.0587
2015_10_28_S15 10/29/2015 00:45:00 0.5005
2015_10_28_S15 10/29/2015 00:50:00 0.3048
2015_10_28_S15 10/29/2015 00:55:00 0.0495
2015_10_28_S15 10/29/2015 01:00:00 0.1226
2015_10_28_S15 10/29/2015 01:05:00 0.0947
2015_10_28_S15 10/29/2015 01:10:00 0.0663
2015_10_28_S15 10/29/2015 01:15:00 0.0792
2015_10_28_S15 10/29/2015 01:20:00 0.1212
2015_10_28_S15 10/29/2015 01:25:00 0.1605
2015_10_28_S15 10/29/2015 01:30:00 0.1332
2015_10_28_S15 10/29/2015 01:35:00 0.1986
2015_10_28_S15 10/29/2015 01:40:00 0.2695
2015_10_28_S15 10/29/2015 01:45:00 0.1963
2015_10_28_S15 10/29/2015 01:50:00 0.0353
2015_10_28_S15 10/29/2015 01:55:00 0.0
2015_10_28_S15 10/29/2015 02:00:00 0.0
2015_10_28_S15 10/29/2015 02:05:00 0.0
2015_10_28_S15 10/29/2015 02:10:00 0.0
2015_10_28_S15 10/29/2015 02:15:00 0.0
2015_10_28_S15 10/29/2015 02:20:00 0.0
2015_10_28_S15 10/29/2015 02:25:00 0.0
2015_10_28_S15 10/29/2015 02:30:00 0.0
2015_10_28_S15 10/29/2015 02:35:00 0.0
2015_10_28_S15 10/29/2015 02:40:00 0.0
2015_10_28_S15 10/29/2015 02:45:00 0.0
2015_10_28_S15 10/29/2015 02:50:00 0.0
2015_10_28_S15 10/29/2015 02:55:00 0.0
2015_10_28_S15 10/29/2015 03:00:00 0.0
2015_10_28_S15 10/29/2015 03:05:00 0.0
2015_10_28_S15 10/29/2015 03:10:00 0.0
2015_10_28_S15 10/29/2015 03:15:00 0.0
2015_10_28_S15 10/29/2015 03:20:00 0.0
2015_10_28_S15 10/29/2015 03:25:00 0.0
2015_10_28_S15 10/29/2015 03:30:00 0.0
2015_10_28_S15 10/29/2015 03:35:00 0.0
2015_10_28_S15 10/29/2015 03:40:00 0.0
2015_10_28_S15 10/29/2015 03:45:00 0.0
2015_10_28_S15 10/29/2015 03:50:00 0.0
2015_10_28_S15 10/29/2015 03:55:00 0.0
2015_10_28_S15 10/29/2015 04:00:00 0.0
2015_10_28_S15 10/29/2015 04:05:00 0.0
2015_10_28_S15 10/29/2015 04:10:00 0.0
2015_10_28_S15 10/29/2015 04:15:00 0.0
2015_10_28_S15 10/29/2015 04:20:00 0.0
2015_10_28_S15 10/29/2015 04:25:00 0.0
2015_10_28_S15 10/29/2015 04:30:00 0.0
2015_10_28_S15 10/29/2015 04:35:00 0.0
2015_10_28_S15 10/29/2015 04:40:00 0.0
2015_10_28_S15 10/29/2015 04:45:00 0.0
2015_10_28_S15 10/29/2015 04:50:00 0.0
2015_10_28_S15 10/29/2015 04:55:00 0.0
2015_10_28_S15 10/29/2015 05:00:00 0.0
2015_10_28_S15 10/29/2015 05:05:00 0.0
2015_10_28_S15 10/29/2015 05:10:00 0.0
2015_10_28_S15 10/29/2015 05:15:00 0.0
2015_10_28_S15 10/29/2015 05:20:00 0.0
2015_10_28_S15 10/29/2015 05:25:00 0.0
2015_10_28_S15 10/29/2015 05:30:00 0.0
2015_10_28_S15 10/29/2015 05:35:00 0.0
2015_10_28_S15 10/29/2015 05:40:00 0.0
2015_10_28_S15 10/29/2015 05:45:00 0.0
2015_10_28_S15 10/29/2015 05:50:00 0.0
2015_10_28_S15 10/29/2015 05:55:00 0.0
2015_10_28_S15 10/29/2015 06:00:00 0.0014
2015_10_28_S15 10/29/2015 06:05:00 0.0
2015_10_28_S15 10/29/2015 06:10:00 0.0
2015_10_28_S15 10/29/2015 06:15:00 0.0
2015_10_28_S15 10/29/2015 06:20:00 0.0
2015_10_28_S15 10/29/2015 06:25:00 0.0
2015_10_28_S15 10/29/2015 06:30:00 0.0
2015_10_28_S15 10/29/2015 06:35:00 0.0
2015_10_28_S15 10/29/2015 06:40:00 0.0
2015_10_28_S15 10/29/2015 06:45:00 0.0
2015_10_28_S15 10/29/2015 06:50:00 0.0
2015_10_28_S15 10/29/2015 06:55:00 0.0
2015_10_28_S15 10/29/2015 07:00:00 0.0
2015_10_28_S15 10/29/2015 07:05:00 0.0
2015_10_28_S15 10/29/2015 07:10:00 0.0
2015_10_28_S15 10/29/2015 07:15:00 0.0
2015_10_28_S15 10/29/2015 07:20:00 0.0
2015_10_28_S15 10/29/2015 07:25:00 0.0
2015_10_28_S15 10/29/2015 07:30:00 0.0
2015_10_28_S15 10/29/2015 07:35:00 0.0
2015_10_28_S15 10/29/2015 07:40:00 0.0
2015_10_28_S15 10/29/2015 07:45:00 0.0
2015_10_28_S15 10/29/2015 07:50:00 0.0
2015_10_28_S15 10/29/2015 07:55:00 0.0
2015_10_28_S15 10/29/2015 08:00:00 0.0

2015_10_28_S16 10/28/2015 10:25:00 0.0466
2015_10_28_S16 10/28/2015 10:30:00 0.0536
2015_10_28_S16 10/28/2015 10:35:00 0.3324
2015_10_28_S16 10/28/2015 10:40:00 0.0636
2015_10_28_S16 10/28/2015 10:45:00 0.0389
2015_10_28_S16 10/28/2015 10:50:00 0.014
2015_10_28_S16 10/28/2015 10:55:00 0.0189
2015_10_28_S16 10/28/2015 11:00:00 0.0056
2015_10_28_S16 10/28/2015 11:05:00 0.455
2015_10_28_S16 10/28/2015 11:10:00 1.5475
2015_10_28_S16 10/28/2015 11:15:00 5.6709
2015_10_28_S16 10/28/2015 11:20:00 4.2712
2015_10_28_S16 10/28/2015 11:25:00 2.7052
2015_10_28_S16 10/28/2015 11:30:00 1.1391
2015_10_28_S16 10/28/2015 11:35:00 3.9657
2015_10_28_S16 10/28/2015 11:40:00 4.0293
2015_10_28_S16 10/28/2015 11:45:00 9.6066
2015_10_28_S16 10/28/2015 11:50:00 6.3381
2015_10_28_S16 10/28/2015 11:55:00 4.9992
2015_10_28_S16 10/28/2015 12:00:00 3.5453
2015_10_28_S16 10/28/2015 12:05:00 0.8691
2015_10_28_S16 10/28/2015 12:10:00 5.4369
2015_10_28_S16 10/28/2015 12:15:00 4.03
2015_10_28_S16 10/28/2015 12:20:00 0.1579
2015_10_28_S16 10/28/2015 12:25:00 12.9486
2015_10_28_S16 10/28/2015 12:30:00 3.208
2015_10_28_S16 10/28/2015 12:35:00 11.5795
2015_10_28_S16 10/28/2015 12:40:00 8.5166
2015_10_28_S16 10/28/2015 12:45:00 7.8115
2015_10_28_S16 10/28/2015 12:50:00 7.8302
2015_10_28_S16 10/28/2015 12:55:00 1.7893
2015_10_28_S16 10/28/2015 13:00:00 2.5631
2015_10_28_S16 10/28/2015 13:05:00 0.3099
2015_10_28_S16 10/28/2015 13:10:00 0.0009
2015_10_28_S16 10/28/2015 13:15:00 0.0
2015_10_28_S16 10/28/2015 13:20:00 0.0
2015_10_28_S16 10/28/2015 13:25:00 0.0
2015_10_28_S16 10/28/2015 13:30:00 0.0
2015_10_28_S16 10/28/2015 13:35:00 0.0
2015_10_28_S16 10/28/2015 13:40:00 0.2182
2015_10_28_S16 10/28/2015 13:45:00 0.0517
2015_10_28_S16 10/28/2015 13:50:00 0.0069
2015_10_28_S16 10/28/2015 13:55:00 0.0
2015_10_28_S16 10/28/2015 14:00:00 0.0
2015_10_28_S16 10/28/2015 14:05:00 0.0
2015_10_28_S16 10/28/2015 14:10:00 0.0
2015_10_28_S16 10/28/2015 14:15:00 0.0
2015_10_28_S16 10/28/2015 14:20:00 0.0
2015_10_28_S16 10/28/2015 14:25:00 0.002
2015_10_28_S16 10/28/2015 14:30:00 0.0711
2015_10_28_S16 10/28/2015 14:35:00 0.0168
2015_10_28_S16 10/28/2015 14:40:00 0.0
2015_10_28_S16 10/28/2015 14:45:00 0.0
2015_10_28_S16 10/28/2015 14:50:00 0.0
2015_10_28_S16 10/28/2015 14:55:00 0.0
2015_10_28_S16 10/28/2015 15:00:00 0.0
2015_10_28_S16 10/28/2015 15:05:00 0.0
2015_10_28_S16 10/28/2015 15:10:00 0.0
2015_10_28_S16 10/28/2015 15:15:00 0.0
2015_10_28_S16 10/28/2015 15:20:00 0.0
2015_10_28_S16 10/28/2015 15:25:00 0.0
2015_10_28_S16 10/28/2015 15:30:00 0.0
2015_10_28_S16 10/28/2015 15:35:00 0.0
2015_10_28_S16 10/28/2015 15:40:00 0.0
2015_10_28_S16 10/28/2015 15:45:00 0.0
2015_10_28_S16 10/28/2015 15:50:00 0.0
2015_10_28_S16 10/28/2015 15:55:00 0.0
2015_10_28_S16 10/28/2015 16:00:00 0.0
2015_10_28_S16 10/28/2015 16:05:00 0.0
2015_10_28_S16 10/28/2015 16:10:00 0.0
2015_10_28_S16 10/28/2015 16:15:00 0.0218
2015_10_28_S16 10/28/2015 16:20:00 0.0622
2015_10_28_S16 10/28/2015 16:25:00 0.0089
2015_10_28_S16 10/28/2015 16:30:00 0.0
2015_10_28_S16 10/28/2015 16:35:00 0.0
2015_10_28_S16 10/28/2015 16:40:00 0.0
2015_10_28_S16 10/28/2015 16:45:00 0.0
2015_10_28_S16 10/28/2015 16:50:00 0.0
2015_10_28_S16 10/28/2015 16:55:00 0.0
2015_10_28_S16 10/28/2015 17:00:00 0.0
2015_10_28_S16 10/28/2015 17:05:00 0.0
2015_10_28_S16 10/28/2015 17:10:00 0.0
2015_10_28_S16 10/28/2015 17:15:00 0.0
2015_10_28_S16 10/28/2015 17:20:00 0.0
2015_10_28_S16 10/28/2015 17:25:00 0.0
2015_10_28_S16 10/28/2015 17:30:00 0.0
2015_10_28_S16 10/28/2015 17:35:00 0.0
2015_10_28_S16 10/28/2015 17:40:00 0.0
2015_10_28_S16 10/28/2015 17:45:00 0.0
2015_10_28_S16 10/28/2015 17:50:00 0.0
2015_10_28_S16 10/28/2015 17:55:00 0.0
2015_10_28_S16 10/28/2015 18:00:00 0.0
2015_10_28_S16 10/28/2015 18:05:00 0.0
2015_10_28_S16 10/28/2015 18:10:00 0.0
2015_10_28_S16 10/28/2015 18:15:00 0.0
2015_10_28_S16 10/28/2015 18:20:00 0.0
2015_10_28_S16 10/28/2015 18:25:00 0.0
2015_10_28_S16 10/28/2015 18:30:00 0.0
2015_10_28_S16 10/28/2015 18:35:00 0.0
2015_10_28_S16 10/28/2015 18:40:00 0.0
2015_10_28_S16 10/28/2015 18:45:00 0.0
2015_10_28_S16 10/28/2015 18:50:00 0.0
2015_10_28_S16 10/28/2015 18:55:00 0.0
2015_10_28_S16 10/28/2015 19:00:00 0.0
2015_10_28_S16 10/28/2015 19:05:00 0.0
2015_10_28_S16 10/28/2015 19:10:00 0.0
2015_10_28_S16 10/28/2015 19:15:00 0.0
2015_10_28_S16 10/28/2015 19:20:00 0.0
2015_10_28_S16 10/28/2015 19:25:00 0.0
2015_10_28_S16 10/28/2015 19:30:00 0.0
2015_10_28_S16 10/28/2015 19:35:00 0.0
2015_10_28_S16 10/28/2015 19:40:00 0.0
2015_10_28_S16 10/28/2015 19:45:00 0.0
2015_10_28_S16 10/28/2015 19:50:00 0.0
2015_10_28_S16 10/28/2015 19:55:00 0.0
2015_10_28_S16 10/28/2015 20:00:00 0.0
2015_10_28_S16 10/28/2015 20:05:00 0.0
2015_10_28_S16 10/28/2015 20:10:00 0.0
2015_10_28_S16 10/28/2015 20:15:00 0.0
2015_10_28_S16 10/28/2015 20:20:00 0.0
2015_10_28_S16 10/28/2015 20:25:00 0.0
2015_10_28_S16 10/28/2015 20:30:00 0.0
2015_10_28_S16 10/28/2015 20:35:00 0.0
2015_10_28_S16 10/28/2015 20:40:00 0.0
2015_10_28_S16 10/28/2015 20:45:00 0.0
2015_10_28_S16 10/28/2015 20:50:00 0.0
2015_10_28_S16 10/28/2015 20:55:00 0.0
2015_10_28_S16 10/28/2015 21:00:00 0.0
2015_10_28_S16 10/28/2015 21:05:00 0.0
2015_10_28_S16 10/28/2015 21:10:00 0.0
2015_10_28_S16 10/28/2015 21:15:00 0.0
2015_10_28_S16 10/28/2015 21:20:00 0.0
2015_10_28_S16 10/28/2015 21:25:00 0.0
2015_10_28_S16 10/28/2015 21:30:00 0.0
2015_10_28_S16 10/28/2015 21:35:00 0.0
2015_10_28_S16 10/28/2015 21:40:00 0.0
2015_10_28_S16 10/28/2015 21:45:00 0.0
2015_10_28_S16 10/28/2015 21:50:00 0.0
2015_10_28_S16 10/28/2015 21:55:00 0.0
2015_10_28_S16 10/28/2015 22:00:00 0.0
2015_10_28_S16 10/28/2015 22:05:00 0.0
2015_10_28_S16 10/28/2015 22:10:00 0.0
2015_10_28_S16 10/28/2015 22:15:00 0.0
2015_10_28_S16 10/28/2015 22:20:00 0.0
2015_10_28_S16 10/28/2015 22:25:00 0.0
2015_10_28_S16 10/28/2015 22:30:00 0.0
2015_10_28_S16 10/28/2015 22:35:00 0.0
2015_10_28_S16 10/28/2015 22:40:00 0.0
2015_10_28_S16 10/28/2015 22:45:00 0.0
2015_10_28_S16 10/28/2015 22:50:00 0.0
2015_10_28_S16 10/28/2015 22:55:00 0.1445
2015_10_28_S16 10/28/2015 23:00:00 0.0997
2015_10_28_S16 10/28/2015 23:05:00 0.0
2015_10_28_S16 10/28/2015 23:10:00 0.0
2015_10_28_S16 10/28/2015 23:15:00 0.0
2015_10_28_S16 10/28/2015 23:20:00 0.0
2015_10_28_S16 10/28/2015 23:25:00 0.0
2015_10_28_S16 10/28/2015 23:30:00 0.0
2015_10_28_S16 10/28/2015 23:35:00 0.0
2015_10_28_S16 10/28/2015 23:40:00 0.0184
2015_10_28_S16 10/28/2015 23:45:00 0.001
2015_10_28_S16 10/28/2015 23:50:00 0.0384
2015_10_28_S16 10/28/2015 23:55:00 0.0497
2015_10_28_S16 10/29/2015 00:00:00 0.0213
2015_10_28_S16 10/29/2015 00:05:00 0.0073
2015_10_28_S16 10/29/2015 00:10:00 0.0
2015_10_28_S16 10/29/2015 00:15:00 0.0
2015_10_28_S16 10/29/2015 00:20:00 0.0
2015_10_28_S16 10/29/2015 00:25:00 0.0
2015_10_28_S16 10/29/2015 00:30:00 0.0
2015_10_28_S16 10/29/2015 00:35:00 0.0
2015_10_28_S16 10/29/2015 00:40:00 0.0175
2015_10_28_S16 10/29/2015 00:45:00 0.2671
2015_10_28_S16 10/29/2015 00:50:00 0.4371
2015_10_28_S16 10/29/2015 00:55:00 0.0252
2015_10_28_S16 10/29/2015 01:00:00 0.0804
2015_10_28_S16 10/29/2015 01:05:00 0.066
2015_10_28_S16 10/29/2015 01:10:00 0.0749
2015_10_28_S16 10/29/2015 01:15:00 0.069
2015_10_28_S16 10/29/2015 01:20:00 0.1427
2015_10_28_S16 10/29/2015 01:25:00 0.1617
2015_10_28_S16 10/29/2015 01:30:00 0.1412
2015_10_28_S16 10/29/2015 01:35:00 0.1679
2015_10_28_S16 10/29/2015 01:40:00 0.2599
2015_10_28_S16 10/29/2015 01:45:00 0.2843
2015_10_28_S16 10/29/2015 01:50:00 0.1114
2015_10_28_S16 10/29/2015 01:55:00 0.0008
2015_10_28_S16 10/29/2015 02:00:00 0.0
2015_10_28_S16 10/29/2015 02:05:00 0.0
2015_10_28_S16 10/29/2015 02:10:00 0.0
2015_10_28_S16 10/29/2015 02:15:00 0.0
2015_10_28_S16 10/29/2015 02:20:00 0.0
2015_10_28_S16 10/29/2015 02:25:00 0.0
2015_10_28_S16 10/29/2015 02:30:00 0.0
2015_10_28_S16 10/29/2015 02:35:00 0.0
2015_10_28_S16 10/29/2015 02:40:00 0.0
2015_10_28_S16 10/29/2015 02:45:00 0.0
2015_10_28_S16 10/29/2015 02:50:00 0.0
2015_10_28_S16 10/29/2015 02:55:00 0.0
2015_10_28_S16 10/29/2015 03:00:00 0.0
2015_10_28_S16 10/29/2015 03:05:00 0.0
2015_10_28_S16 10/29/2015 03:10:00 0.0
2015_10_28_S16 10/29/2015 03:15:00 0.0
2015_10_28_S16 10/29/2015 03:20:00 0.0
2015_10_28_S16 10/29/2015 03:25:00 0.0
2015_10_28_S16 10/29/2015 03:30:00 0.0
2015_10_28_S16 10/29/2015 03:35:00 0.0
2015_10_28_S16 10/29/2015 03:40:00 0.0
2015_10_28_S16 10/29/2015 03:45:00 0.0
2015_10_28_S16 10/29/2015 03:50:00 0.0
2015_10_28_S16 10/29/2015 03:55:00 0.0
2015_10_28_S16 10/29/2015 04:00:00 0.0
2015_10_28_S16 10/29/2015 04:05:00 0.0
2015_10_28_S16 10/29/2015 04:10:00 0.0
2015_10_28_S16 10/29/2015 04:15:00 0.0
2015_10_28_S16 10/29/2015 04:20:00 0.0
2015_10_28_S16 10/29/2015 04:25:00 0.0
2015_10_28_S16 10/29/2015 04:30:00 0.0
2015_10_28_S16 10/29/2015 04:35:00 0.0
2015_10_28_S16 10/29/2015 04:40:00 0.0
2015_10_28_S16 10/29/2015 04:45:00 0.0
2015_10_28_S16 10/29/2015 04:50:00 0.0
2015_10_28_S16 10/29/2015 04:55:00 0.0
2015_10_28_S16 10/29/2015 05:00:00 0.0
2015_10_28_S16 10/29/2015 05:05:00 0.0
2015_10_28_S16 10/29/2015 05:10:00 0.0
2015_10_28_S16 10/29/2015 05:15:00 0.0
2015_10_28_S16 10/29/2015 05:20:00 0.0
2015_10_28_S16 10/29/2015 05:25:00 0.0
2015_10_28_S16 10/29/2015 05:30:00 0.0
2015_10_28_S16 10/29/2015 05:35:00 0.0
2015_10_28_S16 10/29/2015 05:40:00 0.0
2015_10_28_S16 10/29/2015 05:45:00 0.0
2015_10_28_S16 10/29/2015 05:50:00 0.0
2015_10_28_S16 10/29/2015 05:55:00 0.0
2015_10_28_S16 10/29/2015 06:00:00 0.0
2015_10_28_S16 10/29/2015 06:05:00 0.0
2015_10_28_S16 10/29/2015 06:10:00 0.0
2015_10_28_S16 10/29/2015 06:15:00 0.0
2015_10_28_S16 10/29/2015 06:20:00 0.0
2015_10_28_S16 10/29/2015 06:25:00 0.0
2015_10_28_S16 10/29/2015 06:30:00 0.0
2015_10_28_S16 10/29/2015 06:35:00 0.0
2015_10_28_S16 10/29/2015 06:40:00 0.0
2015_10_28_S16 10/29/2015 06:45:00 0.0
2015_10_28_S16 10/29/2015 06:50:00 0.0
2015_10_28_S16 10/29/2015 06:55:00 0.0
2015_10_28_S16 10/29/2015 07:00:00 0.0
2015_10_28_S16 10/29/2015 07:05:00 0.0
2015_10_28_S16 10/29/2015 07:10:00 0.0
2015_10_28_S16 10/29/2015 07:15:00 0.0
2015_10_28_S16 10/29/2015 07:20:00 0.0
2015_10_28_S16 10/29/2015 07:25:00 0.0
2015_10_28_S16 10/29/2015 07:30:00 0.0
2015_10_28_S16 10/29/2015 07:35:00 0.0
2015_10_28_S16 10/29/2015 07:40:00 0.0
2015_10_28_S16 10/29/2015 07:45:00 0.0
2015_10_28_S16 10/29/2015 07:50:00 0.0
2015_10_28_S16 10/29/2015 07:55:00 0.0
2015_10_28_S16 10/29/2015 08:00:00 0.0

2015_10_28_S17 10/28/2015 10:25:00 0.0371
2015_10_28_S17 10/28/2015 10:30:00 0.0072
2015_10_28_S17 10/28/2015 10:35:00 0.1037
2015_10_28_S17 10/28/2015 10:40:00 0.0812
2015_10_28_S17 10/28/2015 10:45:00 0.0508
2015_10_28_S17 10/28/2015 10:50:00 0.033
2015_10_28_S17 10/28/2015 10:55:00 0.0661
2015_10_28_S17 10/28/2015 11:00:00 0.0795
2015_10_28_S17 10/28/2015 11:05:00 0.5286
2015_10_28_S17 10/28/2015 11:10:00 1.8931
2015_10_28_S17 10/28/2015 11:15:00 4.8305
2015_10_28_S17 10/28/2015 11:20:00 4.5324
2015_10_28_S17 10/28/2015 11:25:00 4.1608
2015_10_28_S17 10/28/2015 11:30:00 3.7893
2015_10_28_S17 10/28/2015 11:35:00 4.7902
2015_10_28_S17 10/28/2015 11:40:00 2.6775
2015_10_28_S17 10/28/2015 11:45:00 5.6072
2015_10_28_S17 10/28/2015 11:50:00 6.1685
2015_10_28_S17 10/28/2015 11:55:00 7.8091
2015_10_28_S17 10/28/2015 12:00:00 3.4775
2015_10_28_S17 10/28/2015 12:05:00 2.0349
2015_10_28_S17 10/28/2015 12:10:00 7.9601
2015_10_28_S17 10/28/2015 12:15:00 8.6089
2015_10_28_S17 10/28/2015 12:20:00 0.1222
2015_10_28_S17 10/28/2015 12:25:00 6.2893
2015_10_28_S17 10/28/2015 12:30:00 0.7178
2015_10_28_S17 10/28/2015 12:35:00 2.7565
2015_10_28_S17 10/28/2015 12:40:00 2.8163
2015_10_28_S17 10/28/2015 12:45:00 5.6543
2015_10_28_S17 10/28/2015 12:50:00 6.8686
2015_10_28_S17 10/28/2015 12:55:00 1.1152
2015_10_28_S17 10/28/2015 13:00:00 0.8329
2015_10_28_S17 10/28/2015 13:05:00 0.0274
2015_10_28_S17 10/28/2015 13:10:00 0.0145
2015_10_28_S17 10/28/2015 13:15:00 0.008
2015_10_28_S17 10/28/2015 13:20:00 0.0
2015_10_28_S17 10/28/2015 13:25:00 0.0
2015_10_28_S17 10/28/2015 13:30:00 0.0
2015_10_28_S17 10/28/2015 13:35:00 0.0
2015_10_28_S17 10/28/2015 13:40:00 0.0328
2015_10_28_S17 10/28/2015 13:45:00 0.01
2015_10_28_S17 10/28/2015 13:50:00 0.002
2015_10_28_S17 10/28/2015 13:55:00 0.0
2015_10_28_S17 10/28/2015 14:00:00 0.0
2015_10_28_S17 10/28/2015 14:05:00 0.0
2015_10_28_S17 10/28/2015 14:10:00 0.0
2015_10_28_S17 10/28/2015 14:15:00 0.0
2015_10_28_S17 10/28/2015 14:20:00 0.0
2015_10_28_S17 10/28/2015 14:25:00 0.0787
2015_10_28_S17 10/28/2015 14:30:00 0.0582
2015_10_28_S17 10/28/2015 14:35:00 0.0028
2015_10_28_S17 10/28/2015 14:40:00 0.0
2015_10_28_S17 10/28/2015 14:45:00 0.0
2015_10_28_S17 10/28/2015 14:50:00 0.0
2015_10_28_S17 10/28/2015 14:55:00 0.0
2015_10_28_S17 10/28/2015 15:00:00 0.0
2015_10_28_S17 10/28/2015 15:05:00 0.0
2015_10_28_S17 10/28/2015 15:10:00 0.0
2015_10_28_S17 10/28/2015 15:15:00 0.0
2015_10_28_S17 10/28/2015 15:20:00 0.0
2015_10_28_S17 10/28/2015 15:25:00 0.0
2015_10_28_S17 10/28/2015 15:30:00 0.0
2015_10_28_S17 10/28/2015 15:35:00 0.0
2015_10_28_S17 10/28/2015 15:40:00 0.0
2015_10_28_S17 10/28/2015 15:45:00 0.0
2015_10_28_S17 10/28/2015 15:50:00 0.0
2015_10_28_S17 10/28/2015 15:55:00 0.0
2015_10_28_S17 10/28/2015 16:00:00 0.0
2015_10_28_S17 10/28/2015 16:05:00 0.0
2015_10_28_S17 10/28/2015 16:10:00 0.0
2015_10_28_S17 10/28/2015 16:15:00 0.0244
2015_10_28_S17 10/28/2015 16:20:00 0.051
2015_10_28_S17 10/28/2015 16:25:00 0.0045
2015_10_28_S17 10/28/2015 16:30:00 0.0
2015_10_28_S17 10/28/2015 16:35:00 0.0
2015_10_28_S17 10/28/2015 16:40:00 0.0
2015_10_28_S17 10/28/2015 16:45:00 0.0
2015_10_28_S17 10/28/2015 16:50:00 0.0
2015_10_28_S17 10/28/2015 16:55:00 0.0
2015_10_28_S17 10/28/2015 17:00:00 0.0007
2015_10_28_S17 10/28/2015 17:05:00 0.0
2015_10_28_S17 10/28/2015 17:10:00 0.0
2015_10_28_S17 10/28/2015 17:15:00 0.0
2015_10_28_S17 10/28/2015 17:20:00 0.0
2015_10_28_S17 10/28/2015 17:25:00 0.0
2015_10_28_S17 10/28/2015 17:30:00 0.0
2015_10_28_S17 10/28/2015 17:35:00 0.0
2015_10_28_S17 10/28/2015 17:40:00 0.0
2015_10_28_S17 10/28/2015 17:45:00 0.0
2015_10_28_S17 10/28/2015 17:50:00 0.0
2015_10_28_S17 10/28/2015 17:55:00 0.0
2015_10_28_S17 10/28/2015 18:00:00 0.0
2015_10_28_S17 10/28/2015 18:05:00 0.0
2015_10_28_S17 10/28/2015 18:10:00 0.0
2015_10_28_S17 10/28/2015 18:15:00 0.0
2015_10_28_S17 10/28/2015 18:20:00 0.0
2015_10_28_S17 10/28/2015 18:25:00 0.0
2015_10_28_S17 10/28/2015 18:30:00 0.0
2015_10_28_S17 10/28/2015 18:35:00 0.0
2015_10_28_S17 10/28/2015 18:40:00 0.0
2015_10_28_S17 10/28/2015 18:45:00 0.0
2015_10_28_S17 10/28/2015 18:50:00 0.0
2015_10_28_S17 10/28/2015 18:55:00 0.0
2015_10_28_S17 10/28/2015 19:00:00 0.0
2015_10_28_S17 10/28/2015 19:05:00 0.0
2015_10_28_S17 10/28/2015 19:10:00 0.0
2015_10_28_S17 10/28/2015 19:15:00 0.0
2015_10_28_S17 10/28/2015 19:20:00 0.0
2015_10_28_S17 10/28/2015 19:25:00 0.0
2015_10_28_S17 10/28/2015 19:30:00 0.0
2015_10_28_S17 10/28/2015 19:35:00 0.0
2015_10_28_S17 10/28/2015 19:40:00 0.0
2015_10_28_S17 10/28/2015 19:45:00 0.0
2015_10_28_S17 10/28/2015 19:50:00 0.0
2015_10_28_S17 10/28/2015 19:55:00 0.0
2015_10_28_S17 10/28/2015 20:00:00 0.0
2015_10_28_S17 10/28/2015 20:05:00 0.0
2015_10_28_S17 10/28/2015 20:10:00 0.0
2015_10_28_S17 10/28/2015 20:15:00 0.0
2015_10_28_S17 10/28/2015 20:20:00 0.0
2015_10_28_S17 10/28/2015 20:25:00 0.0
2015_10_28_S17 10/28/2015 20:30:00 0.0
2015_10_28_S17 10/28/2015 20:35:00 0.0
2015_10_28_S17 10/28/2015 20:40:00 0.0
2015_10_28_S17 10/28/2015 20:45:00 0.0
2015_10_28_S17 10/28/2015 20:50:00 0.0
2015_10_28_S17 10/28/2015 20:55:00 0.0
2015_10_28_S17 10/28/2015 21:00:00 0.0
2015_10_28_S17 10/28/2015 21:05:00 0.0
2015_10_28_S17 10/28/2015 21:10:00 0.0
2015_10_28_S17 10/28/2015 21:15:00 0.0
2015_10_28_S17 10/28/2015 21:20:00 0.0
2015_10_28_S17 10/28/2015 21:25:00 0.0
2015_10_28_S17 10/28/2015 21:30:00 0.0
2015_10_28_S17 10/28/2015 21:35:00 0.0
2015_10_28_S17 10/28/2015 21:40:00 0.0
2015_10_28_S17 10/28/2015 21:45:00 0.0
2015_10_28_S17 10/28/2015 21:50:00 0.0
2015_10_28_S17 10/28/2015 21:55:00 0.0
2015_10_28_S17 10/28/2015 22:00:00 0.0
2015_10_28_S17 10/28/2015 22:05:00 0.0
2015_10_28_S17 10/28/2015 22:10:00 0.0
2015_10_28_S17 10/28/2015 22:15:00 0.0
2015_10_28_S17 10/28/2015 22:20:00 0.0
2015_10_28_S17 10/28/2015 22:25:00 0.0
2015_10_28_S17 10/28/2015 22:30:00 0.0
2015_10_28_S17 10/28/2015 22:35:00 0.0
2015_10_28_S17 10/28/2015 22:40:00 0.0
2015_10_28_S17 10/28/2015 22:45:00 0.0
2015_10_28_S17 10/28/2015 22:50:00 0.0897
2015_10_28_S17 10/28/2015 22:55:00 1.157
2015_10_28_S17 10/28/2015 23:00:00 0.1266
2015_10_28_S17 10/28/2015 23:05:00 0.001
2015_10_28_S17 10/28/2015 23:10:00 0.0
2015_10_28_S17 10/28/2015 23:15:00 0.0
2015_10_28_S17 10/28/2015 23:20:00 0.0
2015_10_28_S17 10/28/2015 23:25:00 0.0
2015_10_28_S17 10/28/2015 23:30:00 0.0
2015_10_28_S17 10/28/2015 23:35:00 0.0041
2015_10_28_S17 10/28/2015 23:40:00 0.0265
2015_10_28_S17 10/28/2015 23:45:00 0.0041
2015_10_28_S17 10/28/2015 23:50:00 0.0373
2015_10_28_S17 10/28/2015 23:55:00 0.0688
2015_10_28_S17 10/29/2015 00:00:00 0.029
2015_10_28_S17 10/29/2015 00:05:00 0.0008
2015_10_28_S17 10/29/2015 00:10:00 0.0
2015_10_28_S17 10/29/2015 00:15:00 0.0
2015_10_28_S17 10/29/2015 00:20:00 0.0
2015_10_28_S17 10/29/2015 00:25:00 0.0
2015_10_28_S17 10/29/2015 00:30:00 0.0007
2015_10_28_S17 10/29/2015 00:35:00 0.0
2015_10_28_S17 10/29/2015 00:40:00 0.0076
2015_10_28_S17 10/29/2015 00:45:00 0.2508
2015_10_28_S17 10/29/2015 00:50:00 0.3873
2015_10_28_S17 10/29/2015 00:55:00 0.0527
2015_10_28_S17 10/29/2015 01:00:00 0.0991
2015_10_28_S17 10/29/2015 01:05:00 0.0876
2015_10_28_S17 10/29/2015 01:10:00 0.0806
2015_10_28_S17 10/29/2015 01:15:00 0.0828
2015_10_28_S17 10/29/2015 01:20:00 0.1545
2015_10_28_S17 10/29/2015 01:25:00 0.1366
2015_10_28_S17 10/29/2015 01:30:00 0.1396
2015_10_28_S17 10/29/2015 01:35:00 0.1382
2015_10_28_S17 10/29/2015 01:40:00 0.2208
2015_10_28_S17 10/29/2015 01:45:00 0.254
2015_10_28_S17 10/29/2015 01:50:00 0.0748
2015_10_28_S17 10/29/2015 01:55:00 0.0
2015_10_28_S17 10/29/2015 02:00:00 0.0
2015_10_28_S17 10/29/2015 02:05:00 0.0
2015_10_28_S17 10/29/2015 02:10:00 0.0
2015_10_28_S17 10/29/2015 02:15:00 0.0
2015_10_28_S17 10/29/2015 02:20:00 0.0
2015_10_28_S17 10/29/2015 02:25:00 0.0
2015_10_28_S17 10/29/2015 02:30:00 0.0
2015_10_28_S17 10/29/2015 02:35:00 0.0
2015_10_28_S17 10/29/2015 02:40:00 0.0
2015_10_28_S17 10/29/2015 02:45:00 0.0
2015_10_28_S17 10/29/2015 02:50:00 0.0
2015_10_28_S17 10/29/2015 02:55:00 0.0
2015_10_28_S17 10/29/2015 03:00:00 0.0
2015_10_28_S17 10/29/2015 03:05:00 0.0
2015_10_28_S17 10/29/2015 03:10:00 0.0
2015_10_28_S17 10/29/2015 03:15:00 0.0
2015_10_28_S17 10/29/2015 03:20:00 0.0
2015_10_28_S17 10/29/2015 03:25:00 0.0
2015_10_28_S17 10/29/2015 03:30:00 0.0
2015_10_28_S17 10/29/2015 03:35:00 0.0
2015_10_28_S17 10/29/2015 03:40:00 0.0
2015_10_28_S17 10/29/2015 03:45:00 0.0
2015_10_28_S17 10/29/2015 03:50:00 0.0
2015_10_28_S17 10/29/2015 03:55:00 0.0
2015_10_28_S17 10/29/2015 04:00:00 0.0
2015_10_28_S17 10/29/2015 04:05:00 0.0
2015_10_28_S17 10/29/2015 04:10:00 0.0
2015_10_28_S17 10/29/2015 04:15:00 0.0
2015_10_28_S17 10/29/2015 04:20:00 0.0
2015_10_28_S17 10/29/2015 04:25:00 0.0
2015_10_28_S17 10/29/2015 04:30:00 0.0
2015_10_28_S17 10/29/2015 04:35:00 0.0
2015_10_28_S17 10/29/2015 04:40:00 0.0
2015_10_28_S17 10/29/2015 04:45:00 0.0
2015_10_28_S17 10/29/2015 04:50:00 0.0
2015_10_28_S17 10/29/2015 04:55:00 0.0
2015_10_28_S17 10/29/2015 05:00:00 0.0
2015_10_28_S17 10/29/2015 05:05:00 0.0
2015_10_28_S17 10/29/2015 05:10:00 0.0
2015_10_28_S17 10/29/2015 05:15:00 0.0
2015_10_28_S17 10/29/2015 05:20:00 0.0
2015_10_28_S17 10/29/2015 05:25:00 0.0
2015_10_28_S17 10/29/2015 05:30:00 0.0
2015_10_28_S17 10/29/2015 05:35:00 0.0
2015_10_28_S17 10/29/2015 05:40:00 0.0
2015_10_28_S17 10/29/2015 05:45:00 0.0
2015_10_28_S17 10/29/2015 05:50:00 0.0
2015_10_28_S17 10/29/2015 05:55:00 0.0
2015_10_28_S17 10/29/2015 06:00:00 0.0017
2015_10_28_S17 10/29/2015 06:05:00 0.0
2015_10_28_S17 10/29/2015 06:10:00 0.0
2015_10_28_S17 10/29/2015 06:15:00 0.0
2015_10_28_S17 10/29/2015 06:20:00 0.0
2015_10_28_S17 10/29/2015 06:25:00 0.0
2015_10_28_S17 10/29/2015 06:30:00 0.0
2015_10_28_S17 10/29/2015 06:35:00 0.0
2015_10_28_S17 10/29/2015 06:40:00 0.0
2015_10_28_S17 10/29/2015 06:45:00 0.0
2015_10_28_S17 10/29/2015 06:50:00 0.0
2015_10_28_S17 10/29/2015 06:55:00 0.0
2015_10_28_S17 10/29/2015 07:00:00 0.0
2015_10_28_S17 10/29/2015 07:05:00 0.0
2015_10_28_S17 10/29/2015 07:10:00 0.0
2015_10_28_S17 10/29/2015 07:15:00 0.0
2015_10_28_S17 10/29/2015 07:20:00 0.0
2015_10_28_S17 10/29/2015 07:25:00 0.0
2015_10_28_S17 10/29/2015 07:30:00 0.0
2015_10_28_S17 10/29/2015 07:35:00 0.0
2015_10_28_S17 10/29/2015 07:40:00 0.0
2015_10_28_S17 10/29/2015 07:45:00 0.0
2015_10_28_S17 10/29/2015 07:50:00 0.0
2015_10_28_S17 10/29/2015 07:55:00 0.0
2015_10_28_S17 10/29/2015 08:00:00 0.0

2015_10_28_S18 10/28/2015 10:25:00 0.0355
2015_10_28_S18 10/28/2015 10:30:00 0.0001
2015_10_28_S18 10/28/2015 10:35:00 0.0601
2015_10_28_S18 10/28/2015 10:40:00 0.0666
2015_10_28_S18 10/28/2015 10:45:00 0.0539
2015_10_28_S18 10/28/2015 10:50:00 0.0794
2015_10_28_S18 10/28/2015 10:55:00 0.1794
2015_10_28_S18 10/28/2015 11:00:00 0.357
2015_10_28_S18 10/28/2015 11:05:00 0.5297
2015_10_28_S18 10/28/2015 11:10:00 2.9579
2015_10_28_S18 10/28/2015 11:15:00 6.4052
2015_10_28_S18 10/28/2015 11:20:00 9.1858
2015_10_28_S18 10/28/2015 11:25:00 10.7368
2015_10_28_S18 10/28/2015 11:30:00 12.2879
2015_10_28_S18 10/28/2015 11:35:00 1.6796
2015_10_28_S18 10/28/2015 11:40:00 2.1153
2015_10_28_S18 10/28/2015 11:45:00 3.7703
2015_10_28_S18 10/28/2015 11:50:00 7.5082
2015_10_28_S18 10/28/2015 11:55:00 12.4545
2015_10_28_S18 10/28/2015 12:00:00 4.5758
2015_10_28_S18 10/28/2015 12:05:00 2.1431
2015_10_28_S18 10/28/2015 12:10:00 9.3096
2015_10_28_S18 10/28/2015 12:15:00 8.543
2015_10_28_S18 10/28/2015 12:20:00 0.0202
2015_10_28_S18 10/28/2015 12:25:00 2.0013
2015_10_28_S18 10/28/2015 12:30:00 0.0487
2015_10_28_S18 10/28/2015 12:35:00 0.1804
2015_10_28_S18 10/28/2015 12:40:00 0.5348
2015_10_28_S18 10/28/2015 12:45:00 1.1567
2015_10_28_S18 10/28/2015 12:50:00 1.9522
2015_10_28_S18 10/28/2015 12:55:00 0.1697
2015_10_28_S18 10/28/2015 13:00:00 0.0644
2015_10_28_S18 10/28/2015 13:05:00 0.0009
2015_10_28_S18 10/28/2015 13:10:00 0.0053
2015_10_28_S18 10/28/2015 13:15:00 0.0031
2015_10_28_S18 10/28/2015 13:20:00 0.0
2015_10_28_S18 10/28/2015 13:25:00 0.0
2015_10_28_S18 10/28/2015 13:30:00 0.0
2015_10_28_S18 10/28/2015 13:35:00 0.0
2015_10_28_S18 10/28/2015 13:40:00 0.0
2015_10_28_S18 10/28/2015 13:45:00 0.0
2015_10_28_S18 10/28/2015 13:50:00 0.0
2015_10_28_S18 10/28/2015 13:55:00 0.0
2015_10_28_S18 10/28/2015 14:00:00 0.0
2015_10_28_S18 10/28/2015 14:05:00 0.0
2015_10_28_S18 10/28/2015 14:10:00 0.0
2015_10_28_S18 10/28/2015 14:15:00 0.0
2015_10_28_S18 10/28/2015 14:20:00 0.0023
2015_10_28_S18 10/28/2015 14:25:00 0.1522
2015_10_28_S18 10/28/2015 14:30:00 0.0036
2015_10_28_S18 10/28/2015 14:35:00 0.0
2015_10_28_S18 10/28/2015 14:40:00 0.0
2015_10_28_S18 10/28/2015 14:45:00 0.0
2015_10_28_S18 10/28/2015 14:50:00 0.0
2015_10_28_S18 10/28/2015 14:55:00 0.0
2015_10_28_S18 10/28/2015 15:00:00 0.0
2015_10_28_S18 10/28/2015 15:05:00 0.0
2015_10_28_S18 10/28/2015 15:10:00 0.0
2015_10_28_S18 10/28/2015 15:15:00 0.0
2015_10_28_S18 10/28/2015 15:20:00 0.0
2015_10_28_S18 10/28/2015 15:25:00 0.0
2015_10_28_S18 10/28/2015 15:30:00 0.0
2015_10_28_S18 10/28/2015 15:35:00 0.0
2015_10_28_S18 10/28/2015 15:40:00 0.0
2015_10_28_S18 10/28/2015 15:45:00 0.0
2015_10_28_S18 10/28/2015 15:50:00 0.0
2015_10_28_S18 10/28/2015 15:55:00 0.0
2015_10_28_S18 10/28/2015 16:00:00 0.0
2015_10_28_S18 10/28/2015 16:05:00 0.0
2015_10_28_S18 10/28/2015 16:10:00 0.0
2015_10_28_S18 10/28/2015 16:15:00 0.0264
2015_10_28_S18 10/28/2015 16:20:00 0.0319
2015_10_28_S18 10/28/2015 16:25:00 0.0
2015_10_28_S18 10/28/2015 16:30:00 0.0
2015_10_28_S18 10/28/2015 16:35:00 0.0
2015_10_28_S18 10/28/2015 16:40:00 0.0
2015_10_28_S18 10/28/2015 16:45:00 0.0
2015_10_28_S18 10/28/2015 16:50:00 0.0
2015_10_28_S18 10/28/2015 16:55:00 0.0
2015_10_28_S18 10/28/2015 17:00:00 0.0352
2015_10_28_S18 10/28/2015 17:05:00 0.0
2015_10_28_S18 10/28/2015 17:10:00 0.0
2015_10_28_S18 10/28/2015 17:15:00 0.0
2015_10_28_S18 10/28/2015 17:20:00 0.0
2015_10_28_S18 10/28/2015 17:25:00 0.0
2015_10_28_S18 10/28/2015 17:30:00 0.0
2015_10_28_S18 10/28/2015 17:35:00 0.0
2015_10_28_S18 10/28/2015 17:40:00 0.0
2015_10_28_S18 10/28/2015 17:45:00 0.0
2015_10_28_S18 10/28/2015 17:50:00 0.0
2015_10_28_S18 10/28/2015 17:55:00 0.0
2015_10_28_S18 10/28/2015 18:00:00 0.0
2015_10_28_S18 10/28/2015 18:05:00 0.0
2015_10_28_S18 10/28/2015 18:10:00 0.0
2015_10_28_S18 10/28/2015 18:15:00 0.0
2015_10_28_S18 10/28/2015 18:20:00 0.0
2015_10_28_S18 10/28/2015 18:25:00 0.0
2015_10_28_S18 10/28/2015 18:30:00 0.0
2015_10_28_S18 10/28/2015 18:35:00 0.0
2015_10_28_S18 10/28/2015 18:40:00 0.0
2015_10_28_S18 10/28/2015 18:45:00 0.0
2015_10_28_S18 10/28/2015 18:50:00 0.0
2015_10_28_S18 10/28/2015 18:55:00 0.0
2015_10_28_S18 10/28/2015 19:00:00 0.0
2015_10_28_S18 10/28/2015 19:05:00 0.0
2015_10_28_S18 10/28/2015 19:10:00 0.0
2015_10_28_S18 10/28/2015 19:15:00 0.0
2015_10_28_S18 10/28/2015 19:20:00 0.0
2015_10_28_S18 10/28/2015 19:25:00 0.0
2015_10_28_S18 10/28/2015 19:30:00 0.0
2015_10_28_S18 10/28/2015 19:35:00 0.0
2015_10_28_S18 10/28/2015 19:40:00 0.0
2015_10_28_S18 10/28/2015 19:45:00 0.0
2015_10_28_S18 10/28/2015 19:50:00 0.0
2015_10_28_S18 10/28/2015 19:55:00 0.0
2015_10_28_S18 10/28/2015 20:00:00 0.0
2015_10_28_S18 10/28/2015 20:05:00 0.0
2015_10_28_S18 10/28/2015 20:10:00 0.0
2015_10_28_S18 10/28/2015 20:15:00 0.0
2015_10_28_S18 10/28/2015 20:20:00 0.0
2015_10_28_S18 10/28/2015 20:25:00 0.0
2015_10_28_S18 10/28/2015 20:30:00 0.0
2015_10_28_S18 10/28/2015 20:35:00 0.0
2015_10_28_S18 10/28/2015 20:40:00 0.0
2015_10_28_S18 10/28/2015 20:45:00 0.0
2015_10_28_S18 10/28/2015 20:50:00 0.0
2015_10_28_S18 10/28/2015 20:55:00 0.0
2015_10_28_S18 10/28/2015 21:00:00 0.0
2015_10_28_S18 10/28/2015 21:05:00 0.0
2015_10_28_S18 10/28/2015 21:10:00 0.0
2015_10_28_S18 10/28/2015 21:15:00 0.0
2015_10_28_S18 10/28/2015 21:20:00 0.0
2015_10_28_S18 10/28/2015 21:25:00 0.0
2015_10_28_S18 10/28/2015 21:30:00 0.0
2015_10_28_S18 10/28/2015 21:35:00 0.0
2015_10_28_S18 10/28/2015 21:40:00 0.0
2015_10_28_S18 10/28/2015 21:45:00 0.0
2015_10_28_S18 10/28/2015 21:50:00 0.0
2015_10_28_S18 10/28/2015 21:55:00 0.0
2015_10_28_S18 10/28/2015 22:00:00 0.0
2015_10_28_S18 10/28/2015 22:05:00 0.0
2015_10_28_S18 10/28/2015 22:10:00 0.0
2015_10_28_S18 10/28/2015 22:15:00 0.0
2015_10_28_S18 10/28/2015 22:20:00 0.0
2015_10_28_S18 10/28/2015 22:25:00 0.0
2015_10_28_S18 10/28/2015 22:30:00 0.0
2015_10_28_S18 10/28/2015 22:35:00 0.0
2015_10_28_S18 10/28/2015 22:40:00 0.0
2015_10_28_S18 10/28/2015 22:45:00 0.0
2015_10_28_S18 10/28/2015 22:50:00 0.7941
2015_10_28_S18 10/28/2015 22:55:00 8.8118
2015_10_28_S18 10/28/2015 23:00:00 0.1599
2015_10_28_S18 10/28/2015 23:05:00 0.0
2015_10_28_S18 10/28/2015 23:10:00 0.0
2015_10_28_S18 10/28/2015 23:15:00 0.0
2015_10_28_S18 10/28/2015 23:20:00 0.0
2015_10_28_S18 10/28/2015 23:25:00 0.0
2015_10_28_S18 10/28/2015 23:30:00 0.0
2015_10_28_S18 10/28/2015 23:35:00 0.0135
2015_10_28_S18 10/28/2015 23:40:00 0.0278
2015_10_28_S18 10/28/2015 23:45:00 0.0118
2015_10_28_S18 10/28/2015 23:50:00 0.0446
2015_10_28_S18 10/28/2015 23:55:00 0.1004
2015_10_28_S18 10/29/2015 00:00:00 0.0455
2015_10_28_S18 10/29/2015 00:05:00 0.0075
2015_10_28_S18 10/29/2015 00:10:00 0.0
2015_10_28_S18 10/29/2015 00:15:00 0.0
2015_10_28_S18 10/29/2015 00:20:00 0.0
2015_10_28_S18 10/29/2015 00:25:00 0.0
2015_10_28_S18 10/29/2015 00:30:00 0.0102
2015_10_28_S18 10/29/2015 00:35:00 0.0
2015_10_28_S18 10/29/2015 00:40:00 0.0305
2015_10_28_S18 10/29/2015 00:45:00 0.25
2015_10_28_S18 10/29/2015 00:50:00 0.2273
2015_10_28_S18 10/29/2015 00:55:00 0.0652
2015_10_28_S18 10/29/2015 01:00:00 0.0846
2015_10_28_S18 10/29/2015 01:05:00 0.0983
2015_10_28_S18 10/29/2015 01:10:00 0.097
2015_10_28_S18 10/29/2015 01:15:00 0.0715
2015_10_28_S18 10/29/2015 01:20:00 0.1379
2015_10_28_S18 10/29/2015 01:25:00 0.1095
2015_10_28_S18 10/29/2015 01:30:00 0.0893
2015_10_28_S18 10/29/2015 01:35:00 0.1363
2015_10_28_S18 10/29/2015 01:40:00 0.2027
2015_10_28_S18 10/29/2015 01:45:00 0.1517
2015_10_28_S18 10/29/2015 01:50:00 0.0406
2015_10_28_S18 10/29/2015 01:55:00 0.0
2015_10_28_S18 10/29/2015 02:00:00 0.0
2015_10_28_S18 10/29/2015 02:05:00 0.0
2015_10_28_S18 10/29/2015 02:10:00 0.0
2015_10_28_S18 10/29/2015 02:15:00 0.0
2015_10_28_S18 10/29/2015 02:20:00 0.0
2015_10_28_S18 10/29/2015 02:25:00 0.0
2015_10_28_S18 10/29/2015 02:30:00 0.0
2015_10_28_S18 10/29/2015 02:35:00 0.0
2015_10_28_S18 10/29/2015 02:40:00 0.0
2015_10_28_S18 10/29/2015 02:45:00 0.0
2015_10_28_S18 10/29/2015 02:50:00 0.0
2015_10_28_S18 10/29/2015 02:55:00 0.0
2015_10_28_S18 10/29/2015 03:00:00 0.0
2015_10_28_S18 10/29/2015 03:05:00 0.0
2015_10_28_S18 10/29/2015 03:10:00 0.0
2015_10_28_S18 10/29/2015 03:15:00 0.0
2015_10_28_S18 10/29/2015 03:20:00 0.0
2015_10_28_S18 10/29/2015 03:25:00 0.0
2015_10_28_S18 10/29/2015 03:30:00 0.0
2015_10_28_S18 10/29/2015 03:35:00 0.0
2015_10_28_S18 10/29/2015 03:40:00 0.0
2015_10_28_S18 10/29/2015 03:45:00 0.0
2015_10_28_S18 10/29/2015 03:50:00 0.0
2015_10_28_S18 10/29/2015 03:55:00 0.0
2015_10_28_S18 10/29/2015 04:00:00 0.0
2015_10_28_S18 10/29/2015 04:05:00 0.0
2015_10_28_S18 10/29/2015 04:10:00 0.0
2015_10_28_S18 10/29/2015 04:15:00 0.0
2015_10_28_S18 10/29/2015 04:20:00 0.0
2015_10_28_S18 10/29/2015 04:25:00 0.0
2015_10_28_S18 10/29/2015 04:30:00 0.0
2015_10_28_S18 10/29/2015 04:35:00 0.0
2015_10_28_S18 10/29/2015 04:40:00 0.0
2015_10_28_S18 10/29/2015 04:45:00 0.0
2015_10_28_S18 10/29/2015 04:50:00 0.0
2015_10_28_S18 10/29/2015 04:55:00 0.0
2015_10_28_S18 10/29/2015 05:00:00 0.0
2015_10_28_S18 10/29/2015 05:05:00 0.0
2015_10_28_S18 10/29/2015 05:10:00 0.0
2015_10_28_S18 10/29/2015 05:15:00 0.0
2015_10_28_S18 10/29/2015 05:20:00 0.0
2015_10_28_S18 10/29/2015 05:25:00 0.0
2015_10_28_S18 10/29/2015 05:30:00 0.0
2015_10_28_S18 10/29/2015 05:35:00 0.0
2015_10_28_S18 10/29/2015 05:40:00 0.0
2015_10_28_S18 10/29/2015 05:45:00 0.0
2015_10_28_S18 10/29/2015 05:50:00 0.0
2015_10_28_S18 10/29/2015 05:55:00 0.0
2015_10_28_S18 10/29/2015 06:00:00 0.0009
2015_10_28_S18 10/29/2015 06:05:00 0.0
2015_10_28_S18 10/29/2015 06:10:00 0.0
2015_10_28_S18 10/29/2015 06:15:00 0.0
2015_10_28_S18 10/29/2015 06:20:00 0.0
2015_10_28_S18 10/29/2015 06:25:00 0.0
2015_10_28_S18 10/29/2015 06:30:00 0.0
2015_10_28_S18 10/29/2015 06:35:00 0.0
2015_10_28_S18 10/29/2015 06:40:00 0.0
2015_10_28_S18 10/29/2015 06:45:00 0.0
2015_10_28_S18 10/29/2015 06:50:00 0.0
2015_10_28_S18 10/29/2015 06:55:00 0.0
2015_10_28_S18 10/29/2015 07:00:00 0.0
2015_10_28_S18 10/29/2015 07:05:00 0.0
2015_10_28_S18 10/29/2015 07:10:00 0.0
2015_10_28_S18 10/29/2015 07:15:00 0.0
2015_10_28_S18 10/29/2015 07:20:00 0.0
2015_10_28_S18 10/29/2015 07:25:00 0.0
2015_10_28_S18 10/29/2015 07:30:00 0.0
2015_10_28_S18 10/29/2015 07:35:00 0.0
2015_10_28_S18 10/29/2015 07:40:00 0.0
2015_10_28_S18 10/29/2015 07:45:00 0.0
2015_10_28_S18 10/29/2015 07:50:00 0.0
2015_10_28_S18 10/29/2015 07:55:00 0.0
2015_10_28_S18 10/29/2015 08:00:00 0.0

2015_10_28_S19 10/28/2015 10:25:00 0.0329
2015_10_28_S19 10/28/2015 10:30:00 0.0013
2015_10_28_S19 10/28/2015 10:35:00 0.0201
2015_10_28_S19 10/28/2015 10:40:00 0.0628
2015_10_28_S19 10/28/2015 10:45:00 0.0511
2015_10_28_S19 10/28/2015 10:50:00 0.0856
2015_10_28_S19 10/28/2015 10:55:00 0.196
2015_10_28_S19 10/28/2015 11:00:00 0.3281
2015_10_28_S19 10/28/2015 11:05:00 0.6135
2015_10_28_S19 10/28/2015 11:10:00 2.1297
2015_10_28_S19 10/28/2015 11:15:00 4.6556
2015_10_28_S19 10/28/2015 11:20:00 5.4306
2015_10_28_S19 10/28/2015 11:25:00 7.3596
2015_10_28_S19 10/28/2015 11:30:00 9.2886
2015_10_28_S19 10/28/2015 11:35:00 1.8095
2015_10_28_S19 10/28/2015 11:40:00 1.3643
2015_10_28_S19 10/28/2015 11:45:00 3.4683
2015_10_28_S19 10/28/2015 11:50:00 3.057
2015_10_28_S19 10/28/2015 11:55:00 11.1735
2015_10_28_S19 10/28/2015 12:00:00 5.6829
2015_10_28_S19 10/28/2015 12:05:00 5.2554
2015_10_28_S19 10/28/2015 12:10:00 11.417
2015_10_28_S19 10/28/2015 12:15:00 7.1483
2015_10_28_S19 10/28/2015 12:20:00 0.0476
2015_10_28_S19 10/28/2015 12:25:00 1.4924
2015_10_28_S19 10/28/2015 12:30:00 0.0395
2015_10_28_S19 10/28/2015 12:35:00 0.0969
2015_10_28_S19 10/28/2015 12:40:00 0.3698
2015_10_28_S19 10/28/2015 12:45:00 1.056
2015_10_28_S19 10/28/2015 12:50:00 1.1441
2015_10_28_S19 10/28/2015 12:55:00 0.1086
2015_10_28_S19 10/28/2015 13:00:00 0.045
2015_10_28_S19 10/28/2015 13:05:00 0.0007
2015_10_28_S19 10/28/2015 13:10:00 0.0149
2015_10_28_S19 10/28/2015 13:15:00 0.0076
2015_10_28_S19 10/28/2015 13:20:00 0.0
2015_10_28_S19 10/28/2015 13:25:00 0.0
2015_10_28_S19 10/28/2015 13:30:00 0.0
2015_10_28_S19 10/28/2015 13:35:00 0.0
2015_10_28_S19 10/28/2015 13:40:00 0.0
2015_10_28_S19 10/28/2015 13:45:00 0.0
2015_10_28_S19 10/28/2015 13:50:00 0.0
2015_10_28_S19 10/28/2015 13:55:00 0.0
2015_10_28_S19 10/28/2015 14:00:00 0.0
2015_10_28_S19 10/28/2015 14:05:00 0.0
2015_10_28_S19 10/28/2015 14:10:00 0.0
2015_10_28_S19 10/28/2015 14:15:00 0.0
2015_10_28_S19 10/28/2015 14:20:00 0.0
2015_10_28_S19 10/28/2015 14:25:00 0.089
2015_10_28_S19 10/28/2015 14:30:00 0.0236
2015_10_28_S19 10/28/2015 14:35:00 0.0
2015_10_28_S19 10/28/2015 14:40:00 0.0
2015_10_28_S19 10/28/2015 14:45:00 0.0
2015_10_28_S19 10/28/2015 14:50:00 0.0
2015_10_28_S19 10/28/2015 14:55:00 0.0
2015_10_28_S19 10/28/2015 15:00:00 0.0
2015_10_28_S19 10/28/2015 15:05:00 0.0
2015_10_28_S19 10/28/2015 15:10:00 0.0
2015_10_28_S19 10/28/2015 15:15:00 0.0
2015_10_28_S19 10/28/2015 15:20:00 0.0
2015_10_28_S19 10/28/2015 15:25:00 0.0
2015_10_28_S19 10/28/2015 15:30:00 0.0
2015_10_28_S19 10/28/2015 15:35:00 0.0
2015_10_28_S19 10/28/2015 15:40:00 0.0
2015_10_28_S19 10/28/2015 15:45:00 0.0
2015_10_28_S19 10/28/2015 15:50:00 0.0
2015_10_28_S19 10/28/2015 15:55:00 0.0
2015_10_28_S19 10/28/2015 16:00:00 0.0
2015_10_28_S19 10/28/2015 16:05:00 0.0
2015_10_28_S19 10/28/2015 16:10:00 0.0
2015_10_28_S19 10/28/2015 16:15:00 0.0193
2015_10_28_S19 10/28/2015 16:20:00 0.0319
2015_10_28_S19 10/28/2015 16:25:00 0.0
2015_10_28_S19 10/28/2015 16:30:00 0.0
2015_10_28_S19 10/28/2015 16:35:00 0.0
2015_10_28_S19 10/28/2015 16:40:00 0.0
2015_10_28_S19 10/28/2015 16:45:00 0.0
2015_10_28_S19 10/28/2015 16:50:00 0.0
2015_10_28_S19 10/28/2015 16:55:00 0.0
2015_10_28_S19 10/28/2015 17:00:00 0.0243
2015_10_28_S19 10/28/2015 17:05:00 0.0
2015_10_28_S19 10/28/2015 17:10:00 0.0
2015_10_28_S19 10/28/2015 17:15:00 0.0
2015_10_28_S19 10/28/2015 17:20:00 0.0
2015_10_28_S19 10/28/2015 17:25:00 0.0
2015_10_28_S19 10/28/2015 17:30:00 0.0
2015_10_28_S19 10/28/2015 17:35:00 0.0
2015_10_28_S19 10/28/2015 17:40:00 0.0
2015_10_28_S19 10/28/2015 17:45:00 0.0
2015_10_28_S19 10/28/2015 17:50:00 0.0
2015_10_28_S19 10/28/2015 17:55:00 0.0
2015_10_28_S19 10/28/2015 18:00:00 0.0
2015_10_28_S19 10/28/2015 18:05:00 0.0
2015_10_28_S19 10/28/2015 18:10:00 0.0
2015_10_28_S19 10/28/2015 18:15:00 0.0
2015_10_28_S19 10/28/2015 18:20:00 0.0
2015_10_28_S19 10/28/2015 18:25:00 0.0
2015_10_28_S19 10/28/2015 18:30:00 0.0
2015_10_28_S19 10/28/2015 18:35:00 0.0
2015_10_28_S19 10/28/2015 18:40:00 0.0
2015_10_28_S19 10/28/2015 18:45:00 0.0
2015_10_28_S19 10/28/2015 18:50:00 0.0
2015_10_28_S19 10/28/2015 18:55:00 0.0
2015_10_28_S19 10/28/2015 19:00:00 0.0
2015_10_28_S19 10/28/2015 19:05:00 0.0
2015_10_28_S19 10/28/2015 19:10:00 0.0
2015_10_28_S19 10/28/2015 19:15:00 0.0
2015_10_28_S19 10/28/2015 19:20:00 0.0
2015_10_28_S19 10/28/2015 19:25:00 0.0
2015_10_28_S19 10/28/2015 19:30:00 0.0
2015_10_28_S19 10/28/2015 19:35:00 0.0
2015_10_28_S19 10/28/2015 19:40:00 0.0
2015_10_28_S19 10/28/2015 19:45:00 0.0
2015_10_28_S19 10/28/2015 19:50:00 0.0
2015_10_28_S19 10/28/2015 19:55:00 0.0
2015_10_28_S19 10/28/2015 20:00:00 0.0
2015_10_28_S19 10/28/2015 20:05:00 0.0
2015_10_28_S19 10/28/2015 20:10:00 0.0
2015_10_28_S19 10/28/2015 20:15:00 0.0
2015_10_28_S19 10/28/2015 20:20:00 0.0
2015_10_28_S19 10/28/2015 20:25:00 0.0
2015_10_28_S19 10/28/2015 20:30:00 0.0
2015_10_28_S19 10/28/2015 20:35:00 0.0
2015_10_28_S19 10/28/2015 20:40:00 0.0
2015_10_28_S19 10/28/2015 20:45:00 0.0
2015_10_28_S19 10/28/2015 20:50:00 0.0
2015_10_28_S19 10/28/2015 20:55:00 0.0
2015_10_28_S19 10/28/2015 21:00:00 0.0
2015_10_28_S19 10/28/2015 21:05:00 0.0
2015_10_28_S19 10/28/2015 21:10:00 0.0
2015_10_28_S19 10/28/2015 21:15:00 0.0
2015_10_28_S19 10/28/2015 21:20:00 0.0
2015_10_28_S19 10/28/2015 21:25:00 0.0
2015_10_28_S19 10/28/2015 21:30:00 0.0
2015_10_28_S19 10/28/2015 21:35:00 0.0
2015_10_28_S19 10/28/2015 21:40:00 0.0
2015_10_28_S19 10/28/2015 21:45:00 0.0
2015_10_28_S19 10/28/2015 21:50:00 0.0
2015_10_28_S19 10/28/2015 21:55:00 0.0
2015_10_28_S19 10/28/2015 22:00:00 0.0
2015_10_28_S19 10/28/2015 22:05:00 0.0
2015_10_28_S19 10/28/2015 22:10:00 0.0
2015_10_28_S19 10/28/2015 22:15:00 0.0
2015_10_28_S19 10/28/2015 22:20:00 0.0
2015_10_28_S19 10/28/2015 22:25:00 0.0
2015_10_28_S19 10/28/2015 22:30:00 0.0
2015_10_28_S19 10/28/2015 22:35:00 0.0
2015_10_28_S19 10/28/2015 22:40:00 0.0
2015_10_28_S19 10/28/2015 22:45:00 0.0
2015_10_28_S19 10/28/2015 22:50:00 0.5927
2015_10_28_S19 10/28/2015 22:55:00 7.0351
2015_10_28_S19 10/28/2015 23:00:00 1.8976
2015_10_28_S19 10/28/2015 23:05:00 0.0022
2015_10_28_S19 10/28/2015 23:10:00 0.0
2015_10_28_S19 10/28/2015 23:15:00 0.0
2015_10_28_S19 10/28/2015 23:20:00 0.0
2015_10_28_S19 10/28/2015 23:25:00 0.0
2015_10_28_S19 10/28/2015 23:30:00 0.0001
2015_10_28_S19 10/28/2015 23:35:00 0.0219
2015_10_28_S19 10/28/2015 23:40:00 0.0367
2015_10_28_S19 10/28/2015 23:45:00 0.0108
2015_10_28_S19 10/28/2015 23:50:00 0.03
2015_10_28_S19 10/28/2015 23:55:00 0.0875
2015_10_28_S19 10/29/2015 00:00:00 0.0529
2015_10_28_S19 10/29/2015 00:05:00 0.0086
2015_10_28_S19 10/29/2015 00:10:00 0.0014
2015_10_28_S19 10/29/2015 00:15:00 0.0016
2015_10_28_S19 10/29/2015 00:20:00 0.0
2015_10_28_S19 10/29/2015 00:25:00 0.0
2015_10_28_S19 10/29/2015 00:30:00 0.009
2015_10_28_S19 10/29/2015 00:35:00 0.0
2015_10_28_S19 10/29/2015 00:40:00 0.0129
2015_10_28_S19 10/29/2015 00:45:00 0.1437
2015_10_28_S19 10/29/2015 00:50:00 0.1737
2015_10_28_S19 10/29/2015 00:55:00 0.063
2015_10_28_S19 10/29/2015 01:00:00 0.1045
2015_10_28_S19 10/29/2015 01:05:00 0.1204
2015_10_28_S19 10/29/2015 01:10:00 0.1224
2015_10_28_S19 10/29/2015 01:15:00 0.0984
2015_10_28_S19 10/29/2015 01:20:00 0.1747
2015_10_28_S19 10/29/2015 01:25:00 0.1064
2015_10_28_S19 10/29/2015 01:30:00 0.0879
2015_10_28_S19 10/29/2015 01:35:00 0.161
2015_10_28_S19 10/29/2015 01:40:00 0.1939
2015_10_28_S19 10/29/2015 01:45:00 0.1863
2015_10_28_S19 10/29/2015 01:50:00 0.057
2015_10_28_S19 10/29/2015 01:55:00 0.0028
2015_10_28_S19 10/29/2015 02:00:00 0.0
2015_10_28_S19 10/29/2015 02:05:00 0.0
2015_10_28_S19 10/29/2015 02:10:00 0.0
2015_10_28_S19 10/29/2015 02:15:00 0.0
2015_10_28_S19 10/29/2015 02:20:00 0.0
2015_10_28_S19 10/29/2015 02:25:00 0.0
2015_10_28_S19 10/29/2015 02:30:00 0.0
2015_10_28_S19 10/29/2015 02:35:00 0.0
2015_10_28_S19 10/29/2015 02:40:00 0.0
2015_10_28_S19 10/29/2015 02:45:00 0.0
2015_10_28_S19 10/29/2015 02:50:00 0.0
2015_10_28_S19 10/29/2015 02:55:00 0.0
2015_10_28_S19 10/29/2015 03:00:00 0.0
2015_10_28_S19 10/29/2015 03:05:00 0.0
2015_10_28_S19 10/29/2015 03:10:00 0.0
2015_10_28_S19 10/29/2015 03:15:00 0.0
2015_10_28_S19 10/29/2015 03:20:00 0.0
2015_10_28_S19 10/29/2015 03:25:00 0.0
2015_10_28_S19 10/29/2015 03:30:00 0.0
2015_10_28_S19 10/29/2015 03:35:00 0.0
2015_10_28_S19 10/29/2015 03:40:00 0.0
2015_10_28_S19 10/29/2015 03:45:00 0.0
2015_10_28_S19 10/29/2015 03:50:00 0.0
2015_10_28_S19 10/29/2015 03:55:00 0.0
2015_10_28_S19 10/29/2015 04:00:00 0.0
2015_10_28_S19 10/29/2015 04:05:00 0.0
2015_10_28_S19 10/29/2015 04:10:00 0.0
2015_10_28_S19 10/29/2015 04:15:00 0.0
2015_10_28_S19 10/29/2015 04:20:00 0.0
2015_10_28_S19 10/29/2015 04:25:00 0.0
2015_10_28_S19 10/29/2015 04:30:00 0.0
2015_10_28_S19 10/29/2015 04:35:00 0.0
2015_10_28_S19 10/29/2015 04:40:00 0.0
2015_10_28_S19 10/29/2015 04:45:00 0.0
2015_10_28_S19 10/29/2015 04:50:00 0.0
2015_10_28_S19 10/29/2015 04:55:00 0.0
2015_10_28_S19 10/29/2015 05:00:00 0.0
2015_10_28_S19 10/29/2015 05:05:00 0.0
2015_10_28_S19 10/29/2015 05:10:00 0.0
2015_10_28_S19 10/29/2015 05:15:00 0.0
2015_10_28_S19 10/29/2015 05:20:00 0.0
2015_10_28_S19 10/29/2015 05:25:00 0.0
2015_10_28_S19 10/29/2015 05:30:00 0.0
2015_10_28_S19 10/29/2015 05:35:00 0.0
2015_10_28_S19 10/29/2015 05:40:00 0.0
2015_10_28_S19 10/29/2015 05:45:00 0.0
2015_10_28_S19 10/29/2015 05:50:00 0.0
2015_10_28_S19 10/29/2015 05:55:00 0.0
2015_10_28_S19 10/29/2015 06:00:00 0.0078
2015_10_28_S19 10/29/2015 06:05:00 0.0
2015_10_28_S19 10/29/2015 06:10:00 0.0021
2015_10_28_S19 10/29/2015 06:15:00 0.0
2015_10_28_S19 10/29/2015 06:20:00 0.0
2015_10_28_S19 10/29/2015 06:25:00 0.0
2015_10_28_S19 10/29/2015 06:30:00 0.0
2015_10_28_S19 10/29/2015 06:35:00 0.0
2015_10_28_S19 10/29/2015 06:40:00 0.0
2015_10_28_S19 10/29/2015 06:45:00 0.0
2015_10_28_S19 10/29/2015 06:50:00 0.0
2015_10_28_S19 10/29/2015 06:55:00 0.0
2015_10_28_S19 10/29/2015 07:00:00 0.0
2015_10_28_S19 10/29/2015 07:05:00 0.0
2015_10_28_S19 10/29/2015 07:10:00 0.0
2015_10_28_S19 10/29/2015 07:15:00 0.0
2015_10_28_S19 10/29/2015 07:20:00 0.0
2015_10_28_S19 10/29/2015 07:25:00 0.0
2015_10_28_S19 10/29/2015 07:30:00 0.0
2015_10_28_S19 10/29/2015 07:35:00 0.0
2015_10_28_S19 10/29/2015 07:40:00 0.0
2015_10_28_S19 10/29/2015 07:45:00 0.0
2015_10_28_S19 10/29/2015 07:50:00 0.0
2015_10_28_S19 10/29/2015 07:55:00 0.0
2015_10_28_S19 10/29/2015 08:00:00 0.0

2015_10_28_S20 10/28/2015 10:25:00 0.0301
2015_10_28_S20 10/28/2015 10:30:00 0.0043
2015_10_28_S20 10/28/2015 10:35:00 0.0049
2015_10_28_S20 10/28/2015 10:40:00 0.05
2015_10_28_S20 10/28/2015 10:45:00 0.0441
2015_10_28_S20 10/28/2015 10:50:00 0.0868
2015_10_28_S20 10/28/2015 10:55:00 0.1496
2015_10_28_S20 10/28/2015 11:00:00 0.3264
2015_10_28_S20 10/28/2015 11:05:00 0.8961
2015_10_28_S20 10/28/2015 11:10:00 1.7768
2015_10_28_S20 10/28/2015 11:15:00 2.8046
2015_10_28_S20 10/28/2015 11:20:00 4.051
2015_10_28_S20 10/28/2015 11:25:00 5.7331
2015_10_28_S20 10/28/2015 11:30:00 7.4152
2015_10_28_S20 10/28/2015 11:35:00 1.794
2015_10_28_S20 10/28/2015 11:40:00 0.8634
2015_10_28_S20 10/28/2015 11:45:00 3.2478
2015_10_28_S20 10/28/2015 11:50:00 2.2652
2015_10_28_S20 10/28/2015 11:55:00 6.5334
2015_10_28_S20 10/28/2015 12:00:00 7.3291
2015_10_28_S20 10/28/2015 12:05:00 6.0497
2015_10_28_S20 10/28/2015 12:10:00 11.1016
2015_10_28_S20 10/28/2015 12:15:00 5.2967
2015_10_28_S20 10/28/2015 12:20:00 0.2099
2015_10_28_S20 10/28/2015 12:25:00 1.0141
2015_10_28_S20 10/28/2015 12:30:00 0.0221
2015_10_28_S20 10/28/2015 12:35:00 0.0107
2015_10_28_S20 10/28/2015 12:40:00 0.2115
2015_10_28_S20 10/28/2015 12:45:00 0.8727
2015_10_28_S20 10/28/2015 12:50:00 0.4489
2015_10_28_S20 10/28/2015 12:55:00 0.0502
2015_10_28_S20 10/28/2015 13:00:00 0.0295
2015_10_28_S20 10/28/2015 13:05:00 0.0
2015_10_28_S20 10/28/2015 13:10:00 0.0165
2015_10_28_S20 10/28/2015 13:15:00 0.006
2015_10_28_S20 10/28/2015 13:20:00 0.0
2015_10_28_S20 10/28/2015 13:25:00 0.0
2015_10_28_S20 10/28/2015 13:30:00 0.0
2015_10_28_S20 10/28/2015 13:35:00 0.0
2015_10_28_S20 10/28/2015 13:40:00 0.0
2015_10_28_S20 10/28/2015 13:45:00 0.0
2015_10_28_S20 10/28/2015 13:50:00 0.0
2015_10_28_S20 10/28/2015 13:55:00 0.0017
2015_10_28_S20 10/28/2015 14:00:00 0.0
2015_10_28_S20 10/28/2015 14:05:00 0.0
2015_10_28_S20 10/28/2015 14:10:00 0.0
2015_10_28_S20 10/28/2015 14:15:00 0.0
2015_10_28_S20 10/28/2015 14:20:00 0.0
2015_10_28_S20 10/28/2015 14:25:00 0.0692
2015_10_28_S20 10/28/2015 14:30:00 0.0494
2015_10_28_S20 10/28/2015 14:35:00 0.0
2015_10_28_S20 10/28/2015 14:40:00 0.0
2015_10_28_S20 10/28/2015 14:45:00 0.0013
2015_10_28_S20 10/28/2015 14:50:00 0.0
2015_10_28_S20 10/28/2015 14:55:00 0.0
2015_10_28_S20 10/28/2015 15:00:00 0.0
2015_10_28_S20 10/28/2015 15:05:00 0.0
2015_10_28_S20 10/28/2015 15:10:00 0.0
2015_10_28_S20 10/28/2015 15:15:00 0.0
2015_10_28_S20 10/28/2015 15:20:00 0.0
2015_10_28_S20 10/28/2015 15:25:00 0.0
2015_10_28_S20 10/28/2015 15:30:00 0.0
2015_10_28_S20 10/28/2015 15:35:00 0.0
2015_10_28_S20 10/28/2015 15:40:00 0.0
2015_10_28_S20 10/28/2015 15:45:00 0.0
2015_10_28_S20 10/28/2015 15:50:00 0.0
2015_10_28_S20 10/28/2015 15:55:00 0.0
2015_10_28_S20 10/28/2015 16:00:00 0.0
2015_10_28_S20 10/28/2015 16:05:00 0.0
2015_10_28_S20 10/28/2015 16:10:00 0.0
2015_10_28_S20 10/28/2015 16:15:00 0.0156
2015_10_28_S20 10/28/2015 16:20:00 0.0326
2015_10_28_S20 10/28/2015 16:25:00 0.0
2015_10_28_S20 10/28/2015 16:30:00 0.0
2015_10_28_S20 10/28/2015 16:35:00 0.0
2015_10_28_S20 10/28/2015 16:40:00 0.0
2015_10_28_S20 10/28/2015 16:45:00 0.0
2015_10_28_S20 10/28/2015 16:50:00 0.0
2015_10_28_S20 10/28/2015 16:55:00 0.0
2015_10_28_S20 10/28/2015 17:00:00 0.0229
2015_10_28_S20 10/28/2015 17:05:00 0.0
2015_10_28_S20 10/28/2015 17:10:00 0.0
2015_10_28_S20 10/28/2015 17:15:00 0.0
2015_10_28_S20 10/28/2015 17:20:00 0.0
2015_10_28_S20 10/28/2015 17:25:00 0.0
2015_10_28_S20 10/28/2015 17:30:00 0.0
2015_10_28_S20 10/28/2015 17:35:00 0.0
2015_10_28_S20 10/28/2015 17:40:00 0.0
2015_10_28_S20 10/28/2015 17:45:00 0.0
2015_10_28_S20 10/28/2015 17:50:00 0.0
2015_10_28_S20 10/28/2015 17:55:00 0.0
2015_10_28_S20 10/28/2015 18:00:00 0.0
2015_10_28_S20 10/28/2015 18:05:00 0.0
2015_10_28_S20 10/28/2015 18:10:00 0.0
2015_10_28_S20 10/28/2015 18:15:00 0.0
2015_10_28_S20 10/28/2015 18:20:00 0.0
2015_10_28_S20 10/28/2015 18:25:00 0.0
2015_10_28_S20 10/28/2015 18:30:00 0.0
2015_10_28_S20 10/28/2015 18:35:00 0.0
2015_10_28_S20 10/28/2015 18:40:00 0.0
2015_10_28_S20 10/28/2015 18:45:00 0.0
2015_10_28_S20 10/28/2015 18:50:00 0.0
2015_10_28_S20 10/28/2015 18:55:00 0.0
2015_10_28_S20 10/28/2015 19:00:00 0.0
2015_10_28_S20 10/28/2015 19:05:00 0.0
2015_10_28_S20 10/28/2015 19:10:00 0.0
2015_10_28_S20 10/28/2015 19:15:00 0.0
2015_10_28_S20 10/28/2015 19:20:00 0.0
2015_10_28_S20 10/28/2015 19:25:00 0.0
2015_10_28_S20 10/28/2015 19:30:00 0.0
2015_10_28_S20 10/28/2015 19:35:00 0.0
2015_10_28_S20 10/28/2015 19:40:00 0.0
2015_10_28_S20 10/28/2015 19:45:00 0.0
2015_10_28_S20 10/28/2015 19:50:00 0.0
2015_10_28_S20 10/28/2015 19:55:00 0.0
2015_10_28_S20 10/28/2015 20:00:00 0.0
2015_10_28_S20 10/28/2015 20:05:00 0.0
2015_10_28_S20 10/28/2015 20:10:00 0.0
2015_10_28_S20 10/28/2015 20:15:00 0.0
2015_10_28_S20 10/28/2015 20:20:00 0.0
2015_10_28_S20 10/28/2015 20:25:00 0.0
2015_10_28_S20 10/28/2015 20:30:00 0.0
2015_10_28_S20 10/28/2015 20:35:00 0.0
2015_10_28_S20 10/28/2015 20:40:00 0.0
2015_10_28_S20 10/28/2015 20:45:00 0.0
2015_10_28_S20 10/28/2015 20:50:00 0.0
2015_10_28_S20 10/28/2015 20:55:00 0.0
2015_10_28_S20 10/28/2015 21:00:00 0.0
2015_10_28_S20 10/28/2015 21:05:00 0.0
2015_10_28_S20 10/28/2015 21:10:00 0.0
2015_10_28_S20 10/28/2015 21:15:00 0.0
2015_10_28_S20 10/28/2015 21:20:00 0.0
2015_10_28_S20 10/28/2015 21:25:00 0.0
2015_10_28_S20 10/28/2015 21:30:00 0.0
2015_10_28_S20 10/28/2015 21:35:00 0.0
2015_10_28_S20 10/28/2015 21:40:00 0.0
2015_10_28_S20 10/28/2015 21:45:00 0.0
2015_10_28_S20 10/28/2015 21:50:00 0.0
2015_10_28_S20 10/28/2015 21:55:00 0.0
2015_10_28_S20 10/28/2015 22:00:00 0.0
2015_10_28_S20 10/28/2015 22:05:00 0.0
2015_10_28_S20 10/28/2015 22:10:00 0.0
2015_10_28_S20 10/28/2015 22:15:00 0.0
2015_10_28_S20 10/28/2015 22:20:00 0.0
2015_10_28_S20 10/28/2015 22:25:00 0.0
2015_10_28_S20 10/28/2015 22:30:00 0.0
2015_10_28_S20 10/28/2015 22:35:00 0.0
2015_10_28_S20 10/28/2015 22:40:00 0.0
2015_10_28_S20 10/28/2015 22:45:00 0.0
2015_10_28_S20 10/28/2015 22:50:00 0.3867
2015_10_28_S20 10/28/2015 22:55:00 5.0553
2015_10_28_S20 10/28/2015 23:00:00 3.5587
2015_10_28_S20 10/28/2015 23:05:00 0.0641
2015_10_28_S20 10/28/2015 23:10:00 0.0027
2015_10_28_S20 10/28/2015 23:15:00 0.0
2015_10_28_S20 10/28/2015 23:20:00 0.0
2015_10_28_S20 10/28/2015 23:25:00 0.0
2015_10_28_S20 10/28/2015 23:30:00 0.0013
2015_10_28_S20 10/28/2015 23:35:00 0.0269
2015_10_28_S20 10/28/2015 23:40:00 0.0376
2015_10_28_S20 10/28/2015 23:45:00 0.012
2015_10_28_S20 10/28/2015 23:50:00 0.0312
2015_10_28_S20 10/28/2015 23:55:00 0.0795
2015_10_28_S20 10/29/2015 00:00:00 0.0659
2015_10_28_S20 10/29/2015 00:05:00 0.0126
2015_10_28_S20 10/29/2015 00:10:00 0.0041
2015_10_28_S20 10/29/2015 00:15:00 0.0053
2015_10_28_S20 10/29/2015 00:20:00 0.0032
2015_10_28_S20 10/29/2015 00:25:00 0.0
2015_10_28_S20 10/29/2015 00:30:00 0.0129
2015_10_28_S20 10/29/2015 00:35:00 0.003
2015_10_28_S20 10/29/2015 00:40:00 0.0086
2015_10_28_S20 10/29/2015 00:45:00 0.1109
2015_10_28_S20 10/29/2015 00:50:00 0.1997
2015_10_28_S20 10/29/2015 00:55:00 0.0806
2015_10_28_S20 10/29/2015 01:00:00 0.1108
2015_10_28_S20 10/29/2015 01:05:00 0.1418
2015_10_28_S20 10/29/2015 01:10:00 0.1453
2015_10_28_S20 10/29/2015 01:15:00 0.1113
2015_10_28_S20 10/29/2015 01:20:00 0.1862
2015_10_28_S20 10/29/2015 01:25:00 0.0905
2015_10_28_S20 10/29/2015 01:30:00 0.1075
2015_10_28_S20 10/29/2015 01:35:00 0.1723
2015_10_28_S20 10/29/2015 01:40:00 0.1974
2015_10_28_S20 10/29/2015 01:45:00 0.1946
2015_10_28_S20 10/29/2015 01:50:00 0.0793
2015_10_28_S20 10/29/2015 01:55:00 0.009
2015_10_28_S20 10/29/2015 02:00:00 0.0031
2015_10_28_S20 10/29/2015 02:05:00 0.0
2015_10_28_S20 10/29/2015 02:10:00 0.0
2015_10_28_S20 10/29/2015 02:15:00 0.0
2015_10_28_S20 10/29/2015 02:20:00 0.0
2015_10_28_S20 10/29/2015 02:25:00 0.0
2015_10_28_S20 10/29/2015 02:30:00 0.0
2015_10_28_S20 10/29/2015 02:35:00 0.0
2015_10_28_S20 10/29/2015 02:40:00 0.0
2015_10_28_S20 10/29/2015 02:45:00 0.0
2015_10_28_S20 10/29/2015 02:50:00 0.0
2015_10_28_S20 10/29/2015 02:55:00 0.0
2015_10_28_S20 10/29/2015 03:00:00 0.0
2015_10_28_S20 10/29/2015 03:05:00 0.0
2015_10_28_S20 10/29/2015 03:10:00 0.0
2015_10_28_S20 10/29/2015 03:15:00 0.0
2015_10_28_S20 10/29/2015 03:20:00 0.0
2015_10_28_S20 10/29/2015 03:25:00 0.0
2015_10_28_S20 10/29/2015 03:30:00 0.0
2015_10_28_S20 10/29/2015 03:35:00 0.0
2015_10_28_S20 10/29/2015 03:40:00 0.0
2015_10_28_S20 10/29/2015 03:45:00 0.0
2015_10_28_S20 10/29/2015 03:50:00 0.0
2015_10_28_S20 10/29/2015 03:55:00 0.0
2015_10_28_S20 10/29/2015 04:00:00 0.0
2015_10_28_S20 10/29/2015 04:05:00 0.0
2015_10_28_S20 10/29/2015 04:10:00 0.0
2015_10_28_S20 10/29/2015 04:15:00 0.0
2015_10_28_S20 10/29/2015 04:20:00 0.0
2015_10_28_S20 10/29/2015 04:25:00 0.0
2015_10_28_S20 10/29/2015 04:30:00 0.0
2015_10_28_S20 10/29/2015 04:35:00 0.0
2015_10_28_S20 10/29/2015 04:40:00 0.0
2015_10_28_S20 10/29/2015 04:45:00 0.0
2015_10_28_S20 10/29/2015 04:50:00 0.0
2015_10_28_S20 10/29/2015 04:55:00 0.0
2015_10_28_S20 10/29/2015 05:00:00 0.0
2015_10_28_S20 10/29/2015 05:05:00 0.0
2015_10_28_S20 10/29/2015 05:10:00 0.0
2015_10_28_S20 10/29/2015 05:15:00 0.0
2015_10_28_S20 10/29/2015 05:20:00 0.0
2015_10_28_S20 10/29/2015 05:25:00 0.0
2015_10_28_S20 10/29/2015 05:30:00 0.0
2015_10_28_S20 10/29/2015 05:35:00 0.0
2015_10_28_S20 10/29/2015 05:40:00 0.0
2015_10_28_S20 10/29/2015 05:45:00 0.0
2015_10_28_S20 10/29/2015 05:50:00 0.0
2015_10_28_S20 10/29/2015 05:55:00 0.0
2015_10_28_S20 10/29/2015 06:00:00 0.0327
2015_10_28_S20 10/29/2015 06:05:00 0.0
2015_10_28_S20 10/29/2015 06:10:00 0.0076
2015_10_28_S20 10/29/2015 06:15:00 0.0
2015_10_28_S20 10/29/2015 06:20:00 0.0
2015_10_28_S20 10/29/2015 06:25:00 0.0
2015_10_28_S20 10/29/2015 06:30:00 0.0
2015_10_28_S20 10/29/2015 06:35:00 0.0
2015_10_28_S20 10/29/2015 06:40:00 0.0
2015_10_28_S20 10/29/2015 06:45:00 0.0
2015_10_28_S20 10/29/2015 06:50:00 0.0
2015_10_28_S20 10/29/2015 06:55:00 0.0
2015_10_28_S20 10/29/2015 07:00:00 0.0
2015_10_28_S20 10/29/2015 07:05:00 0.0
2015_10_28_S20 10/29/2015 07:10:00 0.0
2015_10_28_S20 10/29/2015 07:15:00 0.0
2015_10_28_S20 10/29/2015 07:20:00 0.0
2015_10_28_S20 10/29/2015 07:25:00 0.0
2015_10_28_S20 10/29/2015 07:30:00 0.0
2015_10_28_S20 10/29/2015 07:35:00 0.0
2015_10_28_S20 10/29/2015 07:40:00 0.0
2015_10_28_S20 10/29/2015 07:45:00 0.0
2015_10_28_S20 10/29/2015 07:50:00 0.0
2015_10_28_S20 10/29/2015 07:55:00 0.0
2015_10_28_S20 10/29/2015 08:00:00 0.0

2015_10_28_S21 10/28/2015 10:25:00 0.0293
2015_10_28_S21 10/28/2015 10:30:00 0.0027
2015_10_28_S21 10/28/2015 10:35:00 0.0486
2015_10_28_S21 10/28/2015 10:40:00 0.085
2015_10_28_S21 10/28/2015 10:45:00 0.0638
2015_10_28_S21 10/28/2015 10:50:00 0.0203
2015_10_28_S21 10/28/2015 10:55:00 0.0571
2015_10_28_S21 10/28/2015 11:00:00 0.1185
2015_10_28_S21 10/28/2015 11:05:00 0.2515
2015_10_28_S21 10/28/2015 11:10:00 0.8168
2015_10_28_S21 10/28/2015 11:15:00 4.3455
2015_10_28_S21 10/28/2015 11:20:00 3.38
2015_10_28_S21 10/28/2015 11:25:00 3.8482
2015_10_28_S21 10/28/2015 11:30:00 4.3163
2015_10_28_S21 10/28/2015 11:35:00 3.9937
2015_10_28_S21 10/28/2015 11:40:00 0.8663
2015_10_28_S21 10/28/2015 11:45:00 4.8124
2015_10_28_S21 10/28/2015 11:50:00 2.438
2015_10_28_S21 10/28/2015 11:55:00 7.4033
2015_10_28_S21 10/28/2015 12:00:00 6.1048
2015_10_28_S21 10/28/2015 12:05:00 3.7765
2015_10_28_S21 10/28/2015 12:10:00 8.6949
2015_10_28_S21 10/28/2015 12:15:00 12.3753
2015_10_28_S21 10/28/2015 12:20:00 0.1254
2015_10_28_S21 10/28/2015 12:25:00 3.4069
2015_10_28_S21 10/28/2015 12:30:00 1.0422
2015_10_28_S21 10/28/2015 12:35:00 0.7381
2015_10_28_S21 10/28/2015 12:40:00 1.1737
2015_10_28_S21 10/28/2015 12:45:00 3.2126
2015_10_28_S21 10/28/2015 12:50:00 2.8347
2015_10_28_S21 10/28/2015 12:55:00 1.2919
2015_10_28_S21 10/28/2015 13:00:00 0.6294
2015_10_28_S21 10/28/2015 13:05:00 0.024
2015_10_28_S21 10/28/2015 13:10:00 0.1966
2015_10_28_S21 10/28/2015 13:15:00 0.103
2015_10_28_S21 10/28/2015 13:20:00 0.0
2015_10_28_S21 10/28/2015 13:25:00 0.0
2015_10_28_S21 10/28/2015 13:30:00 0.0
2015_10_28_S21 10/28/2015 13:35:00 0.0
2015_10_28_S21 10/28/2015 13:40:00 0.0685
2015_10_28_S21 10/28/2015 13:45:00 0.0246
2015_10_28_S21 10/28/2015 13:50:00 0.0082
2015_10_28_S21 10/28/2015 13:55:00 0.0009
2015_10_28_S21 10/28/2015 14:00:00 0.0
2015_10_28_S21 10/28/2015 14:05:00 0.0
2015_10_28_S21 10/28/2015 14:10:00 0.0
2015_10_28_S21 10/28/2015 14:15:00 0.0
2015_10_28_S21 10/28/2015 14:20:00 0.0
2015_10_28_S21 10/28/2015 14:25:00 0.015
2015_10_28_S21 10/28/2015 14:30:00 0.1829
2015_10_28_S21 10/28/2015 14:35:00 0.0074
2015_10_28_S21 10/28/2015 14:40:00 0.0008
2015_10_28_S21 10/28/2015 14:45:00 0.0
2015_10_28_S21 10/28/2015 14:50:00 0.0
2015_10_28_S21 10/28/2015 14:55:00 0.0
2015_10_28_S21 10/28/2015 15:00:00 0.0
2015_10_28_S21 10/28/2015 15:05:00 0.0
2015_10_28_S21 10/28/2015 15:10:00 0.0
2015_10_28_S21 10/28/2015 15:15:00 0.0
2015_10_28_S21 10/28/2015 15:20:00 0.0
2015_10_28_S21 10/28/2015 15:25:00 0.0
2015_10_28_S21 10/28/2015 15:30:00 0.0
2015_10_28_S21 10/28/2015 15:35:00 0.0
2015_10_28_S21 10/28/2015 15:40:00 0.0
2015_10_28_S21 10/28/2015 15:45:00 0.0
2015_10_28_S21 10/28/2015 15:50:00 0.0
2015_10_28_S21 10/28/2015 15:55:00 0.0
2015_10_28_S21 10/28/2015 16:00:00 0.0
2015_10_28_S21 10/28/2015 16:05:00 0.0
2015_10_28_S21 10/28/2015 16:10:00 0.0
2015_10_28_S21 10/28/2015 16:15:00 0.0205
2015_10_28_S21 10/28/2015 16:20:00 0.0434
2015_10_28_S21 10/28/2015 16:25:00 0.0059
2015_10_28_S21 10/28/2015 16:30:00 0.0
2015_10_28_S21 10/28/2015 16:35:00 0.0
2015_10_28_S21 10/28/2015 16:40:00 0.0045
2015_10_28_S21 10/28/2015 16:45:00 0.0
2015_10_28_S21 10/28/2015 16:50:00 0.0
2015_10_28_S21 10/28/2015 16:55:00 0.0
2015_10_28_S21 10/28/2015 17:00:00 0.004
2015_10_28_S21 10/28/2015 17:05:00 0.0
2015_10_28_S21 10/28/2015 17:10:00 0.0
2015_10_28_S21 10/28/2015 17:15:00 0.0
2015_10_28_S21 10/28/2015 17:20:00 0.0
2015_10_28_S21 10/28/2015 17:25:00 0.0
2015_10_28_S21 10/28/2015 17:30:00 0.0
2015_10_28_S21 10/28/2015 17:35:00 0.0
2015_10_28_S21 10/28/2015 17:40:00 0.0
2015_10_28_S21 10/28/2015 17:45:00 0.0
2015_10_28_S21 10/28/2015 17:50:00 0.0
2015_10_28_S21 10/28/2015 17:55:00 0.0
2015_10_28_S21 10/28/2015 18:00:00 0.0
2015_10_28_S21 10/28/2015 18:05:00 0.0
2015_10_28_S21 10/28/2015 18:10:00 0.0
2015_10_28_S21 10/28/2015 18:15:00 0.0
2015_10_28_S21 10/28/2015 18:20:00 0.0
2015_10_28_S21 10/28/2015 18:25:00 0.0
2015_10_28_S21 10/28/2015 18:30:00 0.0
2015_10_28_S21 10/28/2015 18:35:00 0.0
2015_10_28_S21 10/28/2015 18:40:00 0.0
2015_10_28_S21 10/28/2015 18:45:00 0.0
2015_10_28_S21 10/28/2015 18:50:00 0.0
2015_10_28_S21 10/28/2015 18:55:00 0.0
2015_10_28_S21 10/28/2015 19:00:00 0.0
2015_10_28_S21 10/28/2015 19:05:00 0.0
2015_10_28_S21 10/28/2015 19:10:00 0.0
2015_10_28_S21 10/28/2015 19:15:00 0.0
2015_10_28_S21 10/28/2015 19:20:00 0.0
2015_10_28_S21 10/28/2015 19:25:00 0.0
2015_10_28_S21 10/28/2015 19:30:00 0.0
2015_10_28_S21 10/28/2015 19:35:00 0.0
2015_10_28_S21 10/28/2015 19:40:00 0.0
2015_10_28_S21 10/28/2015 19:45:00 0.0
2015_10_28_S21 10/28/2015 19:50:00 0.0
2015_10_28_S21 10/28/2015 19:55:00 0.0
2015_10_28_S21 10/28/2015 20:00:00 0.0
2015_10_28_S21 10/28/2015 20:05:00 0.0
2015_10_28_S21 10/28/2015 20:10:00 0.0
2015_10_28_S21 10/28/2015 20:15:00 0.0
2015_10_28_S21 10/28/2015 20:20:00 0.0
2015_10_28_S21 10/28/2015 20:25:00 0.0
2015_10_28_S21 10/28/2015 20:30:00 0.0
2015_10_28_S21 10/28/2015 20:35:00 0.0
2015_10_28_S21 10/28/2015 20:40:00 0.0
2015_10_28_S21 10/28/2015 20:45:00 0.0
2015_10_28_S21 10/28/2015 20:50:00 0.0
2015_10_28_S21 10/28/2015 20:55:00 0.0
2015_10_28_S21 10/28/2015 21:00:00 0.0
2015_10_28_S21 10/28/2015 21:05:00 0.0
2015_10_28_S21 10/28/2015 21:10:00 0.0
2015_10_28_S21 10/28/2015 21:15:00 0.0
2015_10_28_S21 10/28/2015 21:20:00 0.0
2015_10_28_S21 10/28/2015 21:25:00 0.0
2015_10_28_S21 10/28/2015 21:30:00 0.0
2015_10_28_S21 10/28/2015 21:35:00 0.0
2015_10_28_S21 10/28/2015 21:40:00 0.0
2015_10_28_S21 10/28/2015 21:45:00 0.0
2015_10_28_S21 10/28/2015 21:50:00 0.0
2015_10_28_S21 10/28/2015 21:55:00 0.0
2015_10_28_S21 10/28/2015 22:00:00 0.0
2015_10_28_S21 10/28/2015 22:05:00 0.0
2015_10_28_S21 10/28/2015 22:10:00 0.0
2015_10_28_S21 10/28/2015 22:15:00 0.0
2015_10_28_S21 10/28/2015 22:20:00 0.0
2015_10_28_S21 10/28/2015 22:25:00 0.0
2015_10_28_S21 10/28/2015 22:30:00 0.0
2015_10_28_S21 10/28/2015 22:35:00 0.0
2015_10_28_S21 10/28/2015 22:40:00 0.0
2015_10_28_S21 10/28/2015 22:45:00 0.0
2015_10_28_S21 10/28/2015 22:50:00 0.0498
2015_10_28_S21 10/28/2015 22:55:00 0.5806
2015_10_28_S21 10/28/2015 23:00:00 0.5454
2015_10_28_S21 10/28/2015 23:05:00 0.0094
2015_10_28_S21 10/28/2015 23:10:00 0.0
2015_10_28_S21 10/28/2015 23:15:00 0.0
2015_10_28_S21 10/28/2015 23:20:00 0.0
2015_10_28_S21 10/28/2015 23:25:00 0.0
2015_10_28_S21 10/28/2015 23:30:00 0.0
2015_10_28_S21 10/28/2015 23:35:00 0.0085
2015_10_28_S21 10/28/2015 23:40:00 0.0234
2015_10_28_S21 10/28/2015 23:45:00 0.0131
2015_10_28_S21 10/28/2015 23:50:00 0.0309
2015_10_28_S21 10/28/2015 23:55:00 0.0474
2015_10_28_S21 10/29/2015 00:00:00 0.0344
2015_10_28_S21 10/29/2015 00:05:00 0.0048
2015_10_28_S21 10/29/2015 00:10:00 0.0013
2015_10_28_S21 10/29/2015 00:15:00 0.0015
2015_10_28_S21 10/29/2015 00:20:00 0.0
2015_10_28_S21 10/29/2015 00:25:00 0.0
2015_10_28_S21 10/29/2015 00:30:00 0.0051
2015_10_28_S21 10/29/2015 00:35:00 0.0
2015_10_28_S21 10/29/2015 00:40:00 0.0
2015_10_28_S21 10/29/2015 00:45:00 0.0928
2015_10_28_S21 10/29/2015 00:50:00 0.2896
2015_10_28_S21 10/29/2015 00:55:00 0.0568
2015_10_28_S21 10/29/2015 01:00:00 0.0938
2015_10_28_S21 10/29/2015 01:05:00 0.0838
2015_10_28_S21 10/29/2015 01:10:00 0.119
2015_10_28_S21 10/29/2015 01:15:00 0.0838
2015_10_28_S21 10/29/2015 01:20:00 0.2048
2015_10_28_S21 10/29/2015 01:25:00 0.1205
2015_10_28_S21 10/29/2015 01:30:00 0.1249
2015_10_28_S21 10/29/2015 01:35:00 0.1224
2015_10_28_S21 10/29/2015 01:40:00 0.1747
2015_10_28_S21 10/29/2015 01:45:00 0.2952
2015_10_28_S21 10/29/2015 01:50:00 0.124
2015_10_28_S21 10/29/2015 01:55:00 0.0086
2015_10_28_S21 10/29/2015 02:00:00 0.0
2015_10_28_S21 10/29/2015 02:05:00 0.0
2015_10_28_S21 10/29/2015 02:10:00 0.0
2015_10_28_S21 10/29/2015 02:15:00 0.0
2015_10_28_S21 10/29/2015 02:20:00 0.0
2015_10_28_S21 10/29/2015 02:25:00 0.0
2015_10_28_S21 10/29/2015 02:30:00 0.0
2015_10_28_S21 10/29/2015 02:35:00 0.0
2015_10_28_S21 10/29/2015 02:40:00 0.0
2015_10_28_S21 10/29/2015 02:45:00 0.0
2015_10_28_S21 10/29/2015 02:50:00 0.0
2015_10_28_S21 10/29/2015 02:55:00 0.0
2015_10_28_S21 10/29/2015 03:00:00 0.0
2015_10_28_S21 10/29/2015 03:05:00 0.0
2015_10_28_S21 10/29/2015 03:10:00 0.0
2015_10_28_S21 10/29/2015 03:15:00 0.0
2015_10_28_S21 10/29/2015 03:20:00 0.0
2015_10_28_S21 10/29/2015 03:25:00 0.0
2015_10_28_S21 10/29/2015 03:30:00 0.0
2015_10_28_S21 10/29/2015 03:35:00 0.0
2015_10_28_S21 10/29/2015 03:40:00 0.0
2015_10_28_S21 10/29/2015 03:45:00 0.0
2015_10_28_S21 10/29/2015 03:50:00 0.0
2015_10_28_S21 10/29/2015 03:55:00 0.0
2015_10_28_S21 10/29/2015 04:00:00 0.0
2015_10_28_S21 10/29/2015 04:05:00 0.0
2015_10_28_S21 10/29/2015 04:10:00 0.0
2015_10_28_S21 10/29/2015 04:15:00 0.0
2015_10_28_S21 10/29/2015 04:20:00 0.0
2015_10_28_S21 10/29/2015 04:25:00 0.0
2015_10_28_S21 10/29/2015 04:30:00 0.0
2015_10_28_S21 10/29/2015 04:35:00 0.0
2015_10_28_S21 10/29/2015 04:40:00 0.0
2015_10_28_S21 10/29/2015 04:45:00 0.0
2015_10_28_S21 10/29/2015 04:50:00 0.0
2015_10_28_S21 10/29/2015 04:55:00 0.0
2015_10_28_S21 10/29/2015 05:00:00 0.0
2015_10_28_S21 10/29/2015 05:05:00 0.0
2015_10_28_S21 10/29/2015 05:10:00 0.0
2015_10_28_S21 10/29/2015 05:15:00 0.0
2015_10_28_S21 10/29/2015 05:20:00 0.0
2015_10_28_S21 10/29/2015 05:25:00 0.0
2015_10_28_S21 10/29/2015 05:30:00 0.0
2015_10_28_S21 10/29/2015 05:35:00 0.0
2015_10_28_S21 10/29/2015 05:40:00 0.0
2015_10_28_S21 10/29/2015 05:45:00 0.0
2015_10_28_S21 10/29/2015 05:50:00 0.0
2015_10_28_S21 10/29/2015 05:55:00 0.0
2015_10_28_S21 10/29/2015 06:00:00 0.0078
2015_10_28_S21 10/29/2015 06:05:00 0.0
2015_10_28_S21 10/29/2015 06:10:00 0.0056
2015_10_28_S21 10/29/2015 06:15:00 0.0
2015_10_28_S21 10/29/2015 06:20:00 0.0
2015_10_28_S21 10/29/2015 06:25:00 0.0
2015_10_28_S21 10/29/2015 06:30:00 0.0
2015_10_28_S21 10/29/2015 06:35:00 0.0
2015_10_28_S21 10/29/2015 06:40:00 0.0
2015_10_28_S21 10/29/2015 06:45:00 0.0
2015_10_28_S21 10/29/2015 06:50:00 0.0
2015_10_28_S21 10/29/2015 06:55:00 0.0
2015_10_28_S21 10/29/2015 07:00:00 0.0
2015_10_28_S21 10/29/2015 07:05:00 0.0
2015_10_28_S21 10/29/2015 07:10:00 0.0
2015_10_28_S21 10/29/2015 07:15:00 0.0
2015_10_28_S21 10/29/2015 07:20:00 0.0
2015_10_28_S21 10/29/2015 07:25:00 0.0
2015_10_28_S21 10/29/2015 07:30:00 0.0
2015_10_28_S21 10/29/2015 07:35:00 0.0
2015_10_28_S21 10/29/2015 07:40:00 0.0
2015_10_28_S21 10/29/2015 07:45:00 0.0
2015_10_28_S21 10/29/2015 07:50:00 0.0
2015_10_28_S21 10/29/2015 07:55:00 0.0
2015_10_28_S21 10/29/2015 08:00:00 0.0

2015_10_28_S22 10/28/2015 10:25:00 0.0451
2015_10_28_S22 10/28/2015 10:30:00 0.0237
2015_10_28_S22 10/28/2015 10:35:00 0.2647
2015_10_28_S22 10/28/2015 10:40:00 0.0744
2015_10_28_S22 10/28/2015 10:45:00 0.0498
2015_10_28_S22 10/28/2015 10:50:00 0.0088
2015_10_28_S22 10/28/2015 10:55:00 0.0074
2015_10_28_S22 10/28/2015 11:00:00 0.015
2015_10_28_S22 10/28/2015 11:05:00 0.0656
2015_10_28_S22 10/28/2015 11:10:00 0.6023
2015_10_28_S22 10/28/2015 11:15:00 6.6004
2015_10_28_S22 10/28/2015 11:20:00 3.6356
2015_10_28_S22 10/28/2015 11:25:00 2.3168
2015_10_28_S22 10/28/2015 11:30:00 0.9979
2015_10_28_S22 10/28/2015 11:35:00 3.8435
2015_10_28_S22 10/28/2015 11:40:00 2.3765
2015_10_28_S22 10/28/2015 11:45:00 10.1491
2015_10_28_S22 10/28/2015 11:50:00 5.2145
2015_10_28_S22 10/28/2015 11:55:00 5.161
2015_10_28_S22 10/28/2015 12:00:00 5.0583
2015_10_28_S22 10/28/2015 12:05:00 1.4479
2015_10_28_S22 10/28/2015 12:10:00 4.8099
2015_10_28_S22 10/28/2015 12:15:00 8.0032
2015_10_28_S22 10/28/2015 12:20:00 0.2487
2015_10_28_S22 10/28/2015 12:25:00 10.7591
2015_10_28_S22 10/28/2015 12:30:00 6.094
2015_10_28_S22 10/28/2015 12:35:00 7.647
2015_10_28_S22 10/28/2015 12:40:00 6.1404
2015_10_28_S22 10/28/2015 12:45:00 5.9324
2015_10_28_S22 10/28/2015 12:50:00 3.8576
2015_10_28_S22 10/28/2015 12:55:00 1.8508
2015_10_28_S22 10/28/2015 13:00:00 3.4072
2015_10_28_S22 10/28/2015 13:05:00 0.4942
2015_10_28_S22 10/28/2015 13:10:00 0.021
2015_10_28_S22 10/28/2015 13:15:00 0.0
2015_10_28_S22 10/28/2015 13:20:00 0.0
2015_10_28_S22 10/28/2015 13:25:00 0.0
2015_10_28_S22 10/28/2015 13:30:00 0.0
2015_10_28_S22 10/28/2015 13:35:00 0.0
2015_10_28_S22 10/28/2015 13:40:00 0.2566
2015_10_28_S22 10/28/2015 13:45:00 0.105
2015_10_28_S22 10/28/2015 13:50:00 0.0251
2015_10_28_S22 10/28/2015 13:55:00 0.0009
2015_10_28_S22 10/28/2015 14:00:00 0.0
2015_10_28_S22 10/28/2015 14:05:00 0.0
2015_10_28_S22 10/28/2015 14:10:00 0.0
2015_10_28_S22 10/28/2015 14:15:00 0.0
2015_10_28_S22 10/28/2015 14:20:00 0.0
2015_10_28_S22 10/28/2015 14:25:00 0.0129
2015_10_28_S22 10/28/2015 14:30:00 0.2857
2015_10_28_S22 10/28/2015 14:35:00 0.0728
2015_10_28_S22 10/28/2015 14:40:00 0.0009
2015_10_28_S22 10/28/2015 14:45:00 0.0
2015_10_28_S22 10/28/2015 14:50:00 0.0
2015_10_28_S22 10/28/2015 14:55:00 0.0
2015_10_28_S22 10/28/2015 15:00:00 0.0
2015_10_28_S22 10/28/2015 15:05:00 0.0
2015_10_28_S22 10/28/2015 15:10:00 0.0
2015_10_28_S22 10/28/2015 15:15:00 0.0
2015_10_28_S22 10/28/2015 15:20:00 0.0
2015_10_28_S22 10/28/2015 15:25:00 0.0
2015_10_28_S22 10/28/2015 15:30:00 0.0
2015_10_28_S22 10/28/2015 15:35:00 0.0
2015_10_28_S22 10/28/2015 15:40:00 0.0
2015_10_28_S22 10/28/2015 15:45:00 0.0
2015_10_28_S22 10/28/2015 15:50:00 0.0
2015_10_28_S22 10/28/2015 15:55:00 0.0
2015_10_28_S22 10/28/2015 16:00:00 0.0
2015_10_28_S22 10/28/2015 16:05:00 0.0
2015_10_28_S22 10/28/2015 16:10:00 0.0
2015_10_28_S22 10/28/2015 16:15:00 0.0186
2015_10_28_S22 10/28/2015 16:20:00 0.0491
2015_10_28_S22 10/28/2015 16:25:00 0.0111
2015_10_28_S22 10/28/2015 16:30:00 0.0
2015_10_28_S22 10/28/2015 16:35:00 0.0
2015_10_28_S22 10/28/2015 16:40:00 0.0
2015_10_28_S22 10/28/2015 16:45:00 0.0
2015_10_28_S22 10/28/2015 16:50:00 0.0
2015_10_28_S22 10/28/2015 16:55:00 0.0
2015_10_28_S22 10/28/2015 17:00:00 0.0006
2015_10_28_S22 10/28/2015 17:05:00 0.0
2015_10_28_S22 10/28/2015 17:10:00 0.0
2015_10_28_S22 10/28/2015 17:15:00 0.0
2015_10_28_S22 10/28/2015 17:20:00 0.0
2015_10_28_S22 10/28/2015 17:25:00 0.0
2015_10_28_S22 10/28/2015 17:30:00 0.0
2015_10_28_S22 10/28/2015 17:35:00 0.0
2015_10_28_S22 10/28/2015 17:40:00 0.0
2015_10_28_S22 10/28/2015 17:45:00 0.0
2015_10_28_S22 10/28/2015 17:50:00 0.0
2015_10_28_S22 10/28/2015 17:55:00 0.0
2015_10_28_S22 10/28/2015 18:00:00 0.0
2015_10_28_S22 10/28/2015 18:05:00 0.0
2015_10_28_S22 10/28/2015 18:10:00 0.0
2015_10_28_S22 10/28/2015 18:15:00 0.0
2015_10_28_S22 10/28/2015 18:20:00 0.0
2015_10_28_S22 10/28/2015 18:25:00 0.0
2015_10_28_S22 10/28/2015 18:30:00 0.0
2015_10_28_S22 10/28/2015 18:35:00 0.0
2015_10_28_S22 10/28/2015 18:40:00 0.0
2015_10_28_S22 10/28/2015 18:45:00 0.0
2015_10_28_S22 10/28/2015 18:50:00 0.0
2015_10_28_S22 10/28/2015 18:55:00 0.0
2015_10_28_S22 10/28/2015 19:00:00 0.0
2015_10_28_S22 10/28/2015 19:05:00 0.0
2015_10_28_S22 10/28/2015 19:10:00 0.0
2015_10_28_S22 10/28/2015 19:15:00 0.0
2015_10_28_S22 10/28/2015 19:20:00 0.0
2015_10_28_S22 10/28/2015 19:25:00 0.0
2015_10_28_S22 10/28/2015 19:30:00 0.0
2015_10_28_S22 10/28/2015 19:35:00 0.0
2015_10_28_S22 10/28/2015 19:40:00 0.0
2015_10_28_S22 10/28/2015 19:45:00 0.0
2015_10_28_S22 10/28/2015 19:50:00 0.0
2015_10_28_S22 10/28/2015 19:55:00 0.0
2015_10_28_S22 10/28/2015 20:00:00 0.0
2015_10_28_S22 10/28/2015 20:05:00 0.0
2015_10_28_S22 10/28/2015 20:10:00 0.0
2015_10_28_S22 10/28/2015 20:15:00 0.0
2015_10_28_S22 10/28/2015 20:20:00 0.0
2015_10_28_S22 10/28/2015 20:25:00 0.0
2015_10_28_S22 10/28/2015 20:30:00 0.0
2015_10_28_S22 10/28/2015 20:35:00 0.0
2015_10_28_S22 10/28/2015 20:40:00 0.0
2015_10_28_S22 10/28/2015 20:45:00 0.0
2015_10_28_S22 10/28/2015 20:50:00 0.0
2015_10_28_S22 10/28/2015 20:55:00 0.0
2015_10_28_S22 10/28/2015 21:00:00 0.0
2015_10_28_S22 10/28/2015 21:05:00 0.0
2015_10_28_S22 10/28/2015 21:10:00 0.0
2015_10_28_S22 10/28/2015 21:15:00 0.0
2015_10_28_S22 10/28/2015 21:20:00 0.0
2015_10_28_S22 10/28/2015 21:25:00 0.0
2015_10_28_S22 10/28/2015 21:30:00 0.0
2015_10_28_S22 10/28/2015 21:35:00 0.0
2015_10_28_S22 10/28/2015 21:40:00 0.0
2015_10_28_S22 10/28/2015 21:45:00 0.0
2015_10_28_S22 10/28/2015 21:50:00 0.0
2015_10_28_S22 10/28/2015 21:55:00 0.0
2015_10_28_S22 10/28/2015 22:00:00 0.0
2015_10_28_S22 10/28/2015 22:05:00 0.0
2015_10_28_S22 10/28/2015 22:10:00 0.0
2015_10_28_S22 10/28/2015 22:15:00 0.0
2015_10_28_S22 10/28/2015 22:20:00 0.0
2015_10_28_S22 10/28/2015 22:25:00 0.0
2015_10_28_S22 10/28/2015 22:30:00 0.0
2015_10_28_S22 10/28/2015 22:35:00 0.0
2015_10_28_S22 10/28/2015 22:40:00 0.0
2015_10_28_S22 10/28/2015 22:45:00 0.0
2015_10_28_S22 10/28/2015 22:50:00 0.0
2015_10_28_S22 10/28/2015 22:55:00 0.0148
2015_10_28_S22 10/28/2015 23:00:00 0.1744
2015_10_28_S22 10/28/2015 23:05:00 0.001
2015_10_28_S22 10/28/2015 23:10:00 0.0
2015_10_28_S22 10/28/2015 23:15:00 0.0
2015_10_28_S22 10/28/2015 23:20:00 0.0
2015_10_28_S22 10/28/2015 23:25:00 0.0
2015_10_28_S22 10/28/2015 23:30:00 0.0
2015_10_28_S22 10/28/2015 23:35:00 0.0
2015_10_28_S22 10/28/2015 23:40:00 0.0058
2015_10_28_S22 10/28/2015 23:45:00 0.0114
2015_10_28_S22 10/28/2015 23:50:00 0.0323
2015_10_28_S22 10/28/2015 23:55:00 0.0314
2015_10_28_S22 10/29/2015 00:00:00 0.019
2015_10_28_S22 10/29/2015 00:05:00 0.0081
2015_10_28_S22 10/29/2015 00:10:00 0.0003
2015_10_28_S22 10/29/2015 00:15:00 0.0
2015_10_28_S22 10/29/2015 00:20:00 0.0
2015_10_28_S22 10/29/2015 00:25:00 0.0
2015_10_28_S22 10/29/2015 00:30:00 0.0007
2015_10_28_S22 10/29/2015 00:35:00 0.0
2015_10_28_S22 10/29/2015 00:40:00 0.0
2015_10_28_S22 10/29/2015 00:45:00 0.159
2015_10_28_S22 10/29/2015 00:50:00 0.3215
2015_10_28_S22 10/29/2015 00:55:00 0.0619
2015_10_28_S22 10/29/2015 01:00:00 0.0654
2015_10_28_S22 10/29/2015 01:05:00 0.0578
2015_10_28_S22 10/29/2015 01:10:00 0.0756
2015_10_28_S22 10/29/2015 01:15:00 0.0809
2015_10_28_S22 10/29/2015 01:20:00 0.1592
2015_10_28_S22 10/29/2015 01:25:00 0.1427
2015_10_28_S22 10/29/2015 01:30:00 0.1543
2015_10_28_S22 10/29/2015 01:35:00 0.1567
2015_10_28_S22 10/29/2015 01:40:00 0.2239
2015_10_28_S22 10/29/2015 01:45:00 0.2897
2015_10_28_S22 10/29/2015 01:50:00 0.2412
2015_10_28_S22 10/29/2015 01:55:00 0.0124
2015_10_28_S22 10/29/2015 02:00:00 0.0
2015_10_28_S22 10/29/2015 02:05:00 0.0
2015_10_28_S22 10/29/2015 02:10:00 0.0
2015_10_28_S22 10/29/2015 02:15:00 0.0
2015_10_28_S22 10/29/2015 02:20:00 0.0
2015_10_28_S22 10/29/2015 02:25:00 0.0
2015_10_28_S22 10/29/2015 02:30:00 0.0
2015_10_28_S22 10/29/2015 02:35:00 0.0
2015_10_28_S22 10/29/2015 02:40:00 0.0
2015_10_28_S22 10/29/2015 02:45:00 0.0
2015_10_28_S22 10/29/2015 02:50:00 0.0
2015_10_28_S22 10/29/2015 02:55:00 0.0
2015_10_28_S22 10/29/2015 03:00:00 0.0
2015_10_28_S22 10/29/2015 03:05:00 0.0
2015_10_28_S22 10/29/2015 03:10:00 0.0
2015_10_28_S22 10/29/2015 03:15:00 0.0
2015_10_28_S22 10/29/2015 03:20:00 0.0
2015_10_28_S22 10/29/2015 03:25:00 0.0
2015_10_28_S22 10/29/2015 03:30:00 0.0
2015_10_28_S22 10/29/2015 03:35:00 0.0
2015_10_28_S22 10/29/2015 03:40:00 0.0
2015_10_28_S22 10/29/2015 03:45:00 0.0
2015_10_28_S22 10/29/2015 03:50:00 0.0
2015_10_28_S22 10/29/2015 03:55:00 0.0
2015_10_28_S22 10/29/2015 04:00:00 0.0
2015_10_28_S22 10/29/2015 04:05:00 0.0
2015_10_28_S22 10/29/2015 04:10:00 0.0
2015_10_28_S22 10/29/2015 04:15:00 0.0
2015_10_28_S22 10/29/2015 04:20:00 0.0
2015_10_28_S22 10/29/2015 04:25:00 0.0
2015_10_28_S22 10/29/2015 04:30:00 0.0
2015_10_28_S22 10/29/2015 04:35:00 0.0
2015_10_28_S22 10/29/2015 04:40:00 0.0
2015_10_28_S22 10/29/2015 04:45:00 0.0
2015_10_28_S22 10/29/2015 04:50:00 0.0
2015_10_28_S22 10/29/2015 04:55:00 0.0
2015_10_28_S22 10/29/2015 05:00:00 0.0
2015_10_28_S22 10/29/2015 05:05:00 0.0
2015_10_28_S22 10/29/2015 05:10:00 0.0
2015_10_28_S22 10/29/2015 05:15:00 0.0
2015_10_28_S22 10/29/2015 05:20:00 0.0
2015_10_28_S22 10/29/2015 05:25:00 0.0
2015_10_28_S22 10/29/2015 05:30:00 0.0
2015_10_28_S22 10/29/2015 05:35:00 0.0
2015_10_28_S22 10/29/2015 05:40:00 0.0
2015_10_28_S22 10/29/2015 05:45:00 0.0
2015_10_28_S22 10/29/2015 05:50:00 0.0
2015_10_28_S22 10/29/2015 05:55:00 0.0
2015_10_28_S22 10/29/2015 06:00:00 0.0
2015_10_28_S22 10/29/2015 06:05:00 0.0
2015_10_28_S22 10/29/2015 06:10:00 0.0008
2015_10_28_S22 10/29/2015 06:15:00 0.0
2015_10_28_S22 10/29/2015 06:20:00 0.0
2015_10_28_S22 10/29/2015 06:25:00 0.0
2015_10_28_S22 10/29/2015 06:30:00 0.0
2015_10_28_S22 10/29/2015 06:35:00 0.0
2015_10_28_S22 10/29/2015 06:40:00 0.0
2015_10_28_S22 10/29/2015 06:45:00 0.0
2015_10_28_S22 10/29/2015 06:50:00 0.0
2015_10_28_S22 10/29/2015 06:55:00 0.0
2015_10_28_S22 10/29/2015 07:00:00 0.0
2015_10_28_S22 10/29/2015 07:05:00 0.0
2015_10_28_S22 10/29/2015 07:10:00 0.0
2015_10_28_S22 10/29/2015 07:15:00 0.0
2015_10_28_S22 10/29/2015 07:20:00 0.0
2015_10_28_S22 10/29/2015 07:25:00 0.0
2015_10_28_S22 10/29/2015 07:30:00 0.0
2015_10_28_S22 10/29/2015 07:35:00 0.0
2015_10_28_S22 10/29/2015 07:40:00 0.0
2015_10_28_S22 10/29/2015 07:45:00 0.0
2015_10_28_S22 10/29/2015 07:50:00 0.0
2015_10_28_S22 10/29/2015 07:55:00 0.0
2015_10_28_S22 10/29/2015 08:00:00 0.0

2015_10_28_S23 10/28/2015 10:25:00 0.0207
2015_10_28_S23 10/28/2015 10:30:00 0.0115
2015_10_28_S23 10/28/2015 10:35:00 0.0041
2015_10_28_S23 10/28/2015 10:40:00 0.0583
2015_10_28_S23 10/28/2015 10:45:00 0.0377
2015_10_28_S23 10/28/2015 10:50:00 0.0204
2015_10_28_S23 10/28/2015 10:55:00 0.027
2015_10_28_S23 10/28/2015 11:00:00 0.1386
2015_10_28_S23 10/28/2015 11:05:00 0.2952
2015_10_28_S23 10/28/2015 11:10:00 0.5858
2015_10_28_S23 10/28/2015 11:15:00 3.1036
2015_10_28_S23 10/28/2015 11:20:00 2.6132
2015_10_28_S23 10/28/2015 11:25:00 3.2663
2015_10_28_S23 10/28/2015 11:30:00 3.9193
2015_10_28_S23 10/28/2015 11:35:00 3.1032
2015_10_28_S23 10/28/2015 11:40:00 0.4432
2015_10_28_S23 10/28/2015 11:45:00 2.6895
2015_10_28_S23 10/28/2015 11:50:00 3.3118
2015_10_28_S23 10/28/2015 11:55:00 3.2391
2015_10_28_S23 10/28/2015 12:00:00 6.2659
2015_10_28_S23 10/28/2015 12:05:00 5.3415
2015_10_28_S23 10/28/2015 12:10:00 4.7174
2015_10_28_S23 10/28/2015 12:15:00 7.0297
2015_10_28_S23 10/28/2015 12:20:00 0.9711
2015_10_28_S23 10/28/2015 12:25:00 1.235
2015_10_28_S23 10/28/2015 12:30:00 0.4177
2015_10_28_S23 10/28/2015 12:35:00 0.0138
2015_10_28_S23 10/28/2015 12:40:00 0.2331
2015_10_28_S23 10/28/2015 12:45:00 0.75
2015_10_28_S23 10/28/2015 12:50:00 0.3152
2015_10_28_S23 10/28/2015 12:55:00 0.5305
2015_10_28_S23 10/28/2015 13:00:00 0.212
2015_10_28_S23 10/28/2015 13:05:00 0.0096
2015_10_28_S23 10/28/2015 13:10:00 0.1776
2015_10_28_S23 10/28/2015 13:15:00 0.0959
2015_10_28_S23 10/28/2015 13:20:00 0.0017
2015_10_28_S23 10/28/2015 13:25:00 0.0
2015_10_28_S23 10/28/2015 13:30:00 0.0
2015_10_28_S23 10/28/2015 13:35:00 0.0
2015_10_28_S23 10/28/2015 13:40:00 0.0377
2015_10_28_S23 10/28/2015 13:45:00 0.0269
2015_10_28_S23 10/28/2015 13:50:00 0.0135
2015_10_28_S23 10/28/2015 13:55:00 0.0014
2015_10_28_S23 10/28/2015 14:00:00 0.0
2015_10_28_S23 10/28/2015 14:05:00 0.0
2015_10_28_S23 10/28/2015 14:10:00 0.0
2015_10_28_S23 10/28/2015 14:15:00 0.0
2015_10_28_S23 10/28/2015 14:20:00 0.0
2015_10_28_S23 10/28/2015 14:25:00 0.0042
2015_10_28_S23 10/28/2015 14:30:00 0.2942
2015_10_28_S23 10/28/2015 14:35:00 0.0011
2015_10_28_S23 10/28/2015 14:40:00 0.0007
2015_10_28_S23 10/28/2015 14:45:00 0.0075
2015_10_28_S23 10/28/2015 14:50:00 0.0
2015_10_28_S23 10/28/2015 14:55:00 0.0
2015_10_28_S23 10/28/2015 15:00:00 0.0
2015_10_28_S23 10/28/2015 15:05:00 0.0
2015_10_28_S23 10/28/2015 15:10:00 0.0
2015_10_28_S23 10/28/2015 15:15:00 0.0
2015_10_28_S23 10/28/2015 15:20:00 0.0
2015_10_28_S23 10/28/2015 15:25:00 0.0
2015_10_28_S23 10/28/2015 15:30:00 0.0
2015_10_28_S23 10/28/2015 15:35:00 0.0
2015_10_28_S23 10/28/2015 15:40:00 0.0
2015_10_28_S23 10/28/2015 15:45:00 0.0
2015_10_28_S23 10/28/2015 15:50:00 0.0
2015_10_28_S23 10/28/2015 15:55:00 0.0
2015_10_28_S23 10/28/2015 16:00:00 0.0
2015_10_28_S23 10/28/2015 16:05:00 0.0
2015_10_28_S23 10/28/2015 16:10:00 0.0
2015_10_28_S23 10/28/2015 16:15:00 0.0153
2015_10_28_S23 10/28/2015 16:20:00 0.0371
2015_10_28_S23 10/28/2015 16:25:00 0.0074
2015_10_28_S23 10/28/2015 16:30:00 0.0
2015_10_28_S23 10/28/2015 16:35:00 0.0
2015_10_28_S23 10/28/2015 16:40:00 0.0012
2015_10_28_S23 10/28/2015 16:45:00 0.0
2015_10_28_S23 10/28/2015 16:50:00 0.0
2015_10_28_S23 10/28/2015 16:55:00 0.0
2015_10_28_S23 10/28/2015 17:00:00 0.0036
2015_10_28_S23 10/28/2015 17:05:00 0.0
2015_10_28_S23 10/28/2015 17:10:00 0.0
2015_10_28_S23 10/28/2015 17:15:00 0.0
2015_10_28_S23 10/28/2015 17:20:00 0.0
2015_10_28_S23 10/28/2015 17:25:00 0.0
2015_10_28_S23 10/28/2015 17:30:00 0.0
2015_10_28_S23 10/28/2015 17:35:00 0.0
2015_10_28_S23 10/28/2015 17:40:00 0.0
2015_10_28_S23 10/28/2015 17:45:00 0.0
2015_10_28_S23 10/28/2015 17:50:00 0.0
2015_10_28_S23 10/28/2015 17:55:00 0.0
2015_10_28_S23 10/28/2015 18:00:00 0.0
2015_10_28_S23 10/28/2015 18:05:00 0.0
2015_10_28_S23 10/28/2015 18:10:00 0.0
2015_10_28_S23 10/28/2015 18:15:00 0.0
2015_10_28_S23 10/28/2015 18:20:00 0.0
2015_10_28_S23 10/28/2015 18:25:00 0.0
2015_10_28_S23 10/28/2015 18:30:00 0.0
2015_10_28_S23 10/28/2015 18:35:00 0.0
2015_10_28_S23 10/28/2015 18:40:00 0.0
2015_10_28_S23 10/28/2015 18:45:00 0.0
2015_10_28_S23 10/28/2015 18:50:00 0.0
2015_10_28_S23 10/28/2015 18:55:00 0.0
2015_10_28_S23 10/28/2015 19:00:00 0.0
2015_10_28_S23 10/28/2015 19:05:00 0.0
2015_10_28_S23 10/28/2015 19:10:00 0.0
2015_10_28_S23 10/28/2015 19:15:00 0.0
2015_10_28_S23 10/28/2015 19:20:00 0.0
2015_10_28_S23 10/28/2015 19:25:00 0.0
2015_10_28_S23 10/28/2015 19:30:00 0.0
2015_10_28_S23 10/28/2015 19:35:00 0.0
2015_10_28_S23 10/28/2015 19:40:00 0.0
2015_10_28_S23 10/28/2015 19:45:00 0.0
2015_10_28_S23 10/28/2015 19:50:00 0.0
2015_10_28_S23 10/28/2015 19:55:00 0.0
2015_10_28_S23 10/28/2015 20:00:00 0.0
2015_10_28_S23 10/28/2015 20:05:00 0.0
2015_10_28_S23 10/28/2015 20:10:00 0.0
2015_10_28_S23 10/28/2015 20:15:00 0.0
2015_10_28_S23 10/28/2015 20:20:00 0.0
2015_10_28_S23 10/28/2015 20:25:00 0.0
2015_10_28_S23 10/28/2015 20:30:00 0.0
2015_10_28_S23 10/28/2015 20:35:00 0.0
2015_10_28_S23 10/28/2015 20:40:00 0.0
2015_10_28_S23 10/28/2015 20:45:00 0.0
2015_10_28_S23 10/28/2015 20:50:00 0.0
2015_10_28_S23 10/28/2015 20:55:00 0.0
2015_10_28_S23 10/28/2015 21:00:00 0.0
2015_10_28_S23 10/28/2015 21:05:00 0.0
2015_10_28_S23 10/28/2015 21:10:00 0.0
2015_10_28_S23 10/28/2015 21:15:00 0.0
2015_10_28_S23 10/28/2015 21:20:00 0.0
2015_10_28_S23 10/28/2015 21:25:00 0.0
2015_10_28_S23 10/28/2015 21:30:00 0.0
2015_10_28_S23 10/28/2015 21:35:00 0.0
2015_10_28_S23 10/28/2015 21:40:00 0.0
2015_10_28_S23 10/28/2015 21:45:00 0.0
2015_10_28_S23 10/28/2015 21:50:00 0.0
2015_10_28_S23 10/28/2015 21:55:00 0.0
2015_10_28_S23 10/28/2015 22:00:00 0.0
2015_10_28_S23 10/28/2015 22:05:00 0.0
2015_10_28_S23 10/28/2015 22:10:00 0.0
2015_10_28_S23 10/28/2015 22:15:00 0.0
2015_10_28_S23 10/28/2015 22:20:00 0.0
2015_10_28_S23 10/28/2015 22:25:00 0.0
2015_10_28_S23 10/28/2015 22:30:00 0.0
2015_10_28_S23 10/28/2015 22:35:00 0.0
2015_10_28_S23 10/28/2015 22:40:00 0.0
2015_10_28_S23 10/28/2015 22:45:00 0.0
2015_10_28_S23 10/28/2015 22:50:00 0.0136
2015_10_28_S23 10/28/2015 22:55:00 0.52
2015_10_28_S23 10/28/2015 23:00:00 1.0092
2015_10_28_S23 10/28/2015 23:05:00 0.1862
2015_10_28_S23 10/28/2015 23:10:00 0.001
2015_10_28_S23 10/28/2015 23:15:00 0.0
2015_10_28_S23 10/28/2015 23:20:00 0.0
2015_10_28_S23 10/28/2015 23:25:00 0.0
2015_10_28_S23 10/28/2015 23:30:00 0.0005
2015_10_28_S23 10/28/2015 23:35:00 0.0082
2015_10_28_S23 10/28/2015 23:40:00 0.0198
2015_10_28_S23 10/28/2015 23:45:00 0.0163
2015_10_28_S23 10/28/2015 23:50:00 0.0225
2015_10_28_S23 10/28/2015 23:55:00 0.0364
2015_10_28_S23 10/29/2015 00:00:00 0.0359
2015_10_28_S23 10/29/2015 00:05:00 0.0109
2015_10_28_S23 10/29/2015 00:10:00 0.0009
2015_10_28_S23 10/29/2015 00:15:00 0.0013
2015_10_28_S23 10/29/2015 00:20:00 0.0012
2015_10_28_S23 10/29/2015 00:25:00 0.0
2015_10_28_S23 10/29/2015 00:30:00 0.0082
2015_10_28_S23 10/29/2015 00:35:00 0.0012
2015_10_28_S23 10/29/2015 00:40:00 0.0006
2015_10_28_S23 10/29/2015 00:45:00 0.0855
2015_10_28_S23 10/29/2015 00:50:00 0.1942
2015_10_28_S23 10/29/2015 00:55:00 0.0649
2015_10_28_S23 10/29/2015 01:00:00 0.0879
2015_10_28_S23 10/29/2015 01:05:00 0.1069
2015_10_28_S23 10/29/2015 01:10:00 0.1392
2015_10_28_S23 10/29/2015 01:15:00 0.1157
2015_10_28_S23 10/29/2015 01:20:00 0.2658
2015_10_28_S23 10/29/2015 01:25:00 0.1154
2015_10_28_S23 10/29/2015 01:30:00 0.1034
2015_10_28_S23 10/29/2015 01:35:00 0.1097
2015_10_28_S23 10/29/2015 01:40:00 0.1969
2015_10_28_S23 10/29/2015 01:45:00 0.2402
2015_10_28_S23 10/29/2015 01:50:00 0.1526
2015_10_28_S23 10/29/2015 01:55:00 0.0147
2015_10_28_S23 10/29/2015 02:00:00 0.0012
2015_10_28_S23 10/29/2015 02:05:00 0.0
2015_10_28_S23 10/29/2015 02:10:00 0.0
2015_10_28_S23 10/29/2015 02:15:00 0.0
2015_10_28_S23 10/29/2015 02:20:00 0.0
2015_10_28_S23 10/29/2015 02:25:00 0.0
2015_10_28_S23 10/29/2015 02:30:00 0.0
2015_10_28_S23 10/29/2015 02:35:00 0.0
2015_10_28_S23 10/29/2015 02:40:00 0.0
2015_10_28_S23 10/29/2015 02:45:00 0.0
2015_10_28_S23 10/29/2015 02:50:00 0.0
2015_10_28_S23 10/29/2015 02:55:00 0.0
2015_10_28_S23 10/29/2015 03:00:00 0.0
2015_10_28_S23 10/29/2015 03:05:00 0.0
2015_10_28_S23 10/29/2015 03:10:00 0.0
2015_10_28_S23 10/29/2015 03:15:00 0.0
2015_10_28_S23 10/29/2015 03:20:00 0.0
2015_10_28_S23 10/29/2015 03:25:00 0.0
2015_10_28_S23 10/29/2015 03:30:00 0.0
2015_10_28_S23 10/29/2015 03:35:00 0.0
2015_10_28_S23 10/29/2015 03:40:00 0.0
2015_10_28_S23 10/29/2015 03:45:00 0.0
2015_10_28_S23 10/29/2015 03:50:00 0.0
2015_10_28_S23 10/29/2015 03:55:00 0.0
2015_10_28_S23 10/29/2015 04:00:00 0.0
2015_10_28_S23 10/29/2015 04:05:00 0.0
2015_10_28_S23 10/29/2015 04:10:00 0.0
2015_10_28_S23 10/29/2015 04:15:00 0.0
2015_10_28_S23 10/29/2015 04:20:00 0.0
2015_10_28_S23 10/29/2015 04:25:00 0.0
2015_10_28_S23 10/29/2015 04:30:00 0.0
2015_10_28_S23 10/29/2015 04:35:00 0.0
2015_10_28_S23 10/29/2015 04:40:00 0.0
2015_10_28_S23 10/29/2015 04:45:00 0.0
2015_10_28_S23 10/29/2015 04:50:00 0.0
2015_10_28_S23 10/29/2015 04:55:00 0.0
2015_10_28_S23 10/29/2015 05:00:00 0.0
2015_10_28_S23 10/29/2015 05:05:00 0.0
2015_10_28_S23 10/29/2015 05:10:00 0.0
2015_10_28_S23 10/29/2015 05:15:00 0.0
2015_10_28_S23 10/29/2015 05:20:00 0.0
2015_10_28_S23 10/29/2015 05:25:00 0.0
2015_10_28_S23 10/29/2015 05:30:00 0.0
2015_10_28_S23 10/29/2015 05:35:00 0.0
2015_10_28_S23 10/29/2015 05:40:00 0.0
2015_10_28_S23 10/29/2015 05:45:00 0.0
2015_10_28_S23 10/29/2015 05:50:00 0.0
2015_10_28_S23 10/29/2015 05:55:00 0.0
2015_10_28_S23 10/29/2015 06:00:00 0.0073
2015_10_28_S23 10/29/2015 06:05:00 0.0
2015_10_28_S23 10/29/2015 06:10:00 0.009
2015_10_28_S23 10/29/2015 06:15:00 0.0
2015_10_28_S23 10/29/2015 06:20:00 0.0
2015_10_28_S23 10/29/2015 06:25:00 0.0
2015_10_28_S23 10/29/2015 06:30:00 0.0
2015_10_28_S23 10/29/2015 06:35:00 0.0
2015_10_28_S23 10/29/2015 06:40:00 0.0
2015_10_28_S23 10/29/2015 06:45:00 0.0
2015_10_28_S23 10/29/2015 06:50:00 0.0
2015_10_28_S23 10/29/2015 06:55:00 0.0
2015_10_28_S23 10/29/2015 07:00:00 0.0
2015_10_28_S23 10/29/2015 07:05:00 0.0
2015_10_28_S23 10/29/2015 07:10:00 0.0
2015_10_28_S23 10/29/2015 07:15:00 0.0
2015_10_28_S23 10/29/2015 07:20:00 0.0
2015_10_28_S23 10/29/2015 07:25:00 0.0
2015_10_28_S23 10/29/2015 07:30:00 0.0
2015_10_28_S23 10/29/2015 07:35:00 0.0
2015_10_28_S23 10/29/2015 07:40:00 0.0
2015_10_28_S23 10/29/2015 07:45:00 0.0
2015_10_28_S23 10/29/2015 07:50:00 0.0
2015_10_28_S23 10/29/2015 07:55:00 0.0
2015_10_28_S23 10/29/2015 08:00:00 0.0

2015_10_28_S24 10/28/2015 10:25:00 0.0243
2015_10_28_S24 10/28/2015 10:30:00 0.0124
2015_10_28_S24 10/28/2015 10:35:00 0.0
2015_10_28_S24 10/28/2015 10:40:00 0.0264
2015_10_28_S24 10/28/2015 10:45:00 0.0258
2015_10_28_S24 10/28/2015 10:50:00 0.1039
2015_10_28_S24 10/28/2015 10:55:00 0.0952
2015_10_28_S24 10/28/2015 11:00:00 0.2301
2015_10_28_S24 10/28/2015 11:05:00 0.8717
2015_10_28_S24 10/28/2015 11:10:00 1.118
2015_10_28_S24 10/28/2015 11:15:00 1.8548
2015_10_28_S24 10/28/2015 11:20:00 2.8078
2015_10_28_S24 10/28/2015 11:25:00 4.4636
2015_10_28_S24 10/28/2015 11:30:00 6.1193
2015_10_28_S24 10/28/2015 11:35:00 1.687
2015_10_28_S24 10/28/2015 11:40:00 0.4621
2015_10_28_S24 10/28/2015 11:45:00 3.0827
2015_10_28_S24 10/28/2015 11:50:00 3.6837
2015_10_28_S24 10/28/2015 11:55:00 2.086
2015_10_28_S24 10/28/2015 12:00:00 6.9723
2015_10_28_S24 10/28/2015 12:05:00 6.9356
2015_10_28_S24 10/28/2015 12:10:00 6.8481
2015_10_28_S24 10/28/2015 12:15:00 3.7372
2015_10_28_S24 10/28/2015 12:20:00 2.0922
2015_10_28_S24 10/28/2015 12:25:00 0.3867
2015_10_28_S24 10/28/2015 12:30:00 0.0126
2015_10_28_S24 10/28/2015 12:35:00 0.0065
2015_10_28_S24 10/28/2015 12:40:00 0.0787
2015_10_28_S24 10/28/2015 12:45:00 0.6723
2015_10_28_S24 10/28/2015 12:50:00 0.0728
2015_10_28_S24 10/28/2015 12:55:00 0.028
2015_10_28_S24 10/28/2015 13:00:00 0.0318
2015_10_28_S24 10/28/2015 13:05:00 0.0
2015_10_28_S24 10/28/2015 13:10:00 0.0134
2015_10_28_S24 10/28/2015 13:15:00 0.0
2015_10_28_S24 10/28/2015 13:20:00 0.0
2015_10_28_S24 10/28/2015 13:25:00 0.0
2015_10_28_S24 10/28/2015 13:30:00 0.0
2015_10_28_S24 10/28/2015 13:35:00 0.0
2015_10_28_S24 10/28/2015 13:40:00 0.0
2015_10_28_S24 10/28/2015 13:45:00 0.0
2015_10_28_S24 10/28/2015 13:50:00 0.0
2015_10_28_S24 10/28/2015 13:55:00 0.0047
2015_10_28_S24 10/28/2015 14:00:00 0.0
2015_10_28_S24 10/28/2015 14:05:00 0.0
2015_10_28_S24 10/28/2015 14:10:00 0.0
2015_10_28_S24 10/28/2015 14:15:00 0.0
2015_10_28_S24 10/28/2015 14:20:00 0.0
2015_10_28_S24 10/28/2015 14:25:00 0.0482
2015_10_28_S24 10/28/2015 14:30:00 0.0986
2015_10_28_S24 10/28/2015 14:35:00 0.0047
2015_10_28_S24 10/28/2015 14:40:00 0.0013
2015_10_28_S24 10/28/2015 14:45:00 0.0142
2015_10_28_S24 10/28/2015 14:50:00 0.0
2015_10_28_S24 10/28/2015 14:55:00 0.0
2015_10_28_S24 10/28/2015 15:00:00 0.0
2015_10_28_S24 10/28/2015 15:05:00 0.0
2015_10_28_S24 10/28/2015 15:10:00 0.0
2015_10_28_S24 10/28/2015 15:15:00 0.0
2015_10_28_S24 10/28/2015 15:20:00 0.0
2015_10_28_S24 10/28/2015 15:25:00 0.0
2015_10_28_S24 10/28/2015 15:30:00 0.0
2015_10_28_S24 10/28/2015 15:35:00 0.0
2015_10_28_S24 10/28/2015 15:40:00 0.0
2015_10_28_S24 10/28/2015 15:45:00 0.0
2015_10_28_S24 10/28/2015 15:50:00 0.0
2015_10_28_S24 10/28/2015 15:55:00 0.0
2015_10_28_S24 10/28/2015 16:00:00 0.0
2015_10_28_S24 10/28/2015 16:05:00 0.0
2015_10_28_S24 10/28/2015 16:10:00 0.0
2015_10_28_S24 10/28/2015 16:15:00 0.0084
2015_10_28_S24 10/28/2015 16:20:00 0.0299
2015_10_28_S24 10/28/2015 16:25:00 0.0
2015_10_28_S24 10/28/2015 16:30:00 0.0
2015_10_28_S24 10/28/2015 16:35:00 0.0
2015_10_28_S24 10/28/2015 16:40:00 0.0
2015_10_28_S24 10/28/2015 16:45:00 0.0
2015_10_28_S24 10/28/2015 16:50:00 0.0
2015_10_28_S24 10/28/2015 16:55:00 0.0
2015_10_28_S24 10/28/2015 17:00:00 0.0232
2015_10_28_S24 10/28/2015 17:05:00 0.0
2015_10_28_S24 10/28/2015 17:10:00 0.0
2015_10_28_S24 10/28/2015 17:15:00 0.0
2015_10_28_S24 10/28/2015 17:20:00 0.0
2015_10_28_S24 10/28/2015 17:25:00 0.0
2015_10_28_S24 10/28/2015 17:30:00 0.0
2015_10_28_S24 10/28/2015 17:35:00 0.0
2015_10_28_S24 10/28/2015 17:40:00 0.0
2015_10_28_S24 10/28/2015 17:45:00 0.0
2015_10_28_S24 10/28/2015 17:50:00 0.0
2015_10_28_S24 10/28/2015 17:55:00 0.0
2015_10_28_S24 10/28/2015 18:00:00 0.0
2015_10_28_S24 10/28/2015 18:05:00 0.0
2015_10_28_S24 10/28/2015 18:10:00 0.0
2015_10_28_S24 10/28/2015 18:15:00 0.0
2015_10_28_S24 10/28/2015 18:20:00 0.0
2015_10_28_S24 10/28/2015 18:25:00 0.0
2015_10_28_S24 10/28/2015 18:30:00 0.0
2015_10_28_S24 10/28/2015 18:35:00 0.0
2015_10_28_S24 10/28/2015 18:40:00 0.0
2015_10_28_S24 10/28/2015 18:45:00 0.0
2015_10_28_S24 10/28/2015 18:50:00 0.0
2015_10_28_S24 10/28/2015 18:55:00 0.0
2015_10_28_S24 10/28/2015 19:00:00 0.0
2015_10_28_S24 10/28/2015 19:05:00 0.0
2015_10_28_S24 10/28/2015 19:10:00 0.0
2015_10_28_S24 10/28/2015 19:15:00 0.0
2015_10_28_S24 10/28/2015 19:20:00 0.0
2015_10_28_S24 10/28/2015 19:25:00 0.0
2015_10_28_S24 10/28/2015 19:30:00 0.0
2015_10_28_S24 10/28/2015 19:35:00 0.0
2015_10_28_S24 10/28/2015 19:40:00 0.0
2015_10_28_S24 10/28/2015 19:45:00 0.0
2015_10_28_S24 10/28/2015 19:50:00 0.0
2015_10_28_S24 10/28/2015 19:55:00 0.0
2015_10_28_S24 10/28/2015 20:00:00 0.0
2015_10_28_S24 10/28/2015 20:05:00 0.0
2015_10_28_S24 10/28/2015 20:10:00 0.0
2015_10_28_S24 10/28/2015 20:15:00 0.0
2015_10_28_S24 10/28/2015 20:20:00 0.0
2015_10_28_S24 10/28/2015 20:25:00 0.0
2015_10_28_S24 10/28/2015 20:30:00 0.0
2015_10_28_S24 10/28/2015 20:35:00 0.0
2015_10_28_S24 10/28/2015 20:40:00 0.0
2015_10_28_S24 10/28/2015 20:45:00 0.0
2015_10_28_S24 10/28/2015 20:50:00 0.0
2015_10_28_S24 10/28/2015 20:55:00 0.0
2015_10_28_S24 10/28/2015 21:00:00 0.0
2015_10_28_S24 10/28/2015 21:05:00 0.0
2015_10_28_S24 10/28/2015 21:10:00 0.0
2015_10_28_S24 10/28/2015 21:15:00 0.0
2015_10_28_S24 10/28/2015 21:20:00 0.0
2015_10_28_S24 10/28/2015 21:25:00 0.0
2015_10_28_S24 10/28/2015 21:30:00 0.0
2015_10_28_S24 10/28/2015 21:35:00 0.0
2015_10_28_S24 10/28/2015 21:40:00 0.0
2015_10_28_S24 10/28/2015 21:45:00 0.0
2015_10_28_S24 10/28/2015 21:50:00 0.0
2015_10_28_S24 10/28/2015 21:55:00 0.0
2015_10_28_S24 10/28/2015 22:00:00 0.0
2015_10_28_S24 10/28/2015 22:05:00 0.0
2015_10_28_S24 10/28/2015 22:10:00 0.0
2015_10_28_S24 10/28/2015 22:15:00 0.0
2015_10_28_S24 10/28/2015 22:20:00 0.0
2015_10_28_S24 10/28/2015 22:25:00 0.0
2015_10_28_S24 10/28/2015 22:30:00 0.0
2015_10_28_S24 10/28/2015 22:35:00 0.0
2015_10_28_S24 10/28/2015 22:40:00 0.0
2015_10_28_S24 10/28/2015 22:45:00 0.0
2015_10_28_S24 10/28/2015 22:50:00 0.0856
2015_10_28_S24 10/28/2015 22:55:00 2.388
2015_10_28_S24 10/28/2015 23:00:00 5.0391
2015_10_28_S24 10/28/2015 23:05:00 1.0174
2015_10_28_S24 10/28/2015 23:10:00 0.0075
2015_10_28_S24 10/28/2015 23:15:00 0.0
2015_10_28_S24 10/28/2015 23:20:00 0.0
2015_10_28_S24 10/28/2015 23:25:00 0.0
2015_10_28_S24 10/28/2015 23:30:00 0.0049
2015_10_28_S24 10/28/2015 23:35:00 0.0214
2015_10_28_S24 10/28/2015 23:40:00 0.0333
2015_10_28_S24 10/28/2015 23:45:00 0.0136
2015_10_28_S24 10/28/2015 23:50:00 0.0306
2015_10_28_S24 10/28/2015 23:55:00 0.052
2015_10_28_S24 10/29/2015 00:00:00 0.0709
2015_10_28_S24 10/29/2015 00:05:00 0.0163
2015_10_28_S24 10/29/2015 00:10:00 0.0065
2015_10_28_S24 10/29/2015 00:15:00 0.0093
2015_10_28_S24 10/29/2015 00:20:00 0.0089
2015_10_28_S24 10/29/2015 00:25:00 0.0
2015_10_28_S24 10/29/2015 00:30:00 0.0194
2015_10_28_S24 10/29/2015 00:35:00 0.0084
2015_10_28_S24 10/29/2015 00:40:00 0.0044
2015_10_28_S24 10/29/2015 00:45:00 0.1213
2015_10_28_S24 10/29/2015 00:50:00 0.2497
2015_10_28_S24 10/29/2015 00:55:00 0.1037
2015_10_28_S24 10/29/2015 01:00:00 0.1043
2015_10_28_S24 10/29/2015 01:05:00 0.1524
2015_10_28_S24 10/29/2015 01:10:00 0.2095
2015_10_28_S24 10/29/2015 01:15:00 0.1108
2015_10_28_S24 10/29/2015 01:20:00 0.1994
2015_10_28_S24 10/29/2015 01:25:00 0.0891
2015_10_28_S24 10/29/2015 01:30:00 0.1242
2015_10_28_S24 10/29/2015 01:35:00 0.166
2015_10_28_S24 10/29/2015 01:40:00 0.2195
2015_10_28_S24 10/29/2015 01:45:00 0.1867
2015_10_28_S24 10/29/2015 01:50:00 0.1152
2015_10_28_S24 10/29/2015 01:55:00 0.0187
2015_10_28_S24 10/29/2015 02:00:00 0.0087
2015_10_28_S24 10/29/2015 02:05:00 0.0
2015_10_28_S24 10/29/2015 02:10:00 0.0
2015_10_28_S24 10/29/2015 02:15:00 0.0
2015_10_28_S24 10/29/2015 02:20:00 0.0
2015_10_28_S24 10/29/2015 02:25:00 0.0
2015_10_28_S24 10/29/2015 02:30:00 0.0
2015_10_28_S24 10/29/2015 02:35:00 0.0
2015_10_28_S24 10/29/2015 02:40:00 0.0
2015_10_28_S24 10/29/2015 02:45:00 0.0
2015_10_28_S24 10/29/2015 02:50:00 0.0
2015_10_28_S24 10/29/2015 02:55:00 0.0
2015_10_28_S24 10/29/2015 03:00:00 0.0
2015_10_28_S24 10/29/2015 03:05:00 0.0
2015_10_28_S24 10/29/2015 03:10:00 0.0
2015_10_28_S24 10/29/2015 03:15:00 0.0
2015_10_28_S24 10/29/2015 03:20:00 0.0
2015_10_28_S24 10/29/2015 03:25:00 0.0
2015_10_28_S24 10/29/2015 03:30:00 0.0
2015_10_28_S24 10/29/2015 03:35:00 0.0
2015_10_28_S24 10/29/2015 03:40:00 0.0
2015_10_28_S24 10/29/2015 03:45:00 0.0
2015_10_28_S24 10/29/2015 03:50:00 0.0
2015_10_28_S24 10/29/2015 03:55:00 0.0
2015_10_28_S24 10/29/2015 04:00:00 0.0
2015_10_28_S24 10/29/2015 04:05:00 0.0
2015_10_28_S24 10/29/2015 04:10:00 0.0
2015_10_28_S24 10/29/2015 04:15:00 0.0
2015_10_28_S24 10/29/2015 04:20:00 0.0
2015_10_28_S24 10/29/2015 04:25:00 0.0
2015_10_28_S24 10/29/2015 04:30:00 0.0
2015_10_28_S24 10/29/2015 04:35:00 0.0
2015_10_28_S24 10/29/2015 04:40:00 0.0
2015_10_28_S24 10/29/2015 04:45:00 0.0
2015_10_28_S24 10/29/2015 04:50:00 0.0
2015_10_28_S24 10/29/2015 04:55:00 0.0
2015_10_28_S24 10/29/2015 05:00:00 0.0
2015_10_28_S24 10/29/2015 05:05:00 0.0
2015_10_28_S24 10/29/2015 05:10:00 0.0
2015_10_28_S24 10/29/2015 05:15:00 0.0
2015_10_28_S24 10/29/2015 05:20:00 0.0
2015_10_28_S24 10/29/2015 05:25:00 0.0
2015_10_28_S24 10/29/2015 05:30:00 0.0
2015_10_28_S24 10/29/2015 05:35:00 0.0
2015_10_28_S24 10/29/2015 05:40:00 0.0
2015_10_28_S24 10/29/2015 05:45:00 0.0
2015_10_28_S24 10/29/2015 05:50:00 0.0
2015_10_28_S24 10/29/2015 05:55:00 0.0
2015_10_28_S24 10/29/2015 06:00:00 0.0557
2015_10_28_S24 10/29/2015 06:05:00 0.0
2015_10_28_S24 10/29/2015 06:10:00 0.0174
2015_10_28_S24 10/29/2015 06:15:00 0.0
2015_10_28_S24 10/29/2015 06:20:00 0.0
2015_10_28_S24 10/29/2015 06:25:00 0.0
2015_10_28_S24 10/29/2015 06:30:00 0.0
2015_10_28_S24 10/29/2015 06:35:00 0.0
2015_10_28_S24 10/29/2015 06:40:00 0.0
2015_10_28_S24 10/29/2015 06:45:00 0.0
2015_10_28_S24 10/29/2015 06:50:00 0.0
2015_10_28_S24 10/29/2015 06:55:00 0.0
2015_10_28_S24 10/29/2015 07:00:00 0.0
2015_10_28_S24 10/29/2015 07:05:00 0.0
2015_10_28_S24 10/29/2015 07:10:00 0.0
2015_10_28_S24 10/29/2015 07:15:00 0.0
2015_10_28_S24 10/29/2015 07:20:00 0.0
2015_10_28_S24 10/29/2015 07:25:00 0.0
2015_10_28_S24 10/29/2015 07:30:00 0.0
2015_10_28_S24 10/29/2015 07:35:00 0.0
2015_10_28_S24 10/29/2015 07:40:00 0.0
2015_10_28_S24 10/29/2015 07:45:00 0.0
2015_10_28_S24 10/29/2015 07:50:00 0.0
2015_10_28_S24 10/29/2015 07:55:00 0.0
2015_10_28_S24 10/29/2015 08:00:00 0.0

2015_10_28_S25 10/28/2015 10:25:00 0.0285
2015_10_28_S25 10/28/2015 10:30:00 0.007
2015_10_28_S25 10/28/2015 10:35:00 0.0
2015_10_28_S25 10/28/2015 10:40:00 0.0343
2015_10_28_S25 10/28/2015 10:45:00 0.0345
2015_10_28_S25 10/28/2015 10:50:00 0.0959
2015_10_28_S25 10/28/2015 10:55:00 0.1053
2015_10_28_S25 10/28/2015 11:00:00 0.3268
2015_10_28_S25 10/28/2015 11:05:00 1.1393
2015_10_28_S25 10/28/2015 11:10:00 1.7337
2015_10_28_S25 10/28/2015 11:15:00 1.6682
2015_10_28_S25 10/28/2015 11:20:00 3.6253
2015_10_28_S25 10/28/2015 11:25:00 5.2053
2015_10_28_S25 10/28/2015 11:30:00 6.7853
2015_10_28_S25 10/28/2015 11:35:00 1.6728
2015_10_28_S25 10/28/2015 11:40:00 0.6334
2015_10_28_S25 10/28/2015 11:45:00 2.9152
2015_10_28_S25 10/28/2015 11:50:00 3.019
2015_10_28_S25 10/28/2015 11:55:00 3.3651
2015_10_28_S25 10/28/2015 12:00:00 8.0721
2015_10_28_S25 10/28/2015 12:05:00 6.2959
2015_10_28_S25 10/28/2015 12:10:00 9.7012
2015_10_28_S25 10/28/2015 12:15:00 3.6639
2015_10_28_S25 10/28/2015 12:20:00 0.4659
2015_10_28_S25 10/28/2015 12:25:00 0.3915
2015_10_28_S25 10/28/2015 12:30:00 0.0161
2015_10_28_S25 10/28/2015 12:35:00 0.006
2015_10_28_S25 10/28/2015 12:40:00 0.1277
2015_10_28_S25 10/28/2015 12:45:00 0.7239
2015_10_28_S25 10/28/2015 12:50:00 0.0944
2015_10_28_S25 10/28/2015 12:55:00 0.0308
2015_10_28_S25 10/28/2015 13:00:00 0.0284
2015_10_28_S25 10/28/2015 13:05:00 0.0
2015_10_28_S25 10/28/2015 13:10:00 0.0101
2015_10_28_S25 10/28/2015 13:15:00 0.0
2015_10_28_S25 10/28/2015 13:20:00 0.0
2015_10_28_S25 10/28/2015 13:25:00 0.0
2015_10_28_S25 10/28/2015 13:30:00 0.0
2015_10_28_S25 10/28/2015 13:35:00 0.0
2015_10_28_S25 10/28/2015 13:40:00 0.0
2015_10_28_S25 10/28/2015 13:45:00 0.0
2015_10_28_S25 10/28/2015 13:50:00 0.0
2015_10_28_S25 10/28/2015 13:55:00 0.0044
2015_10_28_S25 10/28/2015 14:00:00 0.0
2015_10_28_S25 10/28/2015 14:05:00 0.0
2015_10_28_S25 10/28/2015 14:10:00 0.0
2015_10_28_S25 10/28/2015 14:15:00 0.0
2015_10_28_S25 10/28/2015 14:20:00 0.0
2015_10_28_S25 10/28/2015 14:25:00 0.0746
2015_10_28_S25 10/28/2015 14:30:00 0.0702
2015_10_28_S25 10/28/2015 14:35:00 0.0009
2015_10_28_S25 10/28/2015 14:40:00 0.0003
2015_10_28_S25 10/28/2015 14:45:00 0.0037
2015_10_28_S25 10/28/2015 14:50:00 0.0
2015_10_28_S25 10/28/2015 14:55:00 0.0
2015_10_28_S25 10/28/2015 15:00:00 0.0
2015_10_28_S25 10/28/2015 15:05:00 0.0
2015_10_28_S25 10/28/2015 15:10:00 0.0
2015_10_28_S25 10/28/2015 15:15:00 0.0
2015_10_28_S25 10/28/2015 15:20:00 0.0
2015_10_28_S25 10/28/2015 15:25:00 0.0
2015_10_28_S25 10/28/2015 15:30:00 0.0
2015_10_28_S25 10/28/2015 15:35:00 0.0
2015_10_28_S25 10/28/2015 15:40:00 0.0
2015_10_28_S25 10/28/2015 15:45:00 0.0
2015_10_28_S25 10/28/2015 15:50:00 0.0
2015_10_28_S25 10/28/2015 15:55:00 0.0
2015_10_28_S25 10/28/2015 16:00:00 0.0
2015_10_28_S25 10/28/2015 16:05:00 0.0
2015_10_28_S25 10/28/2015 16:10:00 0.0
2015_10_28_S25 10/28/2015 16:15:00 0.0119
2015_10_28_S25 10/28/2015 16:20:00 0.0321
2015_10_28_S25 10/28/2015 16:25:00 0.0
2015_10_28_S25 10/28/2015 16:30:00 0.0
2015_10_28_S25 10/28/2015 16:35:00 0.0
2015_10_28_S25 10/28/2015 16:40:00 0.0
2015_10_28_S25 10/28/2015 16:45:00 0.0
2015_10_28_S25 10/28/2015 16:50:00 0.0
2015_10_28_S25 10/28/2015 16:55:00 0.0
2015_10_28_S25 10/28/2015 17:00:00 0.0252
2015_10_28_S25 10/28/2015 17:05:00 0.0
2015_10_28_S25 10/28/2015 17:10:00 0.0
2015_10_28_S25 10/28/2015 17:15:00 0.0
2015_10_28_S25 10/28/2015 17:20:00 0.0
2015_10_28_S25 10/28/2015 17:25:00 0.0
2015_10_28_S25 10/28/2015 17:30:00 0.0
2015_10_28_S25 10/28/2015 17:35:00 0.0
2015_10_28_S25 10/28/2015 17:40:00 0.0
2015_10_28_S25 10/28/2015 17:45:00 0.0
2015_10_28_S25 10/28/2015 17:50:00 0.0
2015_10_28_S25 10/28/2015 17:55:00 0.0
2015_10_28_S25 10/28/2015 18:00:00 0.0
2015_10_28_S25 10/28/2015 18:05:00 0.0
2015_10_28_S25 10/28/2015 18:10:00 0.0
2015_10_28_S25 10/28/2015 18:15:00 0.0
2015_10_28_S25 10/28/2015 18:20:00 0.0
2015_10_28_S25 10/28/2015 18:25:00 0.0
2015_10_28_S25 10/28/2015 18:30:00 0.0
2015_10_28_S25 10/28/2015 18:35:00 0.0
2015_10_28_S25 10/28/2015 18:40:00 0.0
2015_10_28_S25 10/28/2015 18:45:00 0.0
2015_10_28_S25 10/28/2015 18:50:00 0.0
2015_10_28_S25 10/28/2015 18:55:00 0.0
2015_10_28_S25 10/28/2015 19:00:00 0.0
2015_10_28_S25 10/28/2015 19:05:00 0.0
2015_10_28_S25 10/28/2015 19:10:00 0.0
2015_10_28_S25 10/28/2015 19:15:00 0.0
2015_10_28_S25 10/28/2015 19:20:00 0.0
2015_10_28_S25 10/28/2015 19:25:00 0.0
2015_10_28_S25 10/28/2015 19:30:00 0.0
2015_10_28_S25 10/28/2015 19:35:00 0.0
2015_10_28_S25 10/28/2015 19:40:00 0.0
2015_10_28_S25 10/28/2015 19:45:00 0.0
2015_10_28_S25 10/28/2015 19:50:00 0.0
2015_10_28_S25 10/28/2015 19:55:00 0.0
2015_10_28_S25 10/28/2015 20:00:00 0.0
2015_10_28_S25 10/28/2015 20:05:00 0.0
2015_10_28_S25 10/28/2015 20:10:00 0.0
2015_10_28_S25 10/28/2015 20:15:00 0.0
2015_10_28_S25 10/28/2015 20:20:00 0.0
2015_10_28_S25 10/28/2015 20:25:00 0.0
2015_10_28_S25 10/28/2015 20:30:00 0.0
2015_10_28_S25 10/28/2015 20:35:00 0.0
2015_10_28_S25 10/28/2015 20:40:00 0.0
2015_10_28_S25 10/28/2015 20:45:00 0.0
2015_10_28_S25 10/28/2015 20:50:00 0.0
2015_10_28_S25 10/28/2015 20:55:00 0.0
2015_10_28_S25 10/28/2015 21:00:00 0.0
2015_10_28_S25 10/28/2015 21:05:00 0.0
2015_10_28_S25 10/28/2015 21:10:00 0.0
2015_10_28_S25 10/28/2015 21:15:00 0.0
2015_10_28_S25 10/28/2015 21:20:00 0.0
2015_10_28_S25 10/28/2015 21:25:00 0.0
2015_10_28_S25 10/28/2015 21:30:00 0.0
2015_10_28_S25 10/28/2015 21:35:00 0.0
2015_10_28_S25 10/28/2015 21:40:00 0.0
2015_10_28_S25 10/28/2015 21:45:00 0.0
2015_10_28_S25 10/28/2015 21:50:00 0.0
2015_10_28_S25 10/28/2015 21:55:00 0.0
2015_10_28_S25 10/28/2015 22:00:00 0.0
2015_10_28_S25 10/28/2015 22:05:00 0.0
2015_10_28_S25 10/28/2015 22:10:00 0.0
2015_10_28_S25 10/28/2015 22:15:00 0.0
2015_10_28_S25 10/28/2015 22:20:00 0.0
2015_10_28_S25 10/28/2015 22:25:00 0.0
2015_10_28_S25 10/28/2015 22:30:00 0.0
2015_10_28_S25 10/28/2015 22:35:00 0.0
2015_10_28_S25 10/28/2015 22:40:00 0.0
2015_10_28_S25 10/28/2015 22:45:00 0.0
2015_10_28_S25 10/28/2015 22:50:00 0.2273
2015_10_28_S25 10/28/2015 22:55:00 3.8948
2015_10_28_S25 10/28/2015 23:00:00 4.9978
2015_10_28_S25 10/28/2015 23:05:00 0.1822
2015_10_28_S25 10/28/2015 23:10:00 0.007
2015_10_28_S25 10/28/2015 23:15:00 0.0
2015_10_28_S25 10/28/2015 23:20:00 0.0
2015_10_28_S25 10/28/2015 23:25:00 0.0
2015_10_28_S25 10/28/2015 23:30:00 0.0036
2015_10_28_S25 10/28/2015 23:35:00 0.0296
2015_10_28_S25 10/28/2015 23:40:00 0.0361
2015_10_28_S25 10/28/2015 23:45:00 0.0131
2015_10_28_S25 10/28/2015 23:50:00 0.0331
2015_10_28_S25 10/28/2015 23:55:00 0.0741
2015_10_28_S25 10/29/2015 00:00:00 0.0762
2015_10_28_S25 10/29/2015 00:05:00 0.0161
2015_10_28_S25 10/29/2015 00:10:00 0.0061
2015_10_28_S25 10/29/2015 00:15:00 0.0086
2015_10_28_S25 10/29/2015 00:20:00 0.0083
2015_10_28_S25 10/29/2015 00:25:00 0.0
2015_10_28_S25 10/29/2015 00:30:00 0.0178
2015_10_28_S25 10/29/2015 00:35:00 0.0078
2015_10_28_S25 10/29/2015 00:40:00 0.0088
2015_10_28_S25 10/29/2015 00:45:00 0.1208
2015_10_28_S25 10/29/2015 00:50:00 0.222
2015_10_28_S25 10/29/2015 00:55:00 0.0982
2015_10_28_S25 10/29/2015 01:00:00 0.1133
2015_10_28_S25 10/29/2015 01:05:00 0.155
2015_10_28_S25 10/29/2015 01:10:00 0.1664
2015_10_28_S25 10/29/2015 01:15:00 0.1227
2015_10_28_S25 10/29/2015 01:20:00 0.1839
2015_10_28_S25 10/29/2015 01:25:00 0.0769
2015_10_28_S25 10/29/2015 01:30:00 0.1294
2015_10_28_S25 10/29/2015 01:35:00 0.1803
2015_10_28_S25 10/29/2015 01:40:00 0.2064
2015_10_28_S25 10/29/2015 01:45:00 0.1881
2015_10_28_S25 10/29/2015 01:50:00 0.0962
2015_10_28_S25 10/29/2015 01:55:00 0.0146
2015_10_28_S25 10/29/2015 02:00:00 0.0081
2015_10_28_S25 10/29/2015 02:05:00 0.0
2015_10_28_S25 10/29/2015 02:10:00 0.0
2015_10_28_S25 10/29/2015 02:15:00 0.0
2015_10_28_S25 10/29/2015 02:20:00 0.0
2015_10_28_S25 10/29/2015 02:25:00 0.0
2015_10_28_S25 10/29/2015 02:30:00 0.0
2015_10_28_S25 10/29/2015 02:35:00 0.0
2015_10_28_S25 10/29/2015 02:40:00 0.0
2015_10_28_S25 10/29/2015 02:45:00 0.0
2015_10_28_S25 10/29/2015 02:50:00 0.0
2015_10_28_S25 10/29/2015 02:55:00 0.0
2015_10_28_S25 10/29/2015 03:00:00 0.0
2015_10_28_S25 10/29/2015 03:05:00 0.0
2015_10_28_S25 10/29/2015 03:10:00 0.0
2015_10_28_S25 10/29/2015 03:15:00 0.0
2015_10_28_S25 10/29/2015 03:20:00 0.0
2015_10_28_S25 10/29/2015 03:25:00 0.0
2015_10_28_S25 10/29/2015 03:30:00 0.0
2015_10_28_S25 10/29/2015 03:35:00 0.0
2015_10_28_S25 10/29/2015 03:40:00 0.0
2015_10_28_S25 10/29/2015 03:45:00 0.0
2015_10_28_S25 10/29/2015 03:50:00 0.0
2015_10_28_S25 10/29/2015 03:55:00 0.0
2015_10_28_S25 10/29/2015 04:00:00 0.0
2015_10_28_S25 10/29/2015 04:05:00 0.0
2015_10_28_S25 10/29/2015 04:10:00 0.0
2015_10_28_S25 10/29/2015 04:15:00 0.0
2015_10_28_S25 10/29/2015 04:20:00 0.0
2015_10_28_S25 10/29/2015 04:25:00 0.0
2015_10_28_S25 10/29/2015 04:30:00 0.0
2015_10_28_S25 10/29/2015 04:35:00 0.0
2015_10_28_S25 10/29/2015 04:40:00 0.0
2015_10_28_S25 10/29/2015 04:45:00 0.0
2015_10_28_S25 10/29/2015 04:50:00 0.0
2015_10_28_S25 10/29/2015 04:55:00 0.0
2015_10_28_S25 10/29/2015 05:00:00 0.0
2015_10_28_S25 10/29/2015 05:05:00 0.0
2015_10_28_S25 10/29/2015 05:10:00 0.0
2015_10_28_S25 10/29/2015 05:15:00 0.0
2015_10_28_S25 10/29/2015 05:20:00 0.0
2015_10_28_S25 10/29/2015 05:25:00 0.0
2015_10_28_S25 10/29/2015 05:30:00 0.0
2015_10_28_S25 10/29/2015 05:35:00 0.0
2015_10_28_S25 10/29/2015 05:40:00 0.0
2015_10_28_S25 10/29/2015 05:45:00 0.0
2015_10_28_S25 10/29/2015 05:50:00 0.0
2015_10_28_S25 10/29/2015 05:55:00 0.0
2015_10_28_S25 10/29/2015 06:00:00 0.0581
2015_10_28_S25 10/29/2015 06:05:00 0.0
2015_10_28_S25 10/29/2015 06:10:00 0.0128
2015_10_28_S25 10/29/2015 06:15:00 0.0
2015_10_28_S25 10/29/2015 06:20:00 0.0
2015_10_28_S25 10/29/2015 06:25:00 0.0
2015_10_28_S25 10/29/2015 06:30:00 0.0
2015_10_28_S25 10/29/2015 06:35:00 0.0
2015_10_28_S25 10/29/2015 06:40:00 0.0
2015_10_28_S25 10/29/2015 06:45:00 0.0
2015_10_28_S25 10/29/2015 06:50:00 0.0
2015_10_28_S25 10/29/2015 06:55:00 0.0
2015_10_28_S25 10/29/2015 07:00:00 0.0
2015_10_28_S25 10/29/2015 07:05:00 0.0
2015_10_28_S25 10/29/2015 07:10:00 0.0
2015_10_28_S25 10/29/2015 07:15:00 0.0
2015_10_28_S25 10/29/2015 07:20:00 0.0
2015_10_28_S25 10/29/2015 07:25:00 0.0
2015_10_28_S25 10/29/2015 07:30:00 0.0
2015_10_28_S25 10/29/2015 07:35:00 0.0
2015_10_28_S25 10/29/2015 07:40:00 0.0
2015_10_28_S25 10/29/2015 07:45:00 0.0
2015_10_28_S25 10/29/2015 07:50:00 0.0
2015_10_28_S25 10/29/2015 07:55:00 0.0
2015_10_28_S25 10/29/2015 08:00:00 0.0

2015_10_28_S26 10/28/2015 10:25:00 0.0164
2015_10_28_S26 10/28/2015 10:30:00 0.0162
2015_10_28_S26 10/28/2015 10:35:00 0.0
2015_10_28_S26 10/28/2015 10:40:00 0.0161
2015_10_28_S26 10/28/2015 10:45:00 0.0148
2015_10_28_S26 10/28/2015 10:50:00 0.0277
2015_10_28_S26 10/28/2015 10:55:00 0.0278
2015_10_28_S26 10/28/2015 11:00:00 0.1439
2015_10_28_S26 10/28/2015 11:05:00 0.4353
2015_10_28_S26 10/28/2015 11:10:00 0.3546
2015_10_28_S26 10/28/2015 11:15:00 3.291
2015_10_28_S26 10/28/2015 11:20:00 2.0627
2015_10_28_S26 10/28/2015 11:25:00 2.7406
2015_10_28_S26 10/28/2015 11:30:00 3.4185
2015_10_28_S26 10/28/2015 11:35:00 1.9689
2015_10_28_S26 10/28/2015 11:40:00 0.4078
2015_10_28_S26 10/28/2015 11:45:00 2.564
2015_10_28_S26 10/28/2015 11:50:00 4.5761
2015_10_28_S26 10/28/2015 11:55:00 1.1562
2015_10_28_S26 10/28/2015 12:00:00 4.7629
2015_10_28_S26 10/28/2015 12:05:00 7.0323
2015_10_28_S26 10/28/2015 12:10:00 2.6439
2015_10_28_S26 10/28/2015 12:15:00 5.2769
2015_10_28_S26 10/28/2015 12:20:00 2.2457
2015_10_28_S26 10/28/2015 12:25:00 0.0383
2015_10_28_S26 10/28/2015 12:30:00 0.0183
2015_10_28_S26 10/28/2015 12:35:00 0.0
2015_10_28_S26 10/28/2015 12:40:00 0.0322
2015_10_28_S26 10/28/2015 12:45:00 0.5198
2015_10_28_S26 10/28/2015 12:50:00 0.0702
2015_10_28_S26 10/28/2015 12:55:00 0.0687
2015_10_28_S26 10/28/2015 13:00:00 0.0787
2015_10_28_S26 10/28/2015 13:05:00 0.0038
2015_10_28_S26 10/28/2015 13:10:00 0.0014
2015_10_28_S26 10/28/2015 13:15:00 0.0
2015_10_28_S26 10/28/2015 13:20:00 0.0018
2015_10_28_S26 10/28/2015 13:25:00 0.0
2015_10_28_S26 10/28/2015 13:30:00 0.0
2015_10_28_S26 10/28/2015 13:35:00 0.0
2015_10_28_S26 10/28/2015 13:40:00 0.002
2015_10_28_S26 10/28/2015 13:45:00 0.0069
2015_10_28_S26 10/28/2015 13:50:00 0.0027
2015_10_28_S26 10/28/2015 13:55:00 0.0
2015_10_28_S26 10/28/2015 14:00:00 0.0
2015_10_28_S26 10/28/2015 14:05:00 0.0
2015_10_28_S26 10/28/2015 14:10:00 0.0
2015_10_28_S26 10/28/2015 14:15:00 0.0
2015_10_28_S26 10/28/2015 14:20:00 0.0
2015_10_28_S26 10/28/2015 14:25:00 0.005
2015_10_28_S26 10/28/2015 14:30:00 0.2032
2015_10_28_S26 10/28/2015 14:35:00 0.0015
2015_10_28_S26 10/28/2015 14:40:00 0.0
2015_10_28_S26 10/28/2015 14:45:00 0.0213
2015_10_28_S26 10/28/2015 14:50:00 0.0
2015_10_28_S26 10/28/2015 14:55:00 0.0
2015_10_28_S26 10/28/2015 15:00:00 0.0
2015_10_28_S26 10/28/2015 15:05:00 0.0
2015_10_28_S26 10/28/2015 15:10:00 0.0
2015_10_28_S26 10/28/2015 15:15:00 0.0
2015_10_28_S26 10/28/2015 15:20:00 0.0
2015_10_28_S26 10/28/2015 15:25:00 0.0
2015_10_28_S26 10/28/2015 15:30:00 0.0
2015_10_28_S26 10/28/2015 15:35:00 0.0
2015_10_28_S26 10/28/2015 15:40:00 0.0
2015_10_28_S26 10/28/2015 15:45:00 0.0
2015_10_28_S26 10/28/2015 15:50:00 0.0
2015_10_28_S26 10/28/2015 15:55:00 0.0
2015_10_28_S26 10/28/2015 16:00:00 0.0
2015_10_28_S26 10/28/2015 16:05:00 0.0
2015_10_28_S26 10/28/2015 16:10:00 0.0
2015_10_28_S26 10/28/2015 16:15:00 0.0091
2015_10_28_S26 10/28/2015 16:20:00 0.0184
2015_10_28_S26 10/28/2015 16:25:00 0.0013
2015_10_28_S26 10/28/2015 16:30:00 0.0
2015_10_28_S26 10/28/2015 16:35:00 0.0
2015_10_28_S26 10/28/2015 16:40:00 0.0
2015_10_28_S26 10/28/2015 16:45:00 0.0
2015_10_28_S26 10/28/2015 16:50:00 0.0
2015_10_28_S26 10/28/2015 16:55:00 0.0
2015_10_28_S26 10/28/2015 17:00:00 0.0
2015_10_28_S26 10/28/2015 17:05:00 0.0
2015_10_28_S26 10/28/2015 17:10:00 0.0
2015_10_28_S26 10/28/2015 17:15:00 0.0
2015_10_28_S26 10/28/2015 17:20:00 0.0
2015_10_28_S26 10/28/2015 17:25:00 0.0
2015_10_28_S26 10/28/2015 17:30:00 0.0
2015_10_28_S26 10/28/2015 17:35:00 0.0
2015_10_28_S26 10/28/2015 17:40:00 0.0
2015_10_28_S26 10/28/2015 17:45:00 0.0
2015_10_28_S26 10/28/2015 17:50:00 0.0
2015_10_28_S26 10/28/2015 17:55:00 0.0
2015_10_28_S26 10/28/2015 18:00:00 0.0
2015_10_28_S26 10/28/2015 18:05:00 0.0
2015_10_28_S26 10/28/2015 18:10:00 0.0
2015_10_28_S26 10/28/2015 18:15:00 0.0
2015_10_28_S26 10/28/2015 18:20:00 0.0
2015_10_28_S26 10/28/2015 18:25:00 0.0
2015_10_28_S26 10/28/2015 18:30:00 0.0
2015_10_28_S26 10/28/2015 18:35:00 0.0
2015_10_28_S26 10/28/2015 18:40:00 0.0
2015_10_28_S26 10/28/2015 18:45:00 0.0
2015_10_28_S26 10/28/2015 18:50:00 0.0
2015_10_28_S26 10/28/2015 18:55:00 0.0
2015_10_28_S26 10/28/2015 19:00:00 0.0
2015_10_28_S26 10/28/2015 19:05:00 0.0
2015_10_28_S26 10/28/2015 19:10:00 0.0
2015_10_28_S26 10/28/2015 19:15:00 0.0
2015_10_28_S26 10/28/2015 19:20:00 0.0
2015_10_28_S26 10/28/2015 19:25:00 0.0
2015_10_28_S26 10/28/2015 19:30:00 0.0
2015_10_28_S26 10/28/2015 19:35:00 0.0
2015_10_28_S26 10/28/2015 19:40:00 0.0
2015_10_28_S26 10/28/2015 19:45:00 0.0
2015_10_28_S26 10/28/2015 19:50:00 0.0
2015_10_28_S26 10/28/2015 19:55:00 0.0
2015_10_28_S26 10/28/2015 20:00:00 0.0
2015_10_28_S26 10/28/2015 20:05:00 0.0
2015_10_28_S26 10/28/2015 20:10:00 0.0
2015_10_28_S26 10/28/2015 20:15:00 0.0
2015_10_28_S26 10/28/2015 20:20:00 0.0
2015_10_28_S26 10/28/2015 20:25:00 0.0
2015_10_28_S26 10/28/2015 20:30:00 0.0
2015_10_28_S26 10/28/2015 20:35:00 0.0
2015_10_28_S26 10/28/2015 20:40:00 0.0
2015_10_28_S26 10/28/2015 20:45:00 0.0
2015_10_28_S26 10/28/2015 20:50:00 0.0
2015_10_28_S26 10/28/2015 20:55:00 0.0
2015_10_28_S26 10/28/2015 21:00:00 0.0
2015_10_28_S26 10/28/2015 21:05:00 0.0
2015_10_28_S26 10/28/2015 21:10:00 0.0
2015_10_28_S26 10/28/2015 21:15:00 0.0
2015_10_28_S26 10/28/2015 21:20:00 0.0
2015_10_28_S26 10/28/2015 21:25:00 0.0
2015_10_28_S26 10/28/2015 21:30:00 0.0
2015_10_28_S26 10/28/2015 21:35:00 0.0
2015_10_28_S26 10/28/2015 21:40:00 0.0
2015_10_28_S26 10/28/2015 21:45:00 0.0
2015_10_28_S26 10/28/2015 21:50:00 0.0
2015_10_28_S26 10/28/2015 21:55:00 0.0
2015_10_28_S26 10/28/2015 22:00:00 0.0
2015_10_28_S26 10/28/2015 22:05:00 0.0
2015_10_28_S26 10/28/2015 22:10:00 0.0
2015_10_28_S26 10/28/2015 22:15:00 0.0
2015_10_28_S26 10/28/2015 22:20:00 0.0
2015_10_28_S26 10/28/2015 22:25:00 0.0
2015_10_28_S26 10/28/2015 22:30:00 0.0
2015_10_28_S26 10/28/2015 22:35:00 0.0
2015_10_28_S26 10/28/2015 22:40:00 0.0
2015_10_28_S26 10/28/2015 22:45:00 0.0
2015_10_28_S26 10/28/2015 22:50:00 0.0064
2015_10_28_S26 10/28/2015 22:55:00 1.1122
2015_10_28_S26 10/28/2015 23:00:00 1.3528
2015_10_28_S26 10/28/2015 23:05:00 0.8105
2015_10_28_S26 10/28/2015 23:10:00 0.0
2015_10_28_S26 10/28/2015 23:15:00 0.0
2015_10_28_S26 10/28/2015 23:20:00 0.0
2015_10_28_S26 10/28/2015 23:25:00 0.0
2015_10_28_S26 10/28/2015 23:30:00 0.0
2015_10_28_S26 10/28/2015 23:35:00 0.0098
2015_10_28_S26 10/28/2015 23:40:00 0.0237
2015_10_28_S26 10/28/2015 23:45:00 0.0148
2015_10_28_S26 10/28/2015 23:50:00 0.0183
2015_10_28_S26 10/28/2015 23:55:00 0.0346
2015_10_28_S26 10/29/2015 00:00:00 0.0413
2015_10_28_S26 10/29/2015 00:05:00 0.0147
2015_10_28_S26 10/29/2015 00:10:00 0.0
2015_10_28_S26 10/29/2015 00:15:00 0.0
2015_10_28_S26 10/29/2015 00:20:00 0.0
2015_10_28_S26 10/29/2015 00:25:00 0.0
2015_10_28_S26 10/29/2015 00:30:00 0.0097
2015_10_28_S26 10/29/2015 00:35:00 0.0
2015_10_28_S26 10/29/2015 00:40:00 0.0
2015_10_28_S26 10/29/2015 00:45:00 0.0834
2015_10_28_S26 10/29/2015 00:50:00 0.2208
2015_10_28_S26 10/29/2015 00:55:00 0.0908
2015_10_28_S26 10/29/2015 01:00:00 0.0835
2015_10_28_S26 10/29/2015 01:05:00 0.1187
2015_10_28_S26 10/29/2015 01:10:00 0.1726
2015_10_28_S26 10/29/2015 01:15:00 0.1462
2015_10_28_S26 10/29/2015 01:20:00 0.1889
2015_10_28_S26 10/29/2015 01:25:00 0.129
2015_10_28_S26 10/29/2015 01:30:00 0.1173
2015_10_28_S26 10/29/2015 01:35:00 0.1386
2015_10_28_S26 10/29/2015 01:40:00 0.1975
2015_10_28_S26 10/29/2015 01:45:00 0.191
2015_10_28_S26 10/29/2015 01:50:00 0.1346
2015_10_28_S26 10/29/2015 01:55:00 0.016
2015_10_28_S26 10/29/2015 02:00:00 0.0
2015_10_28_S26 10/29/2015 02:05:00 0.0
2015_10_28_S26 10/29/2015 02:10:00 0.0
2015_10_28_S26 10/29/2015 02:15:00 0.0
2015_10_28_S26 10/29/2015 02:20:00 0.0
2015_10_28_S26 10/29/2015 02:25:00 0.0
2015_10_28_S26 10/29/2015 02:30:00 0.0
2015_10_28_S26 10/29/2015 02:35:00 0.0
2015_10_28_S26 10/29/2015 02:40:00 0.0
2015_10_28_S26 10/29/2015 02:45:00 0.0
2015_10_28_S26 10/29/2015 02:50:00 0.0
2015_10_28_S26 10/29/2015 02:55:00 0.0
2015_10_28_S26 10/29/2015 03:00:00 0.0
2015_10_28_S26 10/29/2015 03:05:00 0.0
2015_10_28_S26 10/29/2015 03:10:00 0.0
2015_10_28_S26 10/29/2015 03:15:00 0.0
2015_10_28_S26 10/29/2015 03:20:00 0.0
2015_10_28_S26 10/29/2015 03:25:00 0.0
2015_10_28_S26 10/29/2015 03:30:00 0.0
2015_10_28_S26 10/29/2015 03:35:00 0.0
2015_10_28_S26 10/29/2015 03:40:00 0.0
2015_10_28_S26 10/29/2015 03:45:00 0.0
2015_10_28_S26 10/29/2015 03:50:00 0.0
2015_10_28_S26 10/29/2015 03:55:00 0.0
2015_10_28_S26 10/29/2015 04:00:00 0.0
2015_10_28_S26 10/29/2015 04:05:00 0.0
2015_10_28_S26 10/29/2015 04:10:00 0.0
2015_10_28_S26 10/29/2015 04:15:00 0.0
2015_10_28_S26 10/29/2015 04:20:00 0.0
2015_10_28_S26 10/29/2015 04:25:00 0.0
2015_10_28_S26 10/29/2015 04:30:00 0.0
2015_10_28_S26 10/29/2015 04:35:00 0.0
2015_10_28_S26 10/29/2015 04:40:00 0.0
2015_10_28_S26 10/29/2015 04:45:00 0.0
2015_10_28_S26 10/29/2015 04:50:00 0.0
2015_10_28_S26 10/29/2015 04:55:00 0.0
2015_10_28_S26 10/29/2015 05:00:00 0.0
2015_10_28_S26 10/29/2015 05:05:00 0.0
2015_10_28_S26 10/29/2015 05:10:00 0.0
2015_10_28_S26 10/29/2015 05:15:00 0.0
2015_10_28_S26 10/29/2015 05:20:00 0.0
2015_10_28_S26 10/29/2015 05:25:00 0.0
2015_10_28_S26 10/29/2015 05:30:00 0.0
2015_10_28_S26 10/29/2015 05:35:00 0.0
2015_10_28_S26 10/29/2015 05:40:00 0.0
2015_10_28_S26 10/29/2015 05:45:00 0.0
2015_10_28_S26 10/29/2015 05:50:00 0.0
2015_10_28_S26 10/29/2015 05:55:00 0.0
2015_10_28_S26 10/29/2015 06:00:00 0.0
2015_10_28_S26 10/29/2015 06:05:00 0.0
2015_10_28_S26 10/29/2015 06:10:00 0.0109
2015_10_28_S26 10/29/2015 06:15:00 0.0
2015_10_28_S26 10/29/2015 06:20:00 0.0
2015_10_28_S26 10/29/2015 06:25:00 0.0
2015_10_28_S26 10/29/2015 06:30:00 0.0
2015_10_28_S26 10/29/2015 06:35:00 0.0
2015_10_28_S26 10/29/2015 06:40:00 0.0
2015_10_28_S26 10/29/2015 06:45:00 0.0
2015_10_28_S26 10/29/2015 06:50:00 0.0
2015_10_28_S26 10/29/2015 06:55:00 0.0
2015_10_28_S26 10/29/2015 07:00:00 0.0
2015_10_28_S26 10/29/2015 07:05:00 0.0
2015_10_28_S26 10/29/2015 07:10:00 0.0
2015_10_28_S26 10/29/2015 07:15:00 0.0
2015_10_28_S26 10/29/2015 07:20:00 0.0
2015_10_28_S26 10/29/2015 07:25:00 0.0
2015_10_28_S26 10/29/2015 07:30:00 0.0
2015_10_28_S26 10/29/2015 07:35:00 0.0
2015_10_28_S26 10/29/2015 07:40:00 0.0
2015_10_28_S26 10/29/2015 07:45:00 0.0
2015_10_28_S26 10/29/2015 07:50:00 0.0
2015_10_28_S26 10/29/2015 07:55:00 0.0
2015_10_28_S26 10/29/2015 08:00:00 0.0

2015_10_28_S27 10/28/2015 10:25:00 0.015
2015_10_28_S27 10/28/2015 10:30:00 0.013
2015_10_28_S27 10/28/2015 10:35:00 0.0
2015_10_28_S27 10/28/2015 10:40:00 0.0003
2015_10_28_S27 10/28/2015 10:45:00 0.0022
2015_10_28_S27 10/28/2015 10:50:00 0.1007
2015_10_28_S27 10/28/2015 10:55:00 0.0878
2015_10_28_S27 10/28/2015 11:00:00 0.1034
2015_10_28_S27 10/28/2015 11:05:00 0.6448
2015_10_28_S27 10/28/2015 11:10:00 0.4641
2015_10_28_S27 10/28/2015 11:15:00 2.1608
2015_10_28_S27 10/28/2015 11:20:00 1.7892
2015_10_28_S27 10/28/2015 11:25:00 2.6206
2015_10_28_S27 10/28/2015 11:30:00 3.452
2015_10_28_S27 10/28/2015 11:35:00 2.0777
2015_10_28_S27 10/28/2015 11:40:00 0.5377
2015_10_28_S27 10/28/2015 11:45:00 3.6847
2015_10_28_S27 10/28/2015 11:50:00 4.9971
2015_10_28_S27 10/28/2015 11:55:00 1.704
2015_10_28_S27 10/28/2015 12:00:00 4.0435
2015_10_28_S27 10/28/2015 12:05:00 5.1811
2015_10_28_S27 10/28/2015 12:10:00 4.4105
2015_10_28_S27 10/28/2015 12:15:00 6.6009
2015_10_28_S27 10/28/2015 12:20:00 5.635
2015_10_28_S27 10/28/2015 12:25:00 0.121
2015_10_28_S27 10/28/2015 12:30:00 0.0059
2015_10_28_S27 10/28/2015 12:35:00 0.0
2015_10_28_S27 10/28/2015 12:40:00 0.0232
2015_10_28_S27 10/28/2015 12:45:00 0.5441
2015_10_28_S27 10/28/2015 12:50:00 0.0633
2015_10_28_S27 10/28/2015 12:55:00 0.0102
2015_10_28_S27 10/28/2015 13:00:00 0.024
2015_10_28_S27 10/28/2015 13:05:00 0.0003
2015_10_28_S27 10/28/2015 13:10:00 0.0008
2015_10_28_S27 10/28/2015 13:15:00 0.0001
2015_10_28_S27 10/28/2015 13:20:00 0.0
2015_10_28_S27 10/28/2015 13:25:00 0.0
2015_10_28_S27 10/28/2015 13:30:00 0.0
2015_10_28_S27 10/28/2015 13:35:00 0.0
2015_10_28_S27 10/28/2015 13:40:00 0.0
2015_10_28_S27 10/28/2015 13:45:00 0.0001
2015_10_28_S27 10/28/2015 13:50:00 0.0001
2015_10_28_S27 10/28/2015 13:55:00 0.0
2015_10_28_S27 10/28/2015 14:00:00 0.0
2015_10_28_S27 10/28/2015 14:05:00 0.0
2015_10_28_S27 10/28/2015 14:10:00 0.0045
2015_10_28_S27 10/28/2015 14:15:00 0.0
2015_10_28_S27 10/28/2015 14:20:00 0.0
2015_10_28_S27 10/28/2015 14:25:00 0.0109
2015_10_28_S27 10/28/2015 14:30:00 0.101
2015_10_28_S27 10/28/2015 14:35:00 0.0125
2015_10_28_S27 10/28/2015 14:40:00 0.0008
2015_10_28_S27 10/28/2015 14:45:00 0.0255
2015_10_28_S27 10/28/2015 14:50:00 0.0077
2015_10_28_S27 10/28/2015 14:55:00 0.0068
2015_10_28_S27 10/28/2015 15:00:00 0.0
2015_10_28_S27 10/28/2015 15:05:00 0.0
2015_10_28_S27 10/28/2015 15:10:00 0.0
2015_10_28_S27 10/28/2015 15:15:00 0.0
2015_10_28_S27 10/28/2015 15:20:00 0.0
2015_10_28_S27 10/28/2015 15:25:00 0.0
2015_10_28_S27 10/28/2015 15:30:00 0.0
2015_10_28_S27 10/28/2015 15:35:00 0.0
2015_10_28_S27 10/28/2015 15:40:00 0.0
2015_10_28_S27 10/28/2015 15:45:00 0.0
2015_10_28_S27 10/28/2015 15:50:00 0.0
2015_10_28_S27 10/28/2015 15:55:00 0.0
2015_10_28_S27 10/28/2015 16:00:00 0.0
2015_10_28_S27 10/28/2015 16:05:00 0.0
2015_10_28_S27 10/28/2015 16:10:00 0.0
2015_10_28_S27 10/28/2015 16:15:00 0.0009
2015_10_28_S27 10/28/2015 16:20:00 0.002
2015_10_28_S27 10/28/2015 16:25:00 0.0
2015_10_28_S27 10/28/2015 16:30:00 0.0
2015_10_28_S27 10/28/2015 16:35:00 0.0
2015_10_28_S27 10/28/2015 16:40:00 0.0
2015_10_28_S27 10/28/2015 16:45:00 0.0
2015_10_28_S27 10/28/2015 16:50:00 0.0
2015_10_28_S27 10/28/2015 16:55:00 0.0
2015_10_28_S27 10/28/2015 17:00:00 0.0008
2015_10_28_S27 10/28/2015 17:05:00 0.0
2015_10_28_S27 10/28/2015 17:10:00 0.0
2015_10_28_S27 10/28/2015 17:15:00 0.0
2015_10_28_S27 10/28/2015 17:20:00 0.0
2015_10_28_S27 10/28/2015 17:25:00 0.0
2015_10_28_S27 10/28/2015 17:30:00 0.0
2015_10_28_S27 10/28/2015 17:35:00 0.0
2015_10_28_S27 10/28/2015 17:40:00 0.0
2015_10_28_S27 10/28/2015 17:45:00 0.0
2015_10_28_S27 10/28/2015 17:50:00 0.0
2015_10_28_S27 10/28/2015 17:55:00 0.0
2015_10_28_S27 10/28/2015 18:00:00 0.0
2015_10_28_S27 10/28/2015 18:05:00 0.0
2015_10_28_S27 10/28/2015 18:10:00 0.0
2015_10_28_S27 10/28/2015 18:15:00 0.0
2015_10_28_S27 10/28/2015 18:20:00 0.0
2015_10_28_S27 10/28/2015 18:25:00 0.0
2015_10_28_S27 10/28/2015 18:30:00 0.0
2015_10_28_S27 10/28/2015 18:35:00 0.0
2015_10_28_S27 10/28/2015 18:40:00 0.0
2015_10_28_S27 10/28/2015 18:45:00 0.0
2015_10_28_S27 10/28/2015 18:50:00 0.0
2015_10_28_S27 10/28/2015 18:55:00 0.0
2015_10_28_S27 10/28/2015 19:00:00 0.0
2015_10_28_S27 10/28/2015 19:05:00 0.0
2015_10_28_S27 10/28/2015 19:10:00 0.0
2015_10_28_S27 10/28/2015 19:15:00 0.0
2015_10_28_S27 10/28/2015 19:20:00 0.0
2015_10_28_S27 10/28/2015 19:25:00 0.0
2015_10_28_S27 10/28/2015 19:30:00 0.0
2015_10_28_S27 10/28/2015 19:35:00 0.0
2015_10_28_S27 10/28/2015 19:40:00 0.0
2015_10_28_S27 10/28/2015 19:45:00 0.0
2015_10_28_S27 10/28/2015 19:50:00 0.0
2015_10_28_S27 10/28/2015 19:55:00 0.0
2015_10_28_S27 10/28/2015 20:00:00 0.0
2015_10_28_S27 10/28/2015 20:05:00 0.0
2015_10_28_S27 10/28/2015 20:10:00 0.0
2015_10_28_S27 10/28/2015 20:15:00 0.0
2015_10_28_S27 10/28/2015 20:20:00 0.0
2015_10_28_S27 10/28/2015 20:25:00 0.0
2015_10_28_S27 10/28/2015 20:30:00 0.0
2015_10_28_S27 10/28/2015 20:35:00 0.0
2015_10_28_S27 10/28/2015 20:40:00 0.0
2015_10_28_S27 10/28/2015 20:45:00 0.0
2015_10_28_S27 10/28/2015 20:50:00 0.0
2015_10_28_S27 10/28/2015 20:55:00 0.0
2015_10_28_S27 10/28/2015 21:00:00 0.0
2015_10_28_S27 10/28/2015 21:05:00 0.0
2015_10_28_S27 10/28/2015 21:10:00 0.0
2015_10_28_S27 10/28/2015 21:15:00 0.0
2015_10_28_S27 10/28/2015 21:20:00 0.0
2015_10_28_S27 10/28/2015 21:25:00 0.0
2015_10_28_S27 10/28/2015 21:30:00 0.0
2015_10_28_S27 10/28/2015 21:35:00 0.0
2015_10_28_S27 10/28/2015 21:40:00 0.0
2015_10_28_S27 10/28/2015 21:45:00 0.0
2015_10_28_S27 10/28/2015 21:50:00 0.0
2015_10_28_S27 10/28/2015 21:55:00 0.0
2015_10_28_S27 10/28/2015 22:00:00 0.0
2015_10_28_S27 10/28/2015 22:05:00 0.0
2015_10_28_S27 10/28/2015 22:10:00 0.0
2015_10_28_S27 10/28/2015 22:15:00 0.0
2015_10_28_S27 10/28/2015 22:20:00 0.0
2015_10_28_S27 10/28/2015 22:25:00 0.0
2015_10_28_S27 10/28/2015 22:30:00 0.0
2015_10_28_S27 10/28/2015 22:35:00 0.0
2015_10_28_S27 10/28/2015 22:40:00 0.0
2015_10_28_S27 10/28/2015 22:45:00 0.0
2015_10_28_S27 10/28/2015 22:50:00 0.01
2015_10_28_S27 10/28/2015 22:55:00 2.0937
2015_10_28_S27 10/28/2015 23:00:00 3.5606
2015_10_28_S27 10/28/2015 23:05:00 2.7063
2015_10_28_S27 10/28/2015 23:10:00 0.0843
2015_10_28_S27 10/28/2015 23:15:00 0.0
2015_10_28_S27 10/28/2015 23:20:00 0.0
2015_10_28_S27 10/28/2015 23:25:00 0.0
2015_10_28_S27 10/28/2015 23:30:00 0.0005
2015_10_28_S27 10/28/2015 23:35:00 0.0187
2015_10_28_S27 10/28/2015 23:40:00 0.0265
2015_10_28_S27 10/28/2015 23:45:00 0.0182
2015_10_28_S27 10/28/2015 23:50:00 0.0257
2015_10_28_S27 10/28/2015 23:55:00 0.0345
2015_10_28_S27 10/29/2015 00:00:00 0.045
2015_10_28_S27 10/29/2015 00:05:00 0.0207
2015_10_28_S27 10/29/2015 00:10:00 0.0
2015_10_28_S27 10/29/2015 00:15:00 0.0
2015_10_28_S27 10/29/2015 00:20:00 0.0
2015_10_28_S27 10/29/2015 00:25:00 0.0
2015_10_28_S27 10/29/2015 00:30:00 0.0114
2015_10_28_S27 10/29/2015 00:35:00 0.0028
2015_10_28_S27 10/29/2015 00:40:00 0.0
2015_10_28_S27 10/29/2015 00:45:00 0.0555
2015_10_28_S27 10/29/2015 00:50:00 0.1983
2015_10_28_S27 10/29/2015 00:55:00 0.1152
2015_10_28_S27 10/29/2015 01:00:00 0.103
2015_10_28_S27 10/29/2015 01:05:00 0.1281
2015_10_28_S27 10/29/2015 01:10:00 0.2318
2015_10_28_S27 10/29/2015 01:15:00 0.1259
2015_10_28_S27 10/29/2015 01:20:00 0.1968
2015_10_28_S27 10/29/2015 01:25:00 0.1065
2015_10_28_S27 10/29/2015 01:30:00 0.1249
2015_10_28_S27 10/29/2015 01:35:00 0.196
2015_10_28_S27 10/29/2015 01:40:00 0.2299
2015_10_28_S27 10/29/2015 01:45:00 0.168
2015_10_28_S27 10/29/2015 01:50:00 0.1336
2015_10_28_S27 10/29/2015 01:55:00 0.0151
2015_10_28_S27 10/29/2015 02:00:00 0.0
2015_10_28_S27 10/29/2015 02:05:00 0.0
2015_10_28_S27 10/29/2015 02:10:00 0.0
2015_10_28_S27 10/29/2015 02:15:00 0.0
2015_10_28_S27 10/29/2015 02:20:00 0.0
2015_10_28_S27 10/29/2015 02:25:00 0.0
2015_10_28_S27 10/29/2015 02:30:00 0.0
2015_10_28_S27 10/29/2015 02:35:00 0.0
2015_10_28_S27 10/29/2015 02:40:00 0.0
2015_10_28_S27 10/29/2015 02:45:00 0.0
2015_10_28_S27 10/29/2015 02:50:00 0.0
2015_10_28_S27 10/29/2015 02:55:00 0.0
2015_10_28_S27 10/29/2015 03:00:00 0.0
2015_10_28_S27 10/29/2015 03:05:00 0.0
2015_10_28_S27 10/29/2015 03:10:00 0.0
2015_10_28_S27 10/29/2015 03:15:00 0.0
2015_10_28_S27 10/29/2015 03:20:00 0.0
2015_10_28_S27 10/29/2015 03:25:00 0.0
2015_10_28_S27 10/29/2015 03:30:00 0.0
2015_10_28_S27 10/29/2015 03:35:00 0.0
2015_10_28_S27 10/29/2015 03:40:00 0.0
2015_10_28_S27 10/29/2015 03:45:00 0.0
2015_10_28_S27 10/29/2015 03:50:00 0.0
2015_10_28_S27 10/29/2015 03:55:00 0.0
2015_10_28_S27 10/29/2015 04:00:00 0.0
2015_10_28_S27 10/29/2015 04:05:00 0.0
2015_10_28_S27 10/29/2015 04:10:00 0.0
2015_10_28_S27 10/29/2015 04:15:00 0.0
2015_10_28_S27 10/29/2015 04:20:00 0.0
2015_10_28_S27 10/29/2015 04:25:00 0.0
2015_10_28_S27 10/29/2015 04:30:00 0.0
2015_10_28_S27 10/29/2015 04:35:00 0.0
2015_10_28_S27 10/29/2015 04:40:00 0.0
2015_10_28_S27 10/29/2015 04:45:00 0.0
2015_10_28_S27 10/29/2015 04:50:00 0.0
2015_10_28_S27 10/29/2015 04:55:00 0.0
2015_10_28_S27 10/29/2015 05:00:00 0.0
2015_10_28_S27 10/29/2015 05:05:00 0.0
2015_10_28_S27 10/29/2015 05:10:00 0.0
2015_10_28_S27 10/29/2015 05:15:00 0.0
2015_10_28_S27 10/29/2015 05:20:00 0.0
2015_10_28_S27 10/29/2015 05:25:00 0.0
2015_10_28_S27 10/29/2015 05:30:00 0.0
2015_10_28_S27 10/29/2015 05:35:00 0.0
2015_10_28_S27 10/29/2015 05:40:00 0.0
2015_10_28_S27 10/29/2015 05:45:00 0.0
2015_10_28_S27 10/29/2015 05:50:00 0.0
2015_10_28_S27 10/29/2015 05:55:00 0.0
2015_10_28_S27 10/29/2015 06:00:00 0.001
2015_10_28_S27 10/29/2015 06:05:00 0.0
2015_10_28_S27 10/29/2015 06:10:00 0.0103
2015_10_28_S27 10/29/2015 06:15:00 0.0
2015_10_28_S27 10/29/2015 06:20:00 0.0
2015_10_28_S27 10/29/2015 06:25:00 0.0
2015_10_28_S27 10/29/2015 06:30:00 0.0
2015_10_28_S27 10/29/2015 06:35:00 0.0
2015_10_28_S27 10/29/2015 06:40:00 0.0
2015_10_28_S27 10/29/2015 06:45:00 0.0
2015_10_28_S27 10/29/2015 06:50:00 0.0
2015_10_28_S27 10/29/2015 06:55:00 0.0
2015_10_28_S27 10/29/2015 07:00:00 0.0
2015_10_28_S27 10/29/2015 07:05:00 0.0
2015_10_28_S27 10/29/2015 07:10:00 0.0
2015_10_28_S27 10/29/2015 07:15:00 0.0
2015_10_28_S27 10/29/2015 07:20:00 0.0
2015_10_28_S27 10/29/2015 07:25:00 0.0
2015_10_28_S27 10/29/2015 07:30:00 0.0
2015_10_28_S27 10/29/2015 07:35:00 0.0
2015_10_28_S27 10/29/2015 07:40:00 0.0
2015_10_28_S27 10/29/2015 07:45:00 0.0
2015_10_28_S27 10/29/2015 07:50:00 0.0
2015_10_28_S27 10/29/2015 07:55:00 0.0
2015_10_28_S27 10/29/2015 08:00:00 0.0

2015_10_28_S28 10/28/2015 10:25:00 0.0104
2015_10_28_S28 10/28/2015 10:30:00 0.0101
2015_10_28_S28 10/28/2015 10:35:00 0.0
2015_10_28_S28 10/28/2015 10:40:00 0.0
2015_10_28_S28 10/28/2015 10:45:00 0.0001
2015_10_28_S28 10/28/2015 10:50:00 0.0696
2015_10_28_S28 10/28/2015 10:55:00 0.1503
2015_10_28_S28 10/28/2015 11:00:00 0.062
2015_10_28_S28 10/28/2015 11:05:00 0.6998
2015_10_28_S28 10/28/2015 11:10:00 0.383
2015_10_28_S28 10/28/2015 11:15:00 1.2213
2015_10_28_S28 10/28/2015 11:20:00 2.2954
2015_10_28_S28 10/28/2015 11:25:00 2.1998
2015_10_28_S28 10/28/2015 11:30:00 2.1042
2015_10_28_S28 10/28/2015 11:35:00 1.6104
2015_10_28_S28 10/28/2015 11:40:00 1.263
2015_10_28_S28 10/28/2015 11:45:00 2.7782
2015_10_28_S28 10/28/2015 11:50:00 4.2811
2015_10_28_S28 10/28/2015 11:55:00 1.8977
2015_10_28_S28 10/28/2015 12:00:00 2.1785
2015_10_28_S28 10/28/2015 12:05:00 2.1474
2015_10_28_S28 10/28/2015 12:10:00 4.2508
2015_10_28_S28 10/28/2015 12:15:00 6.2238
2015_10_28_S28 10/28/2015 12:20:00 5.1929
2015_10_28_S28 10/28/2015 12:25:00 0.5458
2015_10_28_S28 10/28/2015 12:30:00 0.0092
2015_10_28_S28 10/28/2015 12:35:00 0.0
2015_10_28_S28 10/28/2015 12:40:00 0.004
2015_10_28_S28 10/28/2015 12:45:00 0.2618
2015_10_28_S28 10/28/2015 12:50:00 0.0212
2015_10_28_S28 10/28/2015 12:55:00 0.0007
2015_10_28_S28 10/28/2015 13:00:00 0.0013
2015_10_28_S28 10/28/2015 13:05:00 0.0
2015_10_28_S28 10/28/2015 13:10:00 0.0
2015_10_28_S28 10/28/2015 13:15:00 0.0
2015_10_28_S28 10/28/2015 13:20:00 0.0
2015_10_28_S28 10/28/2015 13:25:00 0.0
2015_10_28_S28 10/28/2015 13:30:00 0.0
2015_10_28_S28 10/28/2015 13:35:00 0.0
2015_10_28_S28 10/28/2015 13:40:00 0.0
2015_10_28_S28 10/28/2015 13:45:00 0.0
2015_10_28_S28 10/28/2015 13:50:00 0.0
2015_10_28_S28 10/28/2015 13:55:00 0.0
2015_10_28_S28 10/28/2015 14:00:00 0.0
2015_10_28_S28 10/28/2015 14:05:00 0.0
2015_10_28_S28 10/28/2015 14:10:00 0.0435
2015_10_28_S28 10/28/2015 14:15:00 0.0
2015_10_28_S28 10/28/2015 14:20:00 0.0
2015_10_28_S28 10/28/2015 14:25:00 0.0096
2015_10_28_S28 10/28/2015 14:30:00 0.1775
2015_10_28_S28 10/28/2015 14:35:00 0.0474
2015_10_28_S28 10/28/2015 14:40:00 0.0093
2015_10_28_S28 10/28/2015 14:45:00 0.0203
2015_10_28_S28 10/28/2015 14:50:00 0.0111
2015_10_28_S28 10/28/2015 14:55:00 0.0132
2015_10_28_S28 10/28/2015 15:00:00 0.0
2015_10_28_S28 10/28/2015 15:05:00 0.0
2015_10_28_S28 10/28/2015 15:10:00 0.0
2015_10_28_S28 10/28/2015 15:15:00 0.0
2015_10_28_S28 10/28/2015 15:20:00 0.0
2015_10_28_S28 10/28/2015 15:25:00 0.0
2015_10_28_S28 10/28/2015 15:30:00 0.0
2015_10_28_S28 10/28/2015 15:35:00 0.0
2015_10_28_S28 10/28/2015 15:40:00 0.0
2015_10_28_S28 10/28/2015 15:45:00 0.0
2015_10_28_S28 10/28/2015 15:50:00 0.0
2015_10_28_S28 10/28/2015 15:55:00 0.0
2015_10_28_S28 10/28/2015 16:00:00 0.0
2015_10_28_S28 10/28/2015 16:05:00 0.0
2015_10_28_S28 10/28/2015 16:10:00 0.0
2015_10_28_S28 10/28/2015 16:15:00 0.0
2015_10_28_S28 10/28/2015 16:20:00 0.0
2015_10_28_S28 10/28/2015 16:25:00 0.0
2015_10_28_S28 10/28/2015 16:30:00 0.0
2015_10_28_S28 10/28/2015 16:35:00 0.0
2015_10_28_S28 10/28/2015 16:40:00 0.0
2015_10_28_S28 10/28/2015 16:45:00 0.0
2015_10_28_S28 10/28/2015 16:50:00 0.0
2015_10_28_S28 10/28/2015 16:55:00 0.0
2015_10_28_S28 10/28/2015 17:00:00 0.0015
2015_10_28_S28 10/28/2015 17:05:00 0.0
2015_10_28_S28 10/28/2015 17:10:00 0.0
2015_10_28_S28 10/28/2015 17:15:00 0.0
2015_10_28_S28 10/28/2015 17:20:00 0.0
2015_10_28_S28 10/28/2015 17:25:00 0.0
2015_10_28_S28 10/28/2015 17:30:00 0.0
2015_10_28_S28 10/28/2015 17:35:00 0.0
2015_10_28_S28 10/28/2015 17:40:00 0.0
2015_10_28_S28 10/28/2015 17:45:00 0.0
2015_10_28_S28 10/28/2015 17:50:00 0.0
2015_10_28_S28 10/28/2015 17:55:00 0.0
2015_10_28_S28 10/28/2015 18:00:00 0.0
2015_10_28_S28 10/28/2015 18:05:00 0.0
2015_10_28_S28 10/28/2015 18:10:00 0.0
2015_10_28_S28 10/28/2015 18:15:00 0.0
2015_10_28_S28 10/28/2015 18:20:00 0.0
2015_10_28_S28 10/28/2015 18:25:00 0.0
2015_10_28_S28 10/28/2015 18:30:00 0.0
2015_10_28_S28 10/28/2015 18:35:00 0.0
2015_10_28_S28 10/28/2015 18:40:00 0.0
2015_10_28_S28 10/28/2015 18:45:00 0.0
2015_10_28_S28 10/28/2015 18:50:00 0.0
2015_10_28_S28 10/28/2015 18:55:00 0.0
2015_10_28_S28 10/28/2015 19:00:00 0.0
2015_10_28_S28 10/28/2015 19:05:00 0.0
2015_10_28_S28 10/28/2015 19:10:00 0.0
2015_10_28_S28 10/28/2015 19:15:00 0.0
2015_10_28_S28 10/28/2015 19:20:00 0.0
2015_10_28_S28 10/28/2015 19:25:00 0.0
2015_10_28_S28 10/28/2015 19:30:00 0.0
2015_10_28_S28 10/28/2015 19:35:00 0.0
2015_10_28_S28 10/28/2015 19:40:00 0.0
2015_10_28_S28 10/28/2015 19:45:00 0.0
2015_10_28_S28 10/28/2015 19:50:00 0.0
2015_10_28_S28 10/28/2015 19:55:00 0.0
2015_10_28_S28 10/28/2015 20:00:00 0.0
2015_10_28_S28 10/28/2015 20:05:00 0.0
2015_10_28_S28 10/28/2015 20:10:00 0.0
2015_10_28_S28 10/28/2015 20:15:00 0.0
2015_10_28_S28 10/28/2015 20:20:00 0.0
2015_10_28_S28 10/28/2015 20:25:00 0.0
2015_10_28_S28 10/28/2015 20:30:00 0.0
2015_10_28_S28 10/28/2015 20:35:00 0.0
2015_10_28_S28 10/28/2015 20:40:00 0.0
2015_10_28_S28 10/28/2015 20:45:00 0.0
2015_10_28_S28 10/28/2015 20:50:00 0.0
2015_10_28_S28 10/28/2015 20:55:00 0.0
2015_10_28_S28 10/28/2015 21:00:00 0.0
2015_10_28_S28 10/28/2015 21:05:00 0.0
2015_10_28_S28 10/28/2015 21:10:00 0.0
2015_10_28_S28 10/28/2015 21:15:00 0.0
2015_10_28_S28 10/28/2015 21:20:00 0.0
2015_10_28_S28 10/28/2015 21:25:00 0.0
2015_10_28_S28 10/28/2015 21:30:00 0.0
2015_10_28_S28 10/28/2015 21:35:00 0.0
2015_10_28_S28 10/28/2015 21:40:00 0.0
2015_10_28_S28 10/28/2015 21:45:00 0.0
2015_10_28_S28 10/28/2015 21:50:00 0.0
2015_10_28_S28 10/28/2015 21:55:00 0.0
2015_10_28_S28 10/28/2015 22:00:00 0.0
2015_10_28_S28 10/28/2015 22:05:00 0.0
2015_10_28_S28 10/28/2015 22:10:00 0.0
2015_10_28_S28 10/28/2015 22:15:00 0.0
2015_10_28_S28 10/28/2015 22:20:00 0.0
2015_10_28_S28 10/28/2015 22:25:00 0.0
2015_10_28_S28 10/28/2015 22:30:00 0.0
2015_10_28_S28 10/28/2015 22:35:00 0.0
2015_10_28_S28 10/28/2015 22:40:00 0.0
2015_10_28_S28 10/28/2015 22:45:00 0.0
2015_10_28_S28 10/28/2015 22:50:00 0.0022
2015_10_28_S28 10/28/2015 22:55:00 1.2663
2015_10_28_S28 10/28/2015 23:00:00 5.5493
2015_10_28_S28 10/28/2015 23:05:00 1.8717
2015_10_28_S28 10/28/2015 23:10:00 0.0
2015_10_28_S28 10/28/2015 23:15:00 0.0
2015_10_28_S28 10/28/2015 23:20:00 0.0
2015_10_28_S28 10/28/2015 23:25:00 0.0
2015_10_28_S28 10/28/2015 23:30:00 0.0012
2015_10_28_S28 10/28/2015 23:35:00 0.0249
2015_10_28_S28 10/28/2015 23:40:00 0.0316
2015_10_28_S28 10/28/2015 23:45:00 0.0219
2015_10_28_S28 10/28/2015 23:50:00 0.0357
2015_10_28_S28 10/28/2015 23:55:00 0.0328
2015_10_28_S28 10/29/2015 00:00:00 0.0514
2015_10_28_S28 10/29/2015 00:05:00 0.0253
2015_10_28_S28 10/29/2015 00:10:00 0.0
2015_10_28_S28 10/29/2015 00:15:00 0.0
2015_10_28_S28 10/29/2015 00:20:00 0.0
2015_10_28_S28 10/29/2015 00:25:00 0.0
2015_10_28_S28 10/29/2015 00:30:00 0.0119
2015_10_28_S28 10/29/2015 00:35:00 0.0102
2015_10_28_S28 10/29/2015 00:40:00 0.0
2015_10_28_S28 10/29/2015 00:45:00 0.0468
2015_10_28_S28 10/29/2015 00:50:00 0.1758
2015_10_28_S28 10/29/2015 00:55:00 0.1228
2015_10_28_S28 10/29/2015 01:00:00 0.1544
2015_10_28_S28 10/29/2015 01:05:00 0.1632
2015_10_28_S28 10/29/2015 01:10:00 0.2287
2015_10_28_S28 10/29/2015 01:15:00 0.11
2015_10_28_S28 10/29/2015 01:20:00 0.1553
2015_10_28_S28 10/29/2015 01:25:00 0.1352
2015_10_28_S28 10/29/2015 01:30:00 0.1166
2015_10_28_S28 10/29/2015 01:35:00 0.1342
2015_10_28_S28 10/29/2015 01:40:00 0.2404
2015_10_28_S28 10/29/2015 01:45:00 0.1919
2015_10_28_S28 10/29/2015 01:50:00 0.1025
2015_10_28_S28 10/29/2015 01:55:00 0.0172
2015_10_28_S28 10/29/2015 02:00:00 0.0
2015_10_28_S28 10/29/2015 02:05:00 0.0
2015_10_28_S28 10/29/2015 02:10:00 0.0
2015_10_28_S28 10/29/2015 02:15:00 0.0
2015_10_28_S28 10/29/2015 02:20:00 0.0
2015_10_28_S28 10/29/2015 02:25:00 0.0
2015_10_28_S28 10/29/2015 02:30:00 0.0
2015_10_28_S28 10/29/2015 02:35:00 0.0
2015_10_28_S28 10/29/2015 02:40:00 0.0
2015_10_28_S28 10/29/2015 02:45:00 0.0
2015_10_28_S28 10/29/2015 02:50:00 0.0
2015_10_28_S28 10/29/2015 02:55:00 0.0
2015_10_28_S28 10/29/2015 03:00:00 0.0
2015_10_28_S28 10/29/2015 03:05:00 0.0
2015_10_28_S28 10/29/2015 03:10:00 0.0
2015_10_28_S28 10/29/2015 03:15:00 0.0
2015_10_28_S28 10/29/2015 03:20:00 0.0
2015_10_28_S28 10/29/2015 03:25:00 0.0
2015_10_28_S28 10/29/2015 03:30:00 0.0
2015_10_28_S28 10/29/2015 03:35:00 0.0
2015_10_28_S28 10/29/2015 03:40:00 0.0
2015_10_28_S28 10/29/2015 03:45:00 0.0
2015_10_28_S28 10/29/2015 03:50:00 0.0
2015_10_28_S28 10/29/2015 03:55:00 0.0
2015_10_28_S28 10/29/2015 04:00:00 0.0
2015_10_28_S28 10/29/2015 04:05:00 0.0
2015_10_28_S28 10/29/2015 04:10:00 0.0
2015_10_28_S28 10/29/2015 04:15:00 0.0
2015_10_28_S28 10/29/2015 04:20:00 0.0
2015_10_28_S28 10/29/2015 04:25:00 0.0
2015_10_28_S28 10/29/2015 04:30:00 0.0
2015_10_28_S28 10/29/2015 04:35:00 0.0
2015_10_28_S28 10/29/2015 04:40:00 0.0
2015_10_28_S28 10/29/2015 04:45:00 0.0
2015_10_28_S28 10/29/2015 04:50:00 0.0
2015_10_28_S28 10/29/2015 04:55:00 0.0
2015_10_28_S28 10/29/2015 05:00:00 0.0
2015_10_28_S28 10/29/2015 05:05:00 0.0
2015_10_28_S28 10/29/2015 05:10:00 0.0
2015_10_28_S28 10/29/2015 05:15:00 0.0
2015_10_28_S28 10/29/2015 05:20:00 0.0
2015_10_28_S28 10/29/2015 05:25:00 0.0
2015_10_28_S28 10/29/2015 05:30:00 0.0
2015_10_28_S28 10/29/2015 05:35:00 0.0
2015_10_28_S28 10/29/2015 05:40:00 0.0
2015_10_28_S28 10/29/2015 05:45:00 0.0
2015_10_28_S28 10/29/2015 05:50:00 0.0
2015_10_28_S28 10/29/2015 05:55:00 0.0
2015_10_28_S28 10/29/2015 06:00:00 0.0001
2015_10_28_S28 10/29/2015 06:05:00 0.0
2015_10_28_S28 10/29/2015 06:10:00 0.0006
2015_10_28_S28 10/29/2015 06:15:00 0.0
2015_10_28_S28 10/29/2015 06:20:00 0.0
2015_10_28_S28 10/29/2015 06:25:00 0.0
2015_10_28_S28 10/29/2015 06:30:00 0.0
2015_10_28_S28 10/29/2015 06:35:00 0.0
2015_10_28_S28 10/29/2015 06:40:00 0.0
2015_10_28_S28 10/29/2015 06:45:00 0.0
2015_10_28_S28 10/29/2015 06:50:00 0.0
2015_10_28_S28 10/29/2015 06:55:00 0.0
2015_10_28_S28 10/29/2015 07:00:00 0.0
2015_10_28_S28 10/29/2015 07:05:00 0.0
2015_10_28_S28 10/29/2015 07:10:00 0.0
2015_10_28_S28 10/29/2015 07:15:00 0.0
2015_10_28_S28 10/29/2015 07:20:00 0.0
2015_10_28_S28 10/29/2015 07:25:00 0.0
2015_10_28_S28 10/29/2015 07:30:00 0.0
2015_10_28_S28 10/29/2015 07:35:00 0.0
2015_10_28_S28 10/29/2015 07:40:00 0.0
2015_10_28_S28 10/29/2015 07:45:00 0.0
2015_10_28_S28 10/29/2015 07:50:00 0.0
2015_10_28_S28 10/29/2015 07:55:00 0.0
2015_10_28_S28 10/29/2015 08:00:00 0.0

;;____________________________________________________________________________________________________
[REPORT]
;;Reporting Options
SUBCATCHMENTS ALL
NODES ALL
LINKS ALL

;;____________________________________________________________________________________________________
[MAP]
DIMENSIONS 185865.396 673350.000 190772.001 679332.930
Units      Meters

;;____________________________________________________________________________________________________
[COORDINATES]
;;Node           X-Coord            Y-Coord           
;;-------------- ------------------ ------------------
J1               188416.573         678864.133        
J10              187876.949         676421.351        
J11              187771.585         676118.430        
J12              187745.244         675971.909        
J13              187705.733         675874.777        
J14              187172.330         676006.482        
J15              186808.496         675525.760        
J16              187588.852         675315.403        
J17              187325.287         674633.430        
J18              186976.064         674336.920        
J2               188485.717         678548.042        
J20              188922.377         677824.394        
J21              189159.110         677387.020        
J22              189116.281         676672.101        
J23              188928.977         676213.404        
J24              188829.655         675802.338        
J25              188998.163         675748.871        
J26              189650.485         676542.859        
J3               188483.151         678441.702        
J4               188316.513         677812.480        
J5               188232.551         677631.386        
J6               188137.065         677425.598        
J7               188104.139         677267.552        
J8               188018.531         676976.156        
J9               187918.106         676592.567        
O1               188423.158         679007.361

;;____________________________________________________________________________________________________
[VERTICES]
;;Link           X-Coord            Y-Coord           
;;-------------- ------------------ ------------------
C2               188487.548         678593.979        
C2               188403.586         678740.501        
C21              189211.773         677639.351        
C21              189047.045         677701.947        
C21              189037.161         677797.490        
C22              189218.362         677049.625        
C22              189093.169         677092.455        
C23              188968.026         676309.700        
C23              189040.506         676306.405        
C4               188383.830         677872.897        
C4               188365.721         677925.579        
C4               188360.782         678067.161        
C4               188415.110         678221.914        
C4               188480.962         678429.349        
C5               188251.288         677708.747

;;____________________________________________________________________________________________________
[POLYGONS]
;;Subcatchment   X-Coord            Y-Coord           
;;-------------- ------------------ ------------------
S01              187279.862         678858.156        
S01              187414.939         678805.443        
S01              187494.009         678798.854        
S01              187622.496         678838.389        
S01              187675.209         678818.621        
S01              187790.519         678812.032        
S01              187823.464         678848.272        
S01              187866.293         678854.861        
S01              187899.239         678868.040        
S01              187981.603         678802.148        
S01              188027.727         678798.854        
S01              188077.145         678805.443        
S01              188123.269         678821.916        
S01              188162.804         678844.978        
S01              188205.633         678861.450        
S01              188281.408         678874.629        
S01              188337.415         678910.869        
S01              188390.128         678950.403        
S01              188406.601         678999.822        
S01              188446.135         679009.705        
S01              188446.135         678980.054        
S01              188423.073         678854.861        
S01              188416.484         678756.025        
S01              188495.554         678591.297        
S01              188067.261         678535.289        
S01              187734.511         678525.406        
S01              187095.367         678528.700        
S01              187194.204         678607.770        
S01              187167.848         678634.126        
S01              187164.553         678680.250        
S01              187276.568         678841.683        
S02              188311.826         678562.991        
S02              188093.122         678531.748        
S02              187825.817         678517.862        
S02              187121.103         678531.748        
S02              187034.315         678455.375        
S02              186964.886         678427.603        
S02              187003.072         678170.712        
S02              186968.357         678125.583        
S02              186933.642         678021.438        
S02              186874.627         677899.935        
S02              186982.243         677882.578        
S02              187207.890         677858.277        
S02              187277.320         677872.163        
S02              187659.185         677872.163        
S02              188023.692         677865.220        
S02              188318.769         677851.334        
S02              188322.241         677934.650        
S02              188339.598         678087.396        
S02              188402.085         678212.370        
S02              188412.500         678292.215        
S02              188468.044         678431.074        
S02              188464.572         678583.820        
S03              186866.088         677850.375        
S03              186852.202         677826.075        
S03              186855.674         677753.174        
S03              186914.689         677610.842        
S03              186994.534         677586.542        
S03              187067.435         677558.770        
S03              187109.093         677503.226        
S03              187154.222         677492.811        
S03              187244.481         677524.055        
S03              187383.341         677562.241        
S03              187466.657         677576.127        
S03              187570.802         677534.469        
S03              187855.465         677503.226        
S03              187987.382         677548.355        
S03              188126.241         677635.143        
S03              188188.728         677697.630        
S03              188240.801         677718.459        
S03              188285.930         677774.003        
S03              188320.645         677843.432        
S03              187740.905         677857.318        
S03              187185.466         677846.904        
S03              186886.917         677878.147        
S04              187214.648         677432.470        
S04              187264.984         677411.641        
S04              187275.399         677323.118        
S04              187509.725         677234.595        
S04              187551.383         677357.833        
S04              187709.336         677323.118        
S04              187735.372         677366.512        
S04              187898.533         677333.532        
S04              187919.361         677422.056        
S04              188125.916         677369.983        
S04              188223.117         677611.252        
S04              188240.475         677727.547        
S04              188037.392         677592.159        
S04              187900.268         677515.786        
S04              187593.041         677538.351        
S04              187488.896         677571.330        
S04              187419.466         677571.330        
S04              187232.005         677514.050        
S05              187478.475         677233.098        
S05              187442.024         677106.389        
S05              187785.702         677003.980        
S05              187822.153         677102.917        
S05              187962.749         677075.145        
S05              187985.313         677113.332        
S05              188053.008         677106.389        
S05              188139.795         677359.808        
S05              187924.562         677406.673        
S05              187910.676         677325.093        
S05              187740.573         677354.601        
S05              187712.801         677323.357        
S05              187539.226         677342.450        
S05              187527.076         677264.342        
S05              187494.097         677220.948        
S06              186705.854         677552.926        
S06              186698.911         677467.875        
S06              186665.932         677434.896        
S06              186657.253         677073.860        
S06              186627.745         677021.788        
S06              186652.046         676938.472        
S06              187217.900         676783.990        
S06              187261.293         676910.700        
S06              187933.028         676740.596        
S06              188044.116         677108.575        
S06              187981.629         677118.989        
S06              187946.914         677089.482        
S06              187813.261         677125.932        
S06              187792.432         677009.637        
S06              187441.811         677108.575        
S06              187466.112         677242.228        
S06              187259.558         677320.336        
S06              187250.879         677412.331        
S06              187197.071         677408.859        
S06              187209.221         677500.854        
S06              187117.226         677493.911        
S06              187056.475         677565.077        
S06              186898.522         677613.678        
S06              186836.035         677537.305        
S06              186711.061         677559.869        
S07              186650.642         676928.193        
S07              186604.518         676855.713        
S07              186578.162         676763.466        
S07              186650.642         676608.621        
S07              186742.890         676457.072        
S07              186917.501         676407.654        
S07              186940.563         676473.545        
S07              187457.809         676331.879        
S07              187431.452         676256.104        
S07              187790.559         676147.384        
S07              187978.348         676727.226        
S07              187260.135         676921.604        
S07              187227.190         676786.528        
S07              186644.053         676931.488        
S08              186765.952         676443.894        
S08              186848.316         676364.824        
S08              186756.068         676249.515        
S08              186769.246         676239.631        
S08              187105.291         676134.205        
S08              187141.531         676018.896        
S08              187711.489         675864.052        
S08              187810.326         676144.089        
S08              187434.747         676236.337        
S08              187464.398         676331.879        
S08              186940.563         676476.839        
S08              186930.680         676407.654        
S08              186746.184         676453.777        
S09              186774.094         676232.497        
S09              187105.622         676117.938        
S09              187136.865         676013.793        
S09              187254.896         675973.871        
S09              187091.736         675496.540        
S09              186834.845         675557.291        
S09              186846.995         675678.794        
S09              186650.856         675720.452        
S09              186619.612         675847.161        
S09              186609.198         676031.151        
S09              186640.441         676112.731        
S09              186770.622         676249.855        
S10              186660.526         675669.673        
S10              186588.046         675623.549        
S10              186541.922         675534.596        
S10              186403.551         675514.829        
S10              186370.605         675465.410        
S10              186367.310         675386.341        
S10              186291.536         675359.985        
S10              186258.590         675294.094        
S10              186278.357         675261.148        
S10              186261.885         675211.730        
S10              186268.474         675089.831        
S10              186298.125         675116.188        
S10              186360.721         675053.591        
S10              186456.263         675040.413        
S10              186476.031         674967.932        
S10              186624.286         674911.925        
S10              186848.316         675053.591        
S10              186924.090         675231.497        
S10              186999.865         675521.418        
S10              186825.254         675551.069        
S10              186851.610         675676.262        
S10              186627.580         675722.386        
S11              186996.571         675488.472        
S11              186943.858         675290.799        
S11              186854.905         675066.769        
S11              186630.875         674921.809        
S11              186627.580         674625.299        
S11              186574.867         674526.462        
S11              186739.595         674302.432        
S11              186733.006         674167.355        
S11              187306.259         674061.929        
S11              187372.150         674028.984        
S11              187263.430         674529.756        
S11              187167.888         674533.051        
S11              187227.190         674895.452        
S11              187335.910         675228.202        
S11              187319.437         675310.566        
S11              187246.957         675392.930        
S11              187131.647         675491.767        
S11              186996.571         675514.829        
S12              186752.882         674155.010        
S12              187356.922         674047.394        
S12              187353.450         673849.518        
S12              187304.850         673898.119        
S12              187204.176         673918.948        
S12              187075.731         673936.306        
S12              187016.715         673842.575        
S12              186752.882         673832.161        
S12              186669.566         673905.062        
S12              186659.151         673932.834        
S12              186738.996         674016.150        
S12              186735.524         674144.595        
S13              187362.328         673864.932        
S13              187369.271         674069.750        
S13              187279.013         674527.988        
S13              187174.868         674538.402        
S13              187268.598         675059.126        
S13              187334.556         675257.002        
S13              187289.427         675357.675        
S13              187192.225         675434.048        
S13              187108.909         675472.235        
S13              187258.184         675968.659        
S13              187806.680         675833.270        
S13              187806.680         675753.426        
S13              188230.203         675645.809        
S13              188230.203         675562.493        
S13              188414.192         675562.493        
S13              188455.850         675007.054        
S13              188275.332         674850.837        
S13              188094.814         674753.635        
S13              188039.270         674538.402        
S13              187955.954         674462.029        
S13              187917.768         674267.625        
S13              187942.068         674205.138        
S13              187949.011         674062.807        
S13              187883.053         673996.849        
S13              187848.338         674000.320        
S13              187758.079         673962.134        
S13              187695.592         673812.859        
S13              187626.162         673764.258        
S13              187476.888         673788.559        
S13              187358.857         673864.932        
S14              187715.284         675871.166        
S14              187833.314         676235.673        
S14              188503.313         676062.098        
S14              188454.712         675905.881        
S14              188291.552         675912.824        
S14              188246.423         675659.404        
S14              187819.429         675756.606        
S14              187812.486         675857.280        
S14              187729.170         675874.637        
S15              188699.856         674898.747        
S15              188604.314         674846.034        
S15              188469.237         674987.700        
S15              188423.114         675570.836        
S15              188235.324         675560.953        
S15              188228.735         675643.317        
S15              188245.207         675705.913        
S15              188274.858         675722.386        
S15              188571.369         675643.317        
S15              188614.198         675794.866        
S15              189009.545         675705.913        
S15              189035.901         675788.277        
S15              189388.419         675323.745        
S15              189312.644         675336.923        
S15              189200.629         675307.272        
S15              189095.203         675191.962        
S15              189088.614         675014.056        
S15              188956.832         674974.522        
S15              188917.297         674872.390        
S15              188762.453         674859.212        
S15              188706.445         674905.336        
S16              189072.141         675738.859        
S16              189391.713         675310.566        
S16              189427.953         675336.923        
S16              189622.332         675336.923        
S16              189734.347         675373.163        
S16              189803.533         675313.861        
S16              189935.315         675458.821        
S16              189968.260         675633.433        
S16              189510.317         675653.200        
S16              189507.023         675808.044        
S16              189605.859         676018.896        
S16              189605.859         676068.314        
S16              189424.659         676078.198        
S16              189358.767         675775.099        
S16              189049.079         675775.099        
S17              188292.964         675915.061        
S17              188470.010         675880.346        
S17              188619.285         676414.957        
S17              188640.114         676418.428        
S17              189521.874         676165.009        
S17              189501.045         676078.221        
S17              189431.615         676071.278        
S17              189421.200         676046.978        
S17              189348.299         675779.673        
S17              189028.921         675793.559        
S17              189018.507         675724.129        
S17              188612.342         675803.973        
S17              188588.041         675661.642        
S17              188275.607         675734.543        
S17              188310.322         675911.590        
S18              187933.690         676600.013        
S18              187833.017         676245.920        
S18              188506.487         676075.817        
S18              188624.518         676422.967        
S18              187937.162         676596.541        
S19              188046.282         676980.558        
S19              188310.116         676883.356        
S19              188337.888         676956.257        
S19              188712.810         676865.998        
S19              188716.281         676848.641        
S19              188629.494         676588.278        
S19              188639.908         676439.004        
S19              187931.723         676602.164        
S19              188046.282         676977.086        
S20              188151.099         677391.191        
S20              188699.596         677300.932        
S20              188692.653         677186.373        
S20              188786.383         677148.186        
S20              188716.953         676839.223        
S20              188345.503         676960.726        
S20              188314.260         676898.239        
S20              188046.954         676967.669        
S20              188151.099         677384.248        
S21              188644.301         676422.695        
S21              188630.415         676474.768        
S21              188717.202         676811.503        
S21              188800.518         677141.295        
S21              189776.009         676901.762        
S21              189633.677         676290.778        
S21              189592.019         676075.545        
S21              189505.232         676072.074        
S21              189519.118         676186.633        
S21              188640.829         676433.110        
S22              189609.358         676094.851        
S22              189796.819         676879.409        
S22              189828.062         676993.969        
S22              189848.891         676948.839        
S22              189921.793         676855.109        
S22              189977.337         676827.337        
S22              190053.710         676733.606        
S22              190119.668         676695.420        
S22              190185.627         676695.420        
S22              190268.943         676636.404        
S22              190362.673         676660.705        
S22              190432.103         676594.746        
S22              190452.932         676521.845        
S22              190425.160         676476.716        
S22              190553.605         676386.457        
S22              190557.077         676303.141        
S22              190494.590         676202.467        
S22              190525.833         676060.136        
S22              190515.419         675955.991        
S22              190414.745         675865.732        
S22              190161.326         675667.857        
S22              190088.425         675695.629        
S22              189977.337         675640.085        
S22              189522.571         675647.028        
S22              189508.685         675792.831        
S22              189619.773         676063.608        
S23              188878.835         677825.274        
S23              188944.793         677832.217        
S23              189187.798         677755.844        
S23              189392.616         677717.657        
S23              189691.165         677696.828        
S23              189684.222         677578.797        
S23              189760.595         677540.611        
S23              189750.181         677429.523        
S23              189718.937         677349.679        
S23              189791.838         677269.834        
S23              189798.781         677040.716        
S23              189777.953         676922.685        
S23              188944.793         677134.446        
S23              188965.622         677262.891        
S23              188913.550         677262.891        
S23              188930.907         677495.482        
S23              188885.778         677498.953        
S23              188861.477         677825.274        
S24              188340.468         677855.197        
S24              188784.820         677851.726        
S24              188868.135         677834.368        
S24              188864.664         677511.519        
S24              188923.679         677490.690        
S24              188902.850         677261.571        
S24              188951.451         677258.100        
S24              188947.980         677140.069        
S24              188916.736         677140.069        
S24              188708.447         677209.499        
S24              188684.146         677615.664        
S24              188267.567         677671.208        
S24              188333.525         677855.197        
S25              188250.451         677657.676        
S25              188691.331         677605.603        
S25              188691.331         677588.246        
S25              188698.274         677463.272        
S25              188712.160         677400.785        
S25              188705.217         677310.526        
S25              188160.192         677386.899        
S25              188246.979         677654.204        
S26              188709.123         678042.797        
S26              188719.538         677869.222        
S26              188820.211         677876.165        
S26              188861.869         677844.922        
S26              189007.672         677820.621        
S26              189299.278         677747.720        
S26              189688.085         677681.761        
S26              189698.500         677713.005        
S26              189681.142         677855.336        
S26              189629.070         677980.310        
S26              189483.267         678126.113        
S26              189313.163         678122.641        
S26              189268.034         678146.942        
S26              189014.615         678136.527        
S26              189004.200         678098.341        
S26              188702.180         678042.797        
S27              188509.779         678591.953        
S27              188617.395         678623.196        
S27              188929.830         678640.554        
S27              188884.700         679064.076        
S27              188981.902         679039.776        
S27              189207.550         679022.419        
S27              189259.622         678970.346        
S27              189419.311         678959.932        
S27              189467.912         678932.160        
S27              189471.383         678817.600        
S27              189433.197         678758.585        
S27              189502.627         678720.398        
S27              189572.057         678682.212        
S27              189596.357         678598.896        
S27              189565.114         678581.538        
S27              189526.927         678539.881        
S27              189509.570         678456.565        
S27              189471.383         678383.663        
S27              189471.383         678144.130        
S27              189308.223         678123.301        
S27              189290.866         678161.487        
S27              189006.203         678147.601        
S27              189009.674         678105.943        
S27              188714.597         678050.400        
S27              188718.069         677883.768        
S27              188363.976         677855.996        
S27              188363.976         677883.768        
S27              188377.862         678060.814        
S27              188409.105         678137.187        
S27              188475.064         678376.720        
S27              188506.307         678598.896        
S28              188431.500         678929.384        
S28              188415.027         678744.888        
S28              188474.329         678599.928        
S28              188569.871         678616.401        
S28              188747.777         678636.168        
S28              188849.908         678639.463        
S28              188909.210         678622.990        
S28              188912.505         678688.881        
S28              188892.738         678850.314        
S28              188863.087         679061.166        
S28              188635.762         679067.755        
S28              188606.111         679051.282        
S28              188507.274         678988.686        
S28              188434.794         678988.686

;;____________________________________________________________________________________________________
[SYMBOLS]
;;Gage           X-Coord            Y-Coord           
;;-------------- ------------------ ------------------