[TITLE]
;;Project Title/Notes

;;____________________________________________________________________________________________________
[OPTIONS]
FLOW_UNITS           CMS
INFILTRATION         CURVE_NUMBER
FLOW_ROUTING         DYNWAVE
LINK_OFFSETS         DEPTH
MIN_SLOPE            0
ALLOW_PONDING        NO
SKIP_STEADY_STATE    NO
START_DATE           12/27/2016
START_TIME           00:00:00
REPORT_START_DATE    12/27/2016
REPORT_START_TIME    00:00:00
END_DATE             12/27/2016
END_TIME             15:30:00
SWEEP_START          01/01
SWEEP_END            12/31
DRY_DAYS             0
REPORT_STEP          00:05:00
WET_STEP             00:05:00
DRY_STEP             01:00:00
ROUTING_STEP         0:00:20
RULE_STEP            00:00:00
INERTIAL_DAMPING     PARTIAL
NORMAL_FLOW_LIMITED  BOTH
FORCE_MAIN_EQUATION  H-W
VARIABLE_STEP        0.75
LENGTHENING_STEP     0
MIN_SURFAREA         1.167
MAX_TRIALS           8
HEAD_TOLERANCE       0.0015
SYS_FLOW_TOL         5
LAT_FLOW_TOL         5
MINIMUM_STEP         0.5
THREADS              1

;;____________________________________________________________________________________________________
[EVAPORATION]
CONSTANT  4
DRY_ONLY  NO

;;____________________________________________________________________________________________________
[RAINGAGES]
R01 VOLUME 0:05 0 TIMESERIES 2016_12_27_S1
R02 VOLUME 0:05 0 TIMESERIES 2016_12_27_S2
R03 VOLUME 0:05 0 TIMESERIES 2016_12_27_S3
R04 VOLUME 0:05 0 TIMESERIES 2016_12_27_S4
R05 VOLUME 0:05 0 TIMESERIES 2016_12_27_S5
R06 VOLUME 0:05 0 TIMESERIES 2016_12_27_S6
R07 VOLUME 0:05 0 TIMESERIES 2016_12_27_S7
R08 VOLUME 0:05 0 TIMESERIES 2016_12_27_S8
R09 VOLUME 0:05 0 TIMESERIES 2016_12_27_S9
R10 VOLUME 0:05 0 TIMESERIES 2016_12_27_S10
R11 VOLUME 0:05 0 TIMESERIES 2016_12_27_S11
R12 VOLUME 0:05 0 TIMESERIES 2016_12_27_S12
R13 VOLUME 0:05 0 TIMESERIES 2016_12_27_S13
R14 VOLUME 0:05 0 TIMESERIES 2016_12_27_S14
R15 VOLUME 0:05 0 TIMESERIES 2016_12_27_S15
R16 VOLUME 0:05 0 TIMESERIES 2016_12_27_S16
R17 VOLUME 0:05 0 TIMESERIES 2016_12_27_S17
R18 VOLUME 0:05 0 TIMESERIES 2016_12_27_S18
R19 VOLUME 0:05 0 TIMESERIES 2016_12_27_S19
R20 VOLUME 0:05 0 TIMESERIES 2016_12_27_S20
R21 VOLUME 0:05 0 TIMESERIES 2016_12_27_S21
R22 VOLUME 0:05 0 TIMESERIES 2016_12_27_S22
R23 VOLUME 0:05 0 TIMESERIES 2016_12_27_S23
R24 VOLUME 0:05 0 TIMESERIES 2016_12_27_S24
R25 VOLUME 0:05 0 TIMESERIES 2016_12_27_S25
R26 VOLUME 0:05 0 TIMESERIES 2016_12_27_S26
R27 VOLUME 0:05 0 TIMESERIES 2016_12_27_S27
R28 VOLUME 0:05 0 TIMESERIES 2016_12_27_S28

;;____________________________________________________________________________________________________
[SUBCATCHMENTS]
S01 R01 J1 35.9 6 3211 3 0
S02 R02 J2 92.9 54 3640 2.6 0
S03 R03 J4 40.8 64.5 3640 2.2 0
S04 R04 J6 20.1 70.5 2457 2.4 0
S05 R05 J7 17.4 67.5 1508 3.5 0
S06 R06 J8 61.1 70.5 3692 1.9 0
S07 R07 J9 60.2 70.5 3458 2 0
S08 R08 J11 29 70.5 2600 2.8 0
S09 R09 J14 31.1 19.5 1482 3 0
S10 R10 J15 35.6 70.5 1820 2.2 0
S11 R11 J17 67.4 70.5 702 3.5 0
S12 R12 J18 15.2 16.5 2860 4 0
S13 R13 J16 177.1 10.5 5408 1.3 0
S14 R14 J12 27 73.5 1391 3 0
S15 R15 J24 59.2 24 1703 2.5 0
S16 R16 J25 28.6 45 1703 2.3 0
S17 R17 J23 53.4 73.5 1560 2.4 0
S18 R18 J10 25.4 73.5 1872 2.9 0
S19 R19 J8 27.8 73.5 1820 3.2 0
S20 R20 J7 28.2 70.5 1820 3.3 0
S21 R21 J22 76.7 70.5 1976 2.8 0
S22 R22 J26 87.9 82.5 2405 2.4 0
S23 R23 J21 60.3 69 2262 2.1 0
S24 R24 J4 21.6 70.5 3255.2 2 0
S25 R25 J5 14 76.5 1274 3.6 0
S26 R26 J20 30.9 94.5 2470 2.1 0
S27 R27 J3 82 97.5 2782 1.9 0
S28 R28 J1 18.8 3 1235 2.4 0


;;____________________________________________________________________________________________________
[SUBAREAS]
S01 0.011 0.06 14.4 40 30 PERVIOUS 45
S02 0.011 0.06 14.4 40 50 PERVIOUS 45
S03 0.011 0.06 14.4 40 50 PERVIOUS 45
S04 0.011 0.06 14.4 40 50 PERVIOUS 45
S05 0.011 0.06 14.4 40 50 PERVIOUS 45
S06 0.011 0.06 14.4 40 50 PERVIOUS 45
S07 0.011 0.06 14.4 40 50 PERVIOUS 45
S08 0.011 0.06 14.4 40 50 PERVIOUS 45
S09 0.011 0.06 14.4 40 30 PERVIOUS 45
S10 0.011 0.06 14.4 40 50 PERVIOUS 45
S11 0.011 0.06 14.4 40 50 PERVIOUS 45
S12 0.011 0.06 14.4 40 30 PERVIOUS 45
S13 0.011 0.06 14.4 40 30 PERVIOUS 45
S14 0.011 0.06 14.4 40 50 PERVIOUS 45
S15 0.011 0.06 14.4 40 30 PERVIOUS 45
S16 0.011 0.06 14.4 40 50 PERVIOUS 45
S17 0.011 0.06 14.4 40 50 PERVIOUS 45
S18 0.011 0.06 14.4 40 50 PERVIOUS 45
S19 0.011 0.06 14.4 40 50 PERVIOUS 45
S20 0.011 0.06 14.4 40 50 PERVIOUS 45
S21 0.011 0.06 14.4 40 50 PERVIOUS 45
S22 0.011 0.06 14.4 40 60 PERVIOUS 45
S23 0.011 0.06 14.4 40 50 PERVIOUS 45
S24 0.011 0.06 14.4 40 50 PERVIOUS 45
S25 0.011 0.06 14.4 40 50 PERVIOUS 45
S26 0.011 0.06 14.4 40 60 PERVIOUS 45
S27 0.011 0.06 14.4 40 60 PERVIOUS 45
S28 0.011 0.06 14.4 40 30 PERVIOUS 45


;;____________________________________________________________________________________________________
[INFILTRATION]
S01 39 0.5 4
S02 39 0.5 4
S03 39 0.5 4
S04 39 0.5 4
S05 39 0.5 4
S06 39 0.5 4
S07 39 0.5 4
S08 39 0.5 4
S09 39 0.5 4
S10 39 0.5 4
S11 39 0.5 4
S12 39 0.5 4
S13 39 0.5 4
S14 39 0.5 4
S15 39 0.5 4
S16 39 0.5 4
S17 39 0.5 4
S18 39 0.5 4
S19 39 0.5 4
S20 39 0.5 4
S21 39 0.5 4
S22 39 0.5 4
S23 39 0.5 4
S24 39 0.5 4
S25 39 0.5 4
S26 39 0.5 4
S27 39 0.5 4
S28 39 0.5 4


;;____________________________________________________________________________________________________
[JUNCTIONS]
;;Name           Elevation  MaxDepth   InitDepth  SurDepth   Aponded   
;;-------------- ---------- ---------- ---------- ---------- ----------
J1               28.6       0          0          0          0         
J10              41.7       0          0          0          0         
J11              43.4       0          0          0          0         
J12              44.5       0          0          0          0         
J13              45.2       0          0          0          0         
J14              54.6       0          0          0          0         
J15              60.3       0          0          0          0         
J16              49         0          0          0          0         
J17              55.5       0          0          0          0         
J18              65.1       0          0          0          0         
J2               31.6       0          0          0          0         
J20              37.3       0          0          0          0         
J21              42.7       0          0          0          0         
J22              46.8       0          0          0          0         
J23              49.5       0          0          0          0         
J24              50.1       0          0          0          0         
J25              53.6       0          0          0          0         
J26              53.8       0          0          0          0         
J3               31.8       0          0          0          0         
J4               33.2       0          0          0          0         
J5               35.8       0          0          0          0         
J6               38         0          0          0          0         
J7               38.5       0          0          0          0         
J8               39.9       0          0          0          0         
J9               40.6       0          0          0          0

;;____________________________________________________________________________________________________
[OUTFALLS]
;;Name           Elevation  Type       Stage Data       Gated    Route To        
;;-------------- ---------- ---------- ---------------- -------- ----------------
O1               28         FREE                        NO

;;____________________________________________________________________________________________________
[CONDUITS]
;;Name           From Node        To Node          Length     Roughness  InOffset   OutOffset  InitFlow   MaxFlow   
;;-------------- ---------------- ---------------- ---------- ---------- ---------- ---------- ---------- ----------
C1               J1               O1               130        0.05       0          0          0          0         
C10              J10              J9               320        0.01       0          0          0          0         
C11              J11              J10              315        0.01       0          0          0          0         
C12              J12              J11              130        0.01       0          0          0          0         
C13              J13              J12              110        0.01       0          0          0          0         
C14              J13              J14              550        0.01       0          0          0          0         
C15              J15              J14              540        0.01       0          0          0          0         
C16              J16              J13              590        0.01       0          0          0          0         
C17              J17              J16              770        0.01       0          0          0          0         
C18              J18              J17              505        0.01       0          0          0          0         
C2               J2               J1               330        0.01       0          0          0          0         
C20              J20              J4               600        0.01       0          0          0          0         
C21              J21              J20              620        0.01       0          0          0          0         
C22              J22              J21              850        0.01       0          0          0          0         
C23              J23              J22              530        0.01       0          0          0          0         
C24              J24              J23              440        0.01       0          0          0          0         
C25              J25              J24              190        0.01       0          0          0          0         
C26              J26              J22              600        0.01       0          0          0          0         
C3               J3               J2               95         0.01       0          0          0          0         
C4               J4               J3               660        0.01       0          0          0          0         
C5               J5               J4               175        0.01       0          0          0          0         
C6               J6               J5               280        0.01       0          0          0          0         
C7               J7               J6               120        0.01       0          0          0          0         
C8               J8               J7               300        0.01       0          0          0          0         
C9               J9               J8               250        0.01       0          0          0          0

;;____________________________________________________________________________________________________
[XSECTIONS]
;;Link           Shape        Geom1            Geom2      Geom3      Geom4      Barrels    Culvert   
;;-------------- ------------ ---------------- ---------- ---------- ---------- ---------- ----------
C1               PARABOLIC    5                12         0          0          1                    
C10              RECT_CLOSED  1.5              1.7        0          0          1                    
C11              RECT_CLOSED  1.25             1.5        0          0          1                    
C12              RECT_CLOSED  1.25             1.5        0          0          1                    
C13              RECT_CLOSED  1.95             3.85       0          0          1                    
C14              CIRCULAR     0.6              0          0          0          1                    
C15              RECT_CLOSED  1.95             3.85       0          0          1                    
C16              PARABOLIC    1.95             3.85       0          0          1                    
C17              RECT_CLOSED  1.95             3.85       0          0          1                    
C18              RECT_CLOSED  1.95             3.85       0          0          1                    
C2               PARABOLIC    5                12         0          0          1                    
C20              RECT_CLOSED  1.25             4.5        0          0          1                    
C21              CIRCULAR     1.5              0          0          0          1                    
C22              CIRCULAR     1.8              0          0          0          1                    
C23              CIRCULAR     1.25             0          0          0          1                    
C24              CIRCULAR     1.5              0          0          0          1                    
C25              RECT_CLOSED  1.95             3.85       0          0          1                    
C26              CIRCULAR     1.25             0          0          0          1                    
C3               RECT_CLOSED  3.70             6          0          0          1                    
C4               RECT_CLOSED  3.60             5.85       0          0          1                    
C5               RECT_CLOSED  1.85             2.5        0          0          1                    
C6               RECT_CLOSED  1.85             2.5        0          0          1                    
C7               RECT_CLOSED  1.95             3.85       0          0          1                    
C8               RECT_CLOSED  1.85             2          0          0          1                    
C9               RECT_CLOSED  1.85             2          0          0          1

;;____________________________________________________________________________________________________
[TIMESERIES]
2016_12_27_S1 12/26/2016 08:00:00 0.0
2016_12_27_S1 12/26/2016 08:05:00 0.0
2016_12_27_S1 12/26/2016 08:10:00 0.0
2016_12_27_S1 12/26/2016 08:15:00 0.0
2016_12_27_S1 12/26/2016 08:20:00 0.0
2016_12_27_S1 12/26/2016 08:25:00 0.0
2016_12_27_S1 12/26/2016 08:30:00 0.0
2016_12_27_S1 12/26/2016 08:35:00 0.0
2016_12_27_S1 12/26/2016 08:40:00 0.0
2016_12_27_S1 12/26/2016 08:45:00 0.0
2016_12_27_S1 12/26/2016 08:50:00 0.0
2016_12_27_S1 12/26/2016 08:55:00 0.0
2016_12_27_S1 12/26/2016 09:00:00 0.0
2016_12_27_S1 12/26/2016 09:05:00 0.0
2016_12_27_S1 12/26/2016 09:10:00 0.0052
2016_12_27_S1 12/26/2016 09:15:00 0.0
2016_12_27_S1 12/26/2016 09:20:00 0.0023
2016_12_27_S1 12/26/2016 09:25:00 0.0169
2016_12_27_S1 12/26/2016 09:30:00 0.0272
2016_12_27_S1 12/26/2016 09:35:00 0.0
2016_12_27_S1 12/26/2016 09:40:00 0.0
2016_12_27_S1 12/26/2016 09:45:00 0.0
2016_12_27_S1 12/26/2016 09:50:00 0.0
2016_12_27_S1 12/26/2016 09:55:00 0.0
2016_12_27_S1 12/26/2016 10:00:00 0.0
2016_12_27_S1 12/26/2016 10:05:00 0.0
2016_12_27_S1 12/26/2016 10:10:00 0.0
2016_12_27_S1 12/26/2016 10:15:00 0.0
2016_12_27_S1 12/26/2016 10:20:00 0.0333
2016_12_27_S1 12/26/2016 10:25:00 0.0131
2016_12_27_S1 12/26/2016 10:30:00 0.0
2016_12_27_S1 12/26/2016 10:35:00 0.0
2016_12_27_S1 12/26/2016 10:40:00 0.0
2016_12_27_S1 12/26/2016 10:45:00 0.0
2016_12_27_S1 12/26/2016 10:50:00 0.0
2016_12_27_S1 12/26/2016 10:55:00 0.0
2016_12_27_S1 12/26/2016 11:00:00 0.0
2016_12_27_S1 12/26/2016 11:05:00 0.0
2016_12_27_S1 12/26/2016 11:10:00 0.0
2016_12_27_S1 12/26/2016 11:15:00 0.0
2016_12_27_S1 12/26/2016 11:20:00 0.0
2016_12_27_S1 12/26/2016 11:25:00 0.0
2016_12_27_S1 12/26/2016 11:30:00 0.0
2016_12_27_S1 12/26/2016 11:35:00 0.0
2016_12_27_S1 12/26/2016 11:40:00 0.0
2016_12_27_S1 12/26/2016 11:45:00 0.0
2016_12_27_S1 12/26/2016 11:50:00 0.0
2016_12_27_S1 12/26/2016 11:55:00 0.0015
2016_12_27_S1 12/26/2016 12:00:00 0.256
2016_12_27_S1 12/26/2016 12:05:00 0.0023
2016_12_27_S1 12/26/2016 12:10:00 0.1097
2016_12_27_S1 12/26/2016 12:15:00 0.0298
2016_12_27_S1 12/26/2016 12:20:00 0.0025
2016_12_27_S1 12/26/2016 12:25:00 0.0
2016_12_27_S1 12/26/2016 12:30:00 0.0
2016_12_27_S1 12/26/2016 12:35:00 0.0
2016_12_27_S1 12/26/2016 12:40:00 0.0215
2016_12_27_S1 12/26/2016 12:45:00 0.035
2016_12_27_S1 12/26/2016 12:50:00 0.0122
2016_12_27_S1 12/26/2016 12:55:00 0.0
2016_12_27_S1 12/26/2016 13:00:00 0.0
2016_12_27_S1 12/26/2016 13:05:00 0.0024
2016_12_27_S1 12/26/2016 13:10:00 0.0
2016_12_27_S1 12/26/2016 13:15:00 0.0
2016_12_27_S1 12/26/2016 13:20:00 0.0
2016_12_27_S1 12/26/2016 13:25:00 0.0
2016_12_27_S1 12/26/2016 13:30:00 0.0
2016_12_27_S1 12/26/2016 13:35:00 0.0
2016_12_27_S1 12/26/2016 13:40:00 0.0
2016_12_27_S1 12/26/2016 13:45:00 0.0
2016_12_27_S1 12/26/2016 13:50:00 0.0
2016_12_27_S1 12/26/2016 13:55:00 0.0
2016_12_27_S1 12/26/2016 14:00:00 0.0
2016_12_27_S1 12/26/2016 14:05:00 0.0
2016_12_27_S1 12/26/2016 14:10:00 0.0
2016_12_27_S1 12/26/2016 14:15:00 0.0
2016_12_27_S1 12/26/2016 14:20:00 0.0
2016_12_27_S1 12/26/2016 14:25:00 0.0
2016_12_27_S1 12/26/2016 14:30:00 0.0
2016_12_27_S1 12/26/2016 14:35:00 0.0
2016_12_27_S1 12/26/2016 14:40:00 0.0
2016_12_27_S1 12/26/2016 14:45:00 0.0
2016_12_27_S1 12/26/2016 14:50:00 0.0
2016_12_27_S1 12/26/2016 14:55:00 0.0
2016_12_27_S1 12/26/2016 15:00:00 0.0
2016_12_27_S1 12/26/2016 15:05:00 0.0
2016_12_27_S1 12/26/2016 15:10:00 0.0
2016_12_27_S1 12/26/2016 15:15:00 0.0
2016_12_27_S1 12/26/2016 15:20:00 0.0
2016_12_27_S1 12/26/2016 15:25:00 0.0
2016_12_27_S1 12/26/2016 15:30:00 0.0
2016_12_27_S1 12/26/2016 15:35:00 0.0
2016_12_27_S1 12/26/2016 15:40:00 0.0
2016_12_27_S1 12/26/2016 15:45:00 0.0
2016_12_27_S1 12/26/2016 15:50:00 0.0
2016_12_27_S1 12/26/2016 15:55:00 0.0
2016_12_27_S1 12/26/2016 16:00:00 0.0
2016_12_27_S1 12/26/2016 16:05:00 0.0
2016_12_27_S1 12/26/2016 16:10:00 0.0
2016_12_27_S1 12/26/2016 16:15:00 0.0
2016_12_27_S1 12/26/2016 16:20:00 0.0
2016_12_27_S1 12/26/2016 16:25:00 0.0
2016_12_27_S1 12/26/2016 16:30:00 0.0
2016_12_27_S1 12/26/2016 16:35:00 0.0
2016_12_27_S1 12/26/2016 16:40:00 0.0
2016_12_27_S1 12/26/2016 16:45:00 0.0
2016_12_27_S1 12/26/2016 16:50:00 0.0
2016_12_27_S1 12/26/2016 16:55:00 0.0
2016_12_27_S1 12/26/2016 17:00:00 0.0
2016_12_27_S1 12/26/2016 17:05:00 0.0
2016_12_27_S1 12/26/2016 17:10:00 0.0
2016_12_27_S1 12/26/2016 17:15:00 0.0
2016_12_27_S1 12/26/2016 17:20:00 0.0
2016_12_27_S1 12/26/2016 17:25:00 0.0
2016_12_27_S1 12/26/2016 17:30:00 0.0
2016_12_27_S1 12/26/2016 17:35:00 0.0
2016_12_27_S1 12/26/2016 17:40:00 0.0
2016_12_27_S1 12/26/2016 17:45:00 0.0
2016_12_27_S1 12/26/2016 17:50:00 0.0
2016_12_27_S1 12/26/2016 17:55:00 0.0
2016_12_27_S1 12/26/2016 18:00:00 0.0
2016_12_27_S1 12/26/2016 18:05:00 0.0
2016_12_27_S1 12/26/2016 18:10:00 0.0
2016_12_27_S1 12/26/2016 18:15:00 0.0
2016_12_27_S1 12/26/2016 18:20:00 0.0
2016_12_27_S1 12/26/2016 18:25:00 0.0
2016_12_27_S1 12/26/2016 18:30:00 0.0
2016_12_27_S1 12/26/2016 18:35:00 0.0
2016_12_27_S1 12/26/2016 18:40:00 0.0
2016_12_27_S1 12/26/2016 18:45:00 0.0
2016_12_27_S1 12/26/2016 18:50:00 0.0
2016_12_27_S1 12/26/2016 18:55:00 0.0
2016_12_27_S1 12/26/2016 19:00:00 0.0
2016_12_27_S1 12/26/2016 19:05:00 0.0
2016_12_27_S1 12/26/2016 19:10:00 0.0
2016_12_27_S1 12/26/2016 19:15:00 0.0
2016_12_27_S1 12/26/2016 19:20:00 0.0
2016_12_27_S1 12/26/2016 19:25:00 0.0
2016_12_27_S1 12/26/2016 19:30:00 0.0
2016_12_27_S1 12/26/2016 19:35:00 0.0
2016_12_27_S1 12/26/2016 19:40:00 0.0
2016_12_27_S1 12/26/2016 19:45:00 0.0
2016_12_27_S1 12/26/2016 19:50:00 0.0
2016_12_27_S1 12/26/2016 19:55:00 0.0
2016_12_27_S1 12/26/2016 20:00:00 0.0
2016_12_27_S1 12/26/2016 20:05:00 0.0
2016_12_27_S1 12/26/2016 20:10:00 0.0
2016_12_27_S1 12/26/2016 20:15:00 0.0
2016_12_27_S1 12/26/2016 20:20:00 0.0
2016_12_27_S1 12/26/2016 20:25:00 0.0
2016_12_27_S1 12/26/2016 20:30:00 0.0
2016_12_27_S1 12/26/2016 20:35:00 0.0
2016_12_27_S1 12/26/2016 20:40:00 0.0
2016_12_27_S1 12/26/2016 20:45:00 0.0
2016_12_27_S1 12/26/2016 20:50:00 0.0
2016_12_27_S1 12/26/2016 20:55:00 0.0
2016_12_27_S1 12/26/2016 21:00:00 0.0
2016_12_27_S1 12/26/2016 21:05:00 0.0
2016_12_27_S1 12/26/2016 21:10:00 0.0
2016_12_27_S1 12/26/2016 21:15:00 0.0
2016_12_27_S1 12/26/2016 21:20:00 0.0
2016_12_27_S1 12/26/2016 21:25:00 0.0
2016_12_27_S1 12/26/2016 21:30:00 0.0
2016_12_27_S1 12/26/2016 21:35:00 0.0
2016_12_27_S1 12/26/2016 21:40:00 0.0
2016_12_27_S1 12/26/2016 21:45:00 0.0
2016_12_27_S1 12/26/2016 21:50:00 0.0
2016_12_27_S1 12/26/2016 21:55:00 0.0
2016_12_27_S1 12/26/2016 22:00:00 0.0
2016_12_27_S1 12/26/2016 22:05:00 0.0
2016_12_27_S1 12/26/2016 22:10:00 0.0
2016_12_27_S1 12/26/2016 22:15:00 0.0
2016_12_27_S1 12/26/2016 22:20:00 0.0
2016_12_27_S1 12/26/2016 22:25:00 0.0
2016_12_27_S1 12/26/2016 22:30:00 0.0
2016_12_27_S1 12/26/2016 22:35:00 0.0
2016_12_27_S1 12/26/2016 22:40:00 0.0
2016_12_27_S1 12/26/2016 22:45:00 0.0
2016_12_27_S1 12/26/2016 22:50:00 0.0
2016_12_27_S1 12/26/2016 22:55:00 0.0
2016_12_27_S1 12/26/2016 23:00:00 0.0
2016_12_27_S1 12/26/2016 23:05:00 0.0
2016_12_27_S1 12/26/2016 23:10:00 0.0
2016_12_27_S1 12/26/2016 23:15:00 0.0
2016_12_27_S1 12/26/2016 23:20:00 0.0
2016_12_27_S1 12/26/2016 23:25:00 0.0
2016_12_27_S1 12/26/2016 23:30:00 0.0
2016_12_27_S1 12/26/2016 23:35:00 0.0
2016_12_27_S1 12/26/2016 23:40:00 0.0
2016_12_27_S1 12/26/2016 23:45:00 0.0
2016_12_27_S1 12/26/2016 23:50:00 0.0
2016_12_27_S1 12/26/2016 23:55:00 0.0
2016_12_27_S1 12/27/2016 00:00:00 0.0
2016_12_27_S1 12/27/2016 00:05:00 0.0
2016_12_27_S1 12/27/2016 00:10:00 0.0
2016_12_27_S1 12/27/2016 00:15:00 0.0
2016_12_27_S1 12/27/2016 00:20:00 0.0
2016_12_27_S1 12/27/2016 00:25:00 0.0
2016_12_27_S1 12/27/2016 00:30:00 0.0
2016_12_27_S1 12/27/2016 00:35:00 0.0
2016_12_27_S1 12/27/2016 00:40:00 0.0
2016_12_27_S1 12/27/2016 00:45:00 0.0
2016_12_27_S1 12/27/2016 00:50:00 0.0
2016_12_27_S1 12/27/2016 00:55:00 0.0
2016_12_27_S1 12/27/2016 01:00:00 0.0
2016_12_27_S1 12/27/2016 01:05:00 0.0
2016_12_27_S1 12/27/2016 01:10:00 0.0045
2016_12_27_S1 12/27/2016 01:15:00 0.0689
2016_12_27_S1 12/27/2016 01:20:00 0.0203
2016_12_27_S1 12/27/2016 01:25:00 0.1428
2016_12_27_S1 12/27/2016 01:30:00 0.5333
2016_12_27_S1 12/27/2016 01:35:00 1.6819
2016_12_27_S1 12/27/2016 01:40:00 1.8553
2016_12_27_S1 12/27/2016 01:45:00 3.2033
2016_12_27_S1 12/27/2016 01:50:00 1.1883
2016_12_27_S1 12/27/2016 01:55:00 0.4905
2016_12_27_S1 12/27/2016 02:00:00 0.0855
2016_12_27_S1 12/27/2016 02:05:00 0.0266
2016_12_27_S1 12/27/2016 02:10:00 0.0143
2016_12_27_S1 12/27/2016 02:15:00 0.1551
2016_12_27_S1 12/27/2016 02:20:00 0.1461
2016_12_27_S1 12/27/2016 02:25:00 0.0913
2016_12_27_S1 12/27/2016 02:30:00 0.1276
2016_12_27_S1 12/27/2016 02:35:00 0.2133
2016_12_27_S1 12/27/2016 02:40:00 0.2487
2016_12_27_S1 12/27/2016 02:45:00 0.2607
2016_12_27_S1 12/27/2016 02:50:00 0.3351
2016_12_27_S1 12/27/2016 02:55:00 0.4097
2016_12_27_S1 12/27/2016 03:00:00 0.5239
2016_12_27_S1 12/27/2016 03:05:00 0.4829
2016_12_27_S1 12/27/2016 03:10:00 0.368
2016_12_27_S1 12/27/2016 03:15:00 0.6182
2016_12_27_S1 12/27/2016 03:20:00 1.1247
2016_12_27_S1 12/27/2016 03:25:00 0.7855
2016_12_27_S1 12/27/2016 03:30:00 0.5931
2016_12_27_S1 12/27/2016 03:35:00 0.3327
2016_12_27_S1 12/27/2016 03:40:00 0.2053
2016_12_27_S1 12/27/2016 03:45:00 0.1609
2016_12_27_S1 12/27/2016 03:50:00 0.1558
2016_12_27_S1 12/27/2016 03:55:00 0.3269
2016_12_27_S1 12/27/2016 04:00:00 0.1341
2016_12_27_S1 12/27/2016 04:05:00 0.1385
2016_12_27_S1 12/27/2016 04:10:00 0.2431
2016_12_27_S1 12/27/2016 04:15:00 0.0791
2016_12_27_S1 12/27/2016 04:20:00 0.0196
2016_12_27_S1 12/27/2016 04:25:00 0.0341
2016_12_27_S1 12/27/2016 04:30:00 0.0267
2016_12_27_S1 12/27/2016 04:35:00 0.073
2016_12_27_S1 12/27/2016 04:40:00 0.0536
2016_12_27_S1 12/27/2016 04:45:00 0.0445
2016_12_27_S1 12/27/2016 04:50:00 0.164
2016_12_27_S1 12/27/2016 04:55:00 0.5771
2016_12_27_S1 12/27/2016 05:00:00 0.2021
2016_12_27_S1 12/27/2016 05:05:00 0.1608
2016_12_27_S1 12/27/2016 05:10:00 0.1458
2016_12_27_S1 12/27/2016 05:15:00 0.2205
2016_12_27_S1 12/27/2016 05:20:00 0.0869
2016_12_27_S1 12/27/2016 05:25:00 0.0227
2016_12_27_S1 12/27/2016 05:30:00 0.0
2016_12_27_S1 12/27/2016 05:35:00 0.0
2016_12_27_S1 12/27/2016 05:40:00 0.0
2016_12_27_S1 12/27/2016 05:45:00 0.0
2016_12_27_S1 12/27/2016 05:50:00 0.0
2016_12_27_S1 12/27/2016 05:55:00 0.0
2016_12_27_S1 12/27/2016 06:00:00 0.0
2016_12_27_S1 12/27/2016 06:05:00 0.0014
2016_12_27_S1 12/27/2016 06:10:00 0.0
2016_12_27_S1 12/27/2016 06:15:00 0.0
2016_12_27_S1 12/27/2016 06:20:00 0.0
2016_12_27_S1 12/27/2016 06:25:00 0.0
2016_12_27_S1 12/27/2016 06:30:00 0.0
2016_12_27_S1 12/27/2016 06:35:00 0.0
2016_12_27_S1 12/27/2016 06:40:00 0.0266
2016_12_27_S1 12/27/2016 06:45:00 0.0556
2016_12_27_S1 12/27/2016 06:50:00 0.0455
2016_12_27_S1 12/27/2016 06:55:00 0.0503
2016_12_27_S1 12/27/2016 07:00:00 0.4841
2016_12_27_S1 12/27/2016 07:05:00 0.4392
2016_12_27_S1 12/27/2016 07:10:00 0.8698
2016_12_27_S1 12/27/2016 07:15:00 0.4123
2016_12_27_S1 12/27/2016 07:20:00 0.5016
2016_12_27_S1 12/27/2016 07:25:00 0.6304
2016_12_27_S1 12/27/2016 07:30:00 0.3329
2016_12_27_S1 12/27/2016 07:35:00 0.3289
2016_12_27_S1 12/27/2016 07:40:00 0.2323
2016_12_27_S1 12/27/2016 07:45:00 0.293
2016_12_27_S1 12/27/2016 07:50:00 0.8582
2016_12_27_S1 12/27/2016 07:55:00 1.4767
2016_12_27_S1 12/27/2016 08:00:00 0.4412
2016_12_27_S1 12/27/2016 08:05:00 0.1403
2016_12_27_S1 12/27/2016 08:10:00 0.3299
2016_12_27_S1 12/27/2016 08:15:00 0.217
2016_12_27_S1 12/27/2016 08:20:00 0.6318
2016_12_27_S1 12/27/2016 08:25:00 0.0678
2016_12_27_S1 12/27/2016 08:30:00 0.0927
2016_12_27_S1 12/27/2016 08:35:00 0.3345
2016_12_27_S1 12/27/2016 08:40:00 0.6592
2016_12_27_S1 12/27/2016 08:45:00 0.8075
2016_12_27_S1 12/27/2016 08:50:00 1.0926
2016_12_27_S1 12/27/2016 08:55:00 1.3949
2016_12_27_S1 12/27/2016 09:00:00 0.5231
2016_12_27_S1 12/27/2016 09:05:00 0.5885
2016_12_27_S1 12/27/2016 09:10:00 0.9219
2016_12_27_S1 12/27/2016 09:15:00 0.296
2016_12_27_S1 12/27/2016 09:20:00 1.3917
2016_12_27_S1 12/27/2016 09:25:00 1.1942
2016_12_27_S1 12/27/2016 09:30:00 0.1816
2016_12_27_S1 12/27/2016 09:35:00 0.1852
2016_12_27_S1 12/27/2016 09:40:00 0.4882
2016_12_27_S1 12/27/2016 09:45:00 0.5406
2016_12_27_S1 12/27/2016 09:50:00 0.1667
2016_12_27_S1 12/27/2016 09:55:00 0.0004
2016_12_27_S1 12/27/2016 10:00:00 0.0403
2016_12_27_S1 12/27/2016 10:05:00 0.3337
2016_12_27_S1 12/27/2016 10:10:00 0.8072
2016_12_27_S1 12/27/2016 10:15:00 0.2704
2016_12_27_S1 12/27/2016 10:20:00 0.0553
2016_12_27_S1 12/27/2016 10:25:00 0.2267
2016_12_27_S1 12/27/2016 10:30:00 0.0184
2016_12_27_S1 12/27/2016 10:35:00 0.0522
2016_12_27_S1 12/27/2016 10:40:00 0.0183
2016_12_27_S1 12/27/2016 10:45:00 1.0732
2016_12_27_S1 12/27/2016 10:50:00 0.297
2016_12_27_S1 12/27/2016 10:55:00 1.1959
2016_12_27_S1 12/27/2016 11:00:00 0.3023
2016_12_27_S1 12/27/2016 11:05:00 0.2892
2016_12_27_S1 12/27/2016 11:10:00 0.1147
2016_12_27_S1 12/27/2016 11:15:00 0.2725
2016_12_27_S1 12/27/2016 11:20:00 0.1991
2016_12_27_S1 12/27/2016 11:25:00 0.3514
2016_12_27_S1 12/27/2016 11:30:00 0.4258
2016_12_27_S1 12/27/2016 11:35:00 0.2258
2016_12_27_S1 12/27/2016 11:40:00 0.9331
2016_12_27_S1 12/27/2016 11:45:00 0.4366
2016_12_27_S1 12/27/2016 11:50:00 1.2474
2016_12_27_S1 12/27/2016 11:55:00 1.852
2016_12_27_S1 12/27/2016 12:00:00 0.2393
2016_12_27_S1 12/27/2016 12:05:00 0.2541
2016_12_27_S1 12/27/2016 12:10:00 0.6961
2016_12_27_S1 12/27/2016 12:15:00 0.2157
2016_12_27_S1 12/27/2016 12:20:00 0.0818
2016_12_27_S1 12/27/2016 12:25:00 0.1032
2016_12_27_S1 12/27/2016 12:30:00 0.2045
2016_12_27_S1 12/27/2016 12:35:00 0.0343
2016_12_27_S1 12/27/2016 12:40:00 0.0389
2016_12_27_S1 12/27/2016 12:45:00 0.0225
2016_12_27_S1 12/27/2016 12:50:00 0.0051
2016_12_27_S1 12/27/2016 12:55:00 0.0
2016_12_27_S1 12/27/2016 13:00:00 0.0305
2016_12_27_S1 12/27/2016 13:05:00 0.0092
2016_12_27_S1 12/27/2016 13:10:00 0.0
2016_12_27_S1 12/27/2016 13:15:00 0.0
2016_12_27_S1 12/27/2016 13:20:00 0.0
2016_12_27_S1 12/27/2016 13:25:00 0.0011
2016_12_27_S1 12/27/2016 13:30:00 0.1952
2016_12_27_S1 12/27/2016 13:35:00 0.1887
2016_12_27_S1 12/27/2016 13:40:00 0.1786
2016_12_27_S1 12/27/2016 13:45:00 0.1097
2016_12_27_S1 12/27/2016 13:50:00 0.1437
2016_12_27_S1 12/27/2016 13:55:00 0.0144
2016_12_27_S1 12/27/2016 14:00:00 0.033
2016_12_27_S1 12/27/2016 14:05:00 0.095
2016_12_27_S1 12/27/2016 14:10:00 0.023
2016_12_27_S1 12/27/2016 14:15:00 0.0037
2016_12_27_S1 12/27/2016 14:20:00 0.0174
2016_12_27_S1 12/27/2016 14:25:00 0.0152
2016_12_27_S1 12/27/2016 14:30:00 0.0023
2016_12_27_S1 12/27/2016 14:35:00 0.0
2016_12_27_S1 12/27/2016 14:40:00 0.0116
2016_12_27_S1 12/27/2016 14:45:00 0.0
2016_12_27_S1 12/27/2016 14:50:00 0.0
2016_12_27_S1 12/27/2016 14:55:00 0.0
2016_12_27_S1 12/27/2016 15:00:00 0.0
2016_12_27_S1 12/27/2016 15:05:00 0.0
2016_12_27_S1 12/27/2016 15:10:00 0.0
2016_12_27_S1 12/27/2016 15:15:00 0.0
2016_12_27_S1 12/27/2016 15:20:00 0.0
2016_12_27_S1 12/27/2016 15:25:00 0.0
2016_12_27_S1 12/27/2016 15:30:00 0.0
2016_12_27_S1 12/27/2016 15:35:00 0.0
2016_12_27_S1 12/27/2016 15:40:00 0.0
2016_12_27_S1 12/27/2016 15:45:00 0.0
2016_12_27_S1 12/27/2016 15:50:00 0.0
2016_12_27_S1 12/27/2016 15:55:00 0.0011
2016_12_27_S1 12/27/2016 16:00:00 0.3528
2016_12_27_S1 12/27/2016 16:05:00 0.0036
2016_12_27_S1 12/27/2016 16:10:00 0.0
2016_12_27_S1 12/27/2016 16:15:00 0.0016
2016_12_27_S1 12/27/2016 16:20:00 0.0454
2016_12_27_S1 12/27/2016 16:25:00 0.0
2016_12_27_S1 12/27/2016 16:30:00 0.0
2016_12_27_S1 12/27/2016 16:35:00 0.0022
2016_12_27_S1 12/27/2016 16:40:00 0.0296
2016_12_27_S1 12/27/2016 16:45:00 0.0
2016_12_27_S1 12/27/2016 16:50:00 0.0
2016_12_27_S1 12/27/2016 16:55:00 0.0
2016_12_27_S1 12/27/2016 17:00:00 0.0
2016_12_27_S1 12/27/2016 17:05:00 0.0
2016_12_27_S1 12/27/2016 17:10:00 0.0
2016_12_27_S1 12/27/2016 17:15:00 0.0
2016_12_27_S1 12/27/2016 17:20:00 0.0
2016_12_27_S1 12/27/2016 17:25:00 0.0
2016_12_27_S1 12/27/2016 17:30:00 0.0
2016_12_27_S1 12/27/2016 17:35:00 0.0
2016_12_27_S1 12/27/2016 17:40:00 0.0345
2016_12_27_S1 12/27/2016 17:45:00 0.1706
2016_12_27_S1 12/27/2016 17:50:00 0.0385
2016_12_27_S1 12/27/2016 17:55:00 0.0033
2016_12_27_S1 12/27/2016 18:00:00 0.0017
2016_12_27_S1 12/27/2016 18:05:00 0.0011
2016_12_27_S1 12/27/2016 18:10:00 0.0
2016_12_27_S1 12/27/2016 18:15:00 0.0
2016_12_27_S1 12/27/2016 18:20:00 0.0356
2016_12_27_S1 12/27/2016 18:25:00 0.0215
2016_12_27_S1 12/27/2016 18:30:00 0.0131
2016_12_27_S1 12/27/2016 18:35:00 0.0314
2016_12_27_S1 12/27/2016 18:40:00 0.0052
2016_12_27_S1 12/27/2016 18:45:00 0.0
2016_12_27_S1 12/27/2016 18:50:00 0.0
2016_12_27_S1 12/27/2016 18:55:00 0.0
2016_12_27_S1 12/27/2016 19:00:00 0.0
2016_12_27_S1 12/27/2016 19:05:00 0.0012
2016_12_27_S1 12/27/2016 19:10:00 0.057
2016_12_27_S1 12/27/2016 19:15:00 0.0
2016_12_27_S1 12/27/2016 19:20:00 0.0
2016_12_27_S1 12/27/2016 19:25:00 0.0
2016_12_27_S1 12/27/2016 19:30:00 0.0232
2016_12_27_S1 12/27/2016 19:35:00 1.3761
2016_12_27_S1 12/27/2016 19:40:00 0.7189
2016_12_27_S1 12/27/2016 19:45:00 1.2152
2016_12_27_S1 12/27/2016 19:50:00 0.4216
2016_12_27_S1 12/27/2016 19:55:00 0.1338
2016_12_27_S1 12/27/2016 20:00:00 0.0706
2016_12_27_S1 12/27/2016 20:05:00 0.0
2016_12_27_S1 12/27/2016 20:10:00 0.0
2016_12_27_S1 12/27/2016 20:15:00 0.0
2016_12_27_S1 12/27/2016 20:20:00 0.0
2016_12_27_S1 12/27/2016 20:25:00 0.0
2016_12_27_S1 12/27/2016 20:30:00 0.0
2016_12_27_S1 12/27/2016 20:35:00 0.0
2016_12_27_S1 12/27/2016 20:40:00 0.0
2016_12_27_S1 12/27/2016 20:45:00 0.0
2016_12_27_S1 12/27/2016 20:50:00 0.0
2016_12_27_S1 12/27/2016 20:55:00 0.0
2016_12_27_S1 12/27/2016 21:00:00 0.0
2016_12_27_S1 12/27/2016 21:05:00 0.0
2016_12_27_S1 12/27/2016 21:10:00 0.0
2016_12_27_S1 12/27/2016 21:15:00 0.0
2016_12_27_S1 12/27/2016 21:20:00 0.0
2016_12_27_S1 12/27/2016 21:25:00 0.0
2016_12_27_S1 12/27/2016 21:30:00 0.0
2016_12_27_S1 12/27/2016 21:35:00 0.0
2016_12_27_S1 12/27/2016 21:40:00 0.0
2016_12_27_S1 12/27/2016 21:45:00 0.0
2016_12_27_S1 12/27/2016 21:50:00 0.0
2016_12_27_S1 12/27/2016 21:55:00 0.0
2016_12_27_S1 12/27/2016 22:00:00 0.0896
2016_12_27_S1 12/27/2016 22:05:00 0.0055
2016_12_27_S1 12/27/2016 22:10:00 0.1255
2016_12_27_S1 12/27/2016 22:15:00 0.0966
2016_12_27_S1 12/27/2016 22:20:00 0.0
2016_12_27_S1 12/27/2016 22:25:00 0.0123
2016_12_27_S1 12/27/2016 22:30:00 0.1298
2016_12_27_S1 12/27/2016 22:35:00 0.2609
2016_12_27_S1 12/27/2016 22:40:00 0.0014
2016_12_27_S1 12/27/2016 22:45:00 0.0
2016_12_27_S1 12/27/2016 22:50:00 0.0
2016_12_27_S1 12/27/2016 22:55:00 0.0038
2016_12_27_S1 12/27/2016 23:00:00 0.0
2016_12_27_S1 12/27/2016 23:05:00 0.0
2016_12_27_S1 12/27/2016 23:10:00 0.0004
2016_12_27_S1 12/27/2016 23:15:00 0.0
2016_12_27_S1 12/27/2016 23:20:00 0.0169
2016_12_27_S1 12/27/2016 23:25:00 0.0033
2016_12_27_S1 12/27/2016 23:30:00 0.0
2016_12_27_S1 12/27/2016 23:35:00 0.0028
2016_12_27_S1 12/27/2016 23:40:00 0.0
2016_12_27_S1 12/27/2016 23:45:00 0.0
2016_12_27_S1 12/27/2016 23:50:00 0.0
2016_12_27_S1 12/27/2016 23:55:00 0.0
2016_12_27_S1 12/28/2016 00:00:00 0.0
2016_12_27_S1 12/28/2016 00:05:00 0.0
2016_12_27_S1 12/28/2016 00:10:00 0.0
2016_12_27_S1 12/28/2016 00:15:00 0.0
2016_12_27_S1 12/28/2016 00:20:00 0.0
2016_12_27_S1 12/28/2016 00:25:00 0.0
2016_12_27_S1 12/28/2016 00:30:00 0.0
2016_12_27_S1 12/28/2016 00:35:00 0.0
2016_12_27_S1 12/28/2016 00:40:00 0.0
2016_12_27_S1 12/28/2016 00:45:00 0.0
2016_12_27_S1 12/28/2016 00:50:00 0.0
2016_12_27_S1 12/28/2016 00:55:00 0.0
2016_12_27_S1 12/28/2016 01:00:00 0.0
2016_12_27_S1 12/28/2016 01:05:00 0.0
2016_12_27_S1 12/28/2016 01:10:00 0.0
2016_12_27_S1 12/28/2016 01:15:00 0.0
2016_12_27_S1 12/28/2016 01:20:00 0.0
2016_12_27_S1 12/28/2016 01:25:00 0.0
2016_12_27_S1 12/28/2016 01:30:00 0.0
2016_12_27_S1 12/28/2016 01:35:00 0.0
2016_12_27_S1 12/28/2016 01:40:00 0.0
2016_12_27_S1 12/28/2016 01:45:00 0.0
2016_12_27_S1 12/28/2016 01:50:00 0.0
2016_12_27_S1 12/28/2016 01:55:00 0.0
2016_12_27_S1 12/28/2016 02:00:00 0.0
2016_12_27_S1 12/28/2016 02:05:00 0.0
2016_12_27_S1 12/28/2016 02:10:00 0.0
2016_12_27_S1 12/28/2016 02:15:00 0.0
2016_12_27_S1 12/28/2016 02:20:00 0.0
2016_12_27_S1 12/28/2016 02:25:00 0.0
2016_12_27_S1 12/28/2016 02:30:00 0.0
2016_12_27_S1 12/28/2016 02:35:00 0.0
2016_12_27_S1 12/28/2016 02:40:00 0.0
2016_12_27_S1 12/28/2016 02:45:00 0.0
2016_12_27_S1 12/28/2016 02:50:00 0.0
2016_12_27_S1 12/28/2016 02:55:00 0.0
2016_12_27_S1 12/28/2016 03:00:00 0.0
2016_12_27_S1 12/28/2016 03:05:00 0.0
2016_12_27_S1 12/28/2016 03:10:00 0.0
2016_12_27_S1 12/28/2016 03:15:00 0.0
2016_12_27_S1 12/28/2016 03:20:00 0.0
2016_12_27_S1 12/28/2016 03:25:00 0.0
2016_12_27_S1 12/28/2016 03:30:00 0.0
2016_12_27_S1 12/28/2016 03:35:00 0.0
2016_12_27_S1 12/28/2016 03:40:00 0.0
2016_12_27_S1 12/28/2016 03:45:00 0.0
2016_12_27_S1 12/28/2016 03:50:00 0.0
2016_12_27_S1 12/28/2016 03:55:00 0.0
2016_12_27_S1 12/28/2016 04:00:00 0.0
2016_12_27_S1 12/28/2016 04:05:00 0.0
2016_12_27_S1 12/28/2016 04:10:00 0.0
2016_12_27_S1 12/28/2016 04:15:00 0.0
2016_12_27_S1 12/28/2016 04:20:00 0.0
2016_12_27_S1 12/28/2016 04:25:00 0.0
2016_12_27_S1 12/28/2016 04:30:00 0.0
2016_12_27_S1 12/28/2016 04:35:00 0.0
2016_12_27_S1 12/28/2016 04:40:00 0.0
2016_12_27_S1 12/28/2016 04:45:00 0.0
2016_12_27_S1 12/28/2016 04:50:00 0.0
2016_12_27_S1 12/28/2016 04:55:00 0.0
2016_12_27_S1 12/28/2016 05:00:00 0.0
2016_12_27_S1 12/28/2016 05:05:00 0.0
2016_12_27_S1 12/28/2016 05:10:00 0.0
2016_12_27_S1 12/28/2016 05:15:00 0.0
2016_12_27_S1 12/28/2016 05:20:00 0.0
2016_12_27_S1 12/28/2016 05:25:00 0.0
2016_12_27_S1 12/28/2016 05:30:00 0.0
2016_12_27_S1 12/28/2016 05:35:00 0.0
2016_12_27_S1 12/28/2016 05:40:00 0.0
2016_12_27_S1 12/28/2016 05:45:00 0.0
2016_12_27_S1 12/28/2016 05:50:00 0.0
2016_12_27_S1 12/28/2016 05:55:00 0.0
2016_12_27_S1 12/28/2016 06:00:00 0.0
2016_12_27_S1 12/28/2016 06:05:00 0.0
2016_12_27_S1 12/28/2016 06:10:00 0.0
2016_12_27_S1 12/28/2016 06:15:00 0.0
2016_12_27_S1 12/28/2016 06:20:00 0.0
2016_12_27_S1 12/28/2016 06:25:00 0.0
2016_12_27_S1 12/28/2016 06:30:00 0.0
2016_12_27_S1 12/28/2016 06:35:00 0.0
2016_12_27_S1 12/28/2016 06:40:00 0.0
2016_12_27_S1 12/28/2016 06:45:00 0.0
2016_12_27_S1 12/28/2016 06:50:00 0.0
2016_12_27_S1 12/28/2016 06:55:00 0.0
2016_12_27_S1 12/28/2016 07:00:00 0.0
2016_12_27_S1 12/28/2016 07:05:00 0.0
2016_12_27_S1 12/28/2016 07:10:00 0.0
2016_12_27_S1 12/28/2016 07:15:00 0.0
2016_12_27_S1 12/28/2016 07:20:00 0.0
2016_12_27_S1 12/28/2016 07:25:00 0.0
2016_12_27_S1 12/28/2016 07:30:00 0.0
2016_12_27_S1 12/28/2016 07:35:00 0.0
2016_12_27_S1 12/28/2016 07:40:00 0.0
2016_12_27_S1 12/28/2016 07:45:00 0.0
2016_12_27_S1 12/28/2016 07:50:00 0.0
2016_12_27_S1 12/28/2016 07:55:00 0.0
2016_12_27_S1 12/28/2016 08:00:00 0.0

2016_12_27_S2 12/26/2016 08:00:00 0.0
2016_12_27_S2 12/26/2016 08:05:00 0.0
2016_12_27_S2 12/26/2016 08:10:00 0.0
2016_12_27_S2 12/26/2016 08:15:00 0.0
2016_12_27_S2 12/26/2016 08:20:00 0.0
2016_12_27_S2 12/26/2016 08:25:00 0.0
2016_12_27_S2 12/26/2016 08:30:00 0.0
2016_12_27_S2 12/26/2016 08:35:00 0.0
2016_12_27_S2 12/26/2016 08:40:00 0.0
2016_12_27_S2 12/26/2016 08:45:00 0.0
2016_12_27_S2 12/26/2016 08:50:00 0.0
2016_12_27_S2 12/26/2016 08:55:00 0.0
2016_12_27_S2 12/26/2016 09:00:00 0.0
2016_12_27_S2 12/26/2016 09:05:00 0.0
2016_12_27_S2 12/26/2016 09:10:00 0.0181
2016_12_27_S2 12/26/2016 09:15:00 0.0011
2016_12_27_S2 12/26/2016 09:20:00 0.0056
2016_12_27_S2 12/26/2016 09:25:00 0.0197
2016_12_27_S2 12/26/2016 09:30:00 0.0104
2016_12_27_S2 12/26/2016 09:35:00 0.0
2016_12_27_S2 12/26/2016 09:40:00 0.0
2016_12_27_S2 12/26/2016 09:45:00 0.0
2016_12_27_S2 12/26/2016 09:50:00 0.0
2016_12_27_S2 12/26/2016 09:55:00 0.0
2016_12_27_S2 12/26/2016 10:00:00 0.0
2016_12_27_S2 12/26/2016 10:05:00 0.0
2016_12_27_S2 12/26/2016 10:10:00 0.0
2016_12_27_S2 12/26/2016 10:15:00 0.0
2016_12_27_S2 12/26/2016 10:20:00 0.0275
2016_12_27_S2 12/26/2016 10:25:00 0.0041
2016_12_27_S2 12/26/2016 10:30:00 0.0
2016_12_27_S2 12/26/2016 10:35:00 0.0
2016_12_27_S2 12/26/2016 10:40:00 0.0
2016_12_27_S2 12/26/2016 10:45:00 0.0
2016_12_27_S2 12/26/2016 10:50:00 0.0
2016_12_27_S2 12/26/2016 10:55:00 0.0
2016_12_27_S2 12/26/2016 11:00:00 0.0
2016_12_27_S2 12/26/2016 11:05:00 0.0
2016_12_27_S2 12/26/2016 11:10:00 0.0
2016_12_27_S2 12/26/2016 11:15:00 0.0
2016_12_27_S2 12/26/2016 11:20:00 0.0
2016_12_27_S2 12/26/2016 11:25:00 0.0
2016_12_27_S2 12/26/2016 11:30:00 0.0
2016_12_27_S2 12/26/2016 11:35:00 0.0
2016_12_27_S2 12/26/2016 11:40:00 0.0
2016_12_27_S2 12/26/2016 11:45:00 0.0
2016_12_27_S2 12/26/2016 11:50:00 0.0
2016_12_27_S2 12/26/2016 11:55:00 0.002
2016_12_27_S2 12/26/2016 12:00:00 0.2097
2016_12_27_S2 12/26/2016 12:05:00 0.0341
2016_12_27_S2 12/26/2016 12:10:00 0.0762
2016_12_27_S2 12/26/2016 12:15:00 0.0398
2016_12_27_S2 12/26/2016 12:20:00 0.0
2016_12_27_S2 12/26/2016 12:25:00 0.0
2016_12_27_S2 12/26/2016 12:30:00 0.0
2016_12_27_S2 12/26/2016 12:35:00 0.0
2016_12_27_S2 12/26/2016 12:40:00 0.028
2016_12_27_S2 12/26/2016 12:45:00 0.0429
2016_12_27_S2 12/26/2016 12:50:00 0.0054
2016_12_27_S2 12/26/2016 12:55:00 0.0
2016_12_27_S2 12/26/2016 13:00:00 0.0
2016_12_27_S2 12/26/2016 13:05:00 0.0041
2016_12_27_S2 12/26/2016 13:10:00 0.0
2016_12_27_S2 12/26/2016 13:15:00 0.0
2016_12_27_S2 12/26/2016 13:20:00 0.0
2016_12_27_S2 12/26/2016 13:25:00 0.0
2016_12_27_S2 12/26/2016 13:30:00 0.0
2016_12_27_S2 12/26/2016 13:35:00 0.0
2016_12_27_S2 12/26/2016 13:40:00 0.0
2016_12_27_S2 12/26/2016 13:45:00 0.0
2016_12_27_S2 12/26/2016 13:50:00 0.0
2016_12_27_S2 12/26/2016 13:55:00 0.0
2016_12_27_S2 12/26/2016 14:00:00 0.0
2016_12_27_S2 12/26/2016 14:05:00 0.0
2016_12_27_S2 12/26/2016 14:10:00 0.0
2016_12_27_S2 12/26/2016 14:15:00 0.0
2016_12_27_S2 12/26/2016 14:20:00 0.0
2016_12_27_S2 12/26/2016 14:25:00 0.0
2016_12_27_S2 12/26/2016 14:30:00 0.0
2016_12_27_S2 12/26/2016 14:35:00 0.0
2016_12_27_S2 12/26/2016 14:40:00 0.0
2016_12_27_S2 12/26/2016 14:45:00 0.0
2016_12_27_S2 12/26/2016 14:50:00 0.0
2016_12_27_S2 12/26/2016 14:55:00 0.0
2016_12_27_S2 12/26/2016 15:00:00 0.0
2016_12_27_S2 12/26/2016 15:05:00 0.0
2016_12_27_S2 12/26/2016 15:10:00 0.0
2016_12_27_S2 12/26/2016 15:15:00 0.0
2016_12_27_S2 12/26/2016 15:20:00 0.0
2016_12_27_S2 12/26/2016 15:25:00 0.0
2016_12_27_S2 12/26/2016 15:30:00 0.0
2016_12_27_S2 12/26/2016 15:35:00 0.0
2016_12_27_S2 12/26/2016 15:40:00 0.0
2016_12_27_S2 12/26/2016 15:45:00 0.0
2016_12_27_S2 12/26/2016 15:50:00 0.0
2016_12_27_S2 12/26/2016 15:55:00 0.0
2016_12_27_S2 12/26/2016 16:00:00 0.0
2016_12_27_S2 12/26/2016 16:05:00 0.0
2016_12_27_S2 12/26/2016 16:10:00 0.0
2016_12_27_S2 12/26/2016 16:15:00 0.0
2016_12_27_S2 12/26/2016 16:20:00 0.0
2016_12_27_S2 12/26/2016 16:25:00 0.0
2016_12_27_S2 12/26/2016 16:30:00 0.0
2016_12_27_S2 12/26/2016 16:35:00 0.0
2016_12_27_S2 12/26/2016 16:40:00 0.0
2016_12_27_S2 12/26/2016 16:45:00 0.0
2016_12_27_S2 12/26/2016 16:50:00 0.0
2016_12_27_S2 12/26/2016 16:55:00 0.0
2016_12_27_S2 12/26/2016 17:00:00 0.0
2016_12_27_S2 12/26/2016 17:05:00 0.0
2016_12_27_S2 12/26/2016 17:10:00 0.0
2016_12_27_S2 12/26/2016 17:15:00 0.0
2016_12_27_S2 12/26/2016 17:20:00 0.0
2016_12_27_S2 12/26/2016 17:25:00 0.0
2016_12_27_S2 12/26/2016 17:30:00 0.0
2016_12_27_S2 12/26/2016 17:35:00 0.0
2016_12_27_S2 12/26/2016 17:40:00 0.0
2016_12_27_S2 12/26/2016 17:45:00 0.0
2016_12_27_S2 12/26/2016 17:50:00 0.0
2016_12_27_S2 12/26/2016 17:55:00 0.0
2016_12_27_S2 12/26/2016 18:00:00 0.0
2016_12_27_S2 12/26/2016 18:05:00 0.0
2016_12_27_S2 12/26/2016 18:10:00 0.0
2016_12_27_S2 12/26/2016 18:15:00 0.0
2016_12_27_S2 12/26/2016 18:20:00 0.0
2016_12_27_S2 12/26/2016 18:25:00 0.0
2016_12_27_S2 12/26/2016 18:30:00 0.0
2016_12_27_S2 12/26/2016 18:35:00 0.0
2016_12_27_S2 12/26/2016 18:40:00 0.0
2016_12_27_S2 12/26/2016 18:45:00 0.0
2016_12_27_S2 12/26/2016 18:50:00 0.0
2016_12_27_S2 12/26/2016 18:55:00 0.0
2016_12_27_S2 12/26/2016 19:00:00 0.0
2016_12_27_S2 12/26/2016 19:05:00 0.0
2016_12_27_S2 12/26/2016 19:10:00 0.0
2016_12_27_S2 12/26/2016 19:15:00 0.0
2016_12_27_S2 12/26/2016 19:20:00 0.0
2016_12_27_S2 12/26/2016 19:25:00 0.0
2016_12_27_S2 12/26/2016 19:30:00 0.0
2016_12_27_S2 12/26/2016 19:35:00 0.0
2016_12_27_S2 12/26/2016 19:40:00 0.0
2016_12_27_S2 12/26/2016 19:45:00 0.0
2016_12_27_S2 12/26/2016 19:50:00 0.0
2016_12_27_S2 12/26/2016 19:55:00 0.0
2016_12_27_S2 12/26/2016 20:00:00 0.0
2016_12_27_S2 12/26/2016 20:05:00 0.0
2016_12_27_S2 12/26/2016 20:10:00 0.0
2016_12_27_S2 12/26/2016 20:15:00 0.0
2016_12_27_S2 12/26/2016 20:20:00 0.0
2016_12_27_S2 12/26/2016 20:25:00 0.0
2016_12_27_S2 12/26/2016 20:30:00 0.0
2016_12_27_S2 12/26/2016 20:35:00 0.0
2016_12_27_S2 12/26/2016 20:40:00 0.0
2016_12_27_S2 12/26/2016 20:45:00 0.0
2016_12_27_S2 12/26/2016 20:50:00 0.0
2016_12_27_S2 12/26/2016 20:55:00 0.0
2016_12_27_S2 12/26/2016 21:00:00 0.0
2016_12_27_S2 12/26/2016 21:05:00 0.0
2016_12_27_S2 12/26/2016 21:10:00 0.0
2016_12_27_S2 12/26/2016 21:15:00 0.0
2016_12_27_S2 12/26/2016 21:20:00 0.0
2016_12_27_S2 12/26/2016 21:25:00 0.0
2016_12_27_S2 12/26/2016 21:30:00 0.0
2016_12_27_S2 12/26/2016 21:35:00 0.0
2016_12_27_S2 12/26/2016 21:40:00 0.0
2016_12_27_S2 12/26/2016 21:45:00 0.0
2016_12_27_S2 12/26/2016 21:50:00 0.0
2016_12_27_S2 12/26/2016 21:55:00 0.0
2016_12_27_S2 12/26/2016 22:00:00 0.0
2016_12_27_S2 12/26/2016 22:05:00 0.0
2016_12_27_S2 12/26/2016 22:10:00 0.0
2016_12_27_S2 12/26/2016 22:15:00 0.0
2016_12_27_S2 12/26/2016 22:20:00 0.0
2016_12_27_S2 12/26/2016 22:25:00 0.0
2016_12_27_S2 12/26/2016 22:30:00 0.0
2016_12_27_S2 12/26/2016 22:35:00 0.0
2016_12_27_S2 12/26/2016 22:40:00 0.0
2016_12_27_S2 12/26/2016 22:45:00 0.0
2016_12_27_S2 12/26/2016 22:50:00 0.0
2016_12_27_S2 12/26/2016 22:55:00 0.0
2016_12_27_S2 12/26/2016 23:00:00 0.0
2016_12_27_S2 12/26/2016 23:05:00 0.0
2016_12_27_S2 12/26/2016 23:10:00 0.0
2016_12_27_S2 12/26/2016 23:15:00 0.0
2016_12_27_S2 12/26/2016 23:20:00 0.0
2016_12_27_S2 12/26/2016 23:25:00 0.0
2016_12_27_S2 12/26/2016 23:30:00 0.0
2016_12_27_S2 12/26/2016 23:35:00 0.0
2016_12_27_S2 12/26/2016 23:40:00 0.0
2016_12_27_S2 12/26/2016 23:45:00 0.0
2016_12_27_S2 12/26/2016 23:50:00 0.0
2016_12_27_S2 12/26/2016 23:55:00 0.0
2016_12_27_S2 12/27/2016 00:00:00 0.0
2016_12_27_S2 12/27/2016 00:05:00 0.0
2016_12_27_S2 12/27/2016 00:10:00 0.0
2016_12_27_S2 12/27/2016 00:15:00 0.0
2016_12_27_S2 12/27/2016 00:20:00 0.0
2016_12_27_S2 12/27/2016 00:25:00 0.0
2016_12_27_S2 12/27/2016 00:30:00 0.0
2016_12_27_S2 12/27/2016 00:35:00 0.0
2016_12_27_S2 12/27/2016 00:40:00 0.0
2016_12_27_S2 12/27/2016 00:45:00 0.0
2016_12_27_S2 12/27/2016 00:50:00 0.0
2016_12_27_S2 12/27/2016 00:55:00 0.0
2016_12_27_S2 12/27/2016 01:00:00 0.0
2016_12_27_S2 12/27/2016 01:05:00 0.0
2016_12_27_S2 12/27/2016 01:10:00 0.0065
2016_12_27_S2 12/27/2016 01:15:00 0.0531
2016_12_27_S2 12/27/2016 01:20:00 0.0134
2016_12_27_S2 12/27/2016 01:25:00 0.188
2016_12_27_S2 12/27/2016 01:30:00 0.7457
2016_12_27_S2 12/27/2016 01:35:00 1.5515
2016_12_27_S2 12/27/2016 01:40:00 2.0112
2016_12_27_S2 12/27/2016 01:45:00 2.1407
2016_12_27_S2 12/27/2016 01:50:00 1.3309
2016_12_27_S2 12/27/2016 01:55:00 0.6002
2016_12_27_S2 12/27/2016 02:00:00 0.0633
2016_12_27_S2 12/27/2016 02:05:00 0.0311
2016_12_27_S2 12/27/2016 02:10:00 0.0151
2016_12_27_S2 12/27/2016 02:15:00 0.1708
2016_12_27_S2 12/27/2016 02:20:00 0.1293
2016_12_27_S2 12/27/2016 02:25:00 0.1013
2016_12_27_S2 12/27/2016 02:30:00 0.1227
2016_12_27_S2 12/27/2016 02:35:00 0.2306
2016_12_27_S2 12/27/2016 02:40:00 0.3844
2016_12_27_S2 12/27/2016 02:45:00 0.2314
2016_12_27_S2 12/27/2016 02:50:00 0.2966
2016_12_27_S2 12/27/2016 02:55:00 0.3986
2016_12_27_S2 12/27/2016 03:00:00 0.4536
2016_12_27_S2 12/27/2016 03:05:00 0.3472
2016_12_27_S2 12/27/2016 03:10:00 0.3982
2016_12_27_S2 12/27/2016 03:15:00 0.6255
2016_12_27_S2 12/27/2016 03:20:00 1.1707
2016_12_27_S2 12/27/2016 03:25:00 0.6636
2016_12_27_S2 12/27/2016 03:30:00 0.619
2016_12_27_S2 12/27/2016 03:35:00 0.3497
2016_12_27_S2 12/27/2016 03:40:00 0.235
2016_12_27_S2 12/27/2016 03:45:00 0.1732
2016_12_27_S2 12/27/2016 03:50:00 0.1572
2016_12_27_S2 12/27/2016 03:55:00 0.3107
2016_12_27_S2 12/27/2016 04:00:00 0.1678
2016_12_27_S2 12/27/2016 04:05:00 0.1327
2016_12_27_S2 12/27/2016 04:10:00 0.2242
2016_12_27_S2 12/27/2016 04:15:00 0.091
2016_12_27_S2 12/27/2016 04:20:00 0.0187
2016_12_27_S2 12/27/2016 04:25:00 0.0444
2016_12_27_S2 12/27/2016 04:30:00 0.0251
2016_12_27_S2 12/27/2016 04:35:00 0.0731
2016_12_27_S2 12/27/2016 04:40:00 0.0528
2016_12_27_S2 12/27/2016 04:45:00 0.0441
2016_12_27_S2 12/27/2016 04:50:00 0.1569
2016_12_27_S2 12/27/2016 04:55:00 0.6325
2016_12_27_S2 12/27/2016 05:00:00 0.2502
2016_12_27_S2 12/27/2016 05:05:00 0.1282
2016_12_27_S2 12/27/2016 05:10:00 0.1836
2016_12_27_S2 12/27/2016 05:15:00 0.2228
2016_12_27_S2 12/27/2016 05:20:00 0.0881
2016_12_27_S2 12/27/2016 05:25:00 0.0156
2016_12_27_S2 12/27/2016 05:30:00 0.0
2016_12_27_S2 12/27/2016 05:35:00 0.0
2016_12_27_S2 12/27/2016 05:40:00 0.0
2016_12_27_S2 12/27/2016 05:45:00 0.0
2016_12_27_S2 12/27/2016 05:50:00 0.0
2016_12_27_S2 12/27/2016 05:55:00 0.0
2016_12_27_S2 12/27/2016 06:00:00 0.0
2016_12_27_S2 12/27/2016 06:05:00 0.0013
2016_12_27_S2 12/27/2016 06:10:00 0.0
2016_12_27_S2 12/27/2016 06:15:00 0.0
2016_12_27_S2 12/27/2016 06:20:00 0.0
2016_12_27_S2 12/27/2016 06:25:00 0.0
2016_12_27_S2 12/27/2016 06:30:00 0.0
2016_12_27_S2 12/27/2016 06:35:00 0.0
2016_12_27_S2 12/27/2016 06:40:00 0.0172
2016_12_27_S2 12/27/2016 06:45:00 0.0301
2016_12_27_S2 12/27/2016 06:50:00 0.0228
2016_12_27_S2 12/27/2016 06:55:00 0.063
2016_12_27_S2 12/27/2016 07:00:00 0.426
2016_12_27_S2 12/27/2016 07:05:00 0.3401
2016_12_27_S2 12/27/2016 07:10:00 0.9264
2016_12_27_S2 12/27/2016 07:15:00 0.4874
2016_12_27_S2 12/27/2016 07:20:00 0.4526
2016_12_27_S2 12/27/2016 07:25:00 0.3909
2016_12_27_S2 12/27/2016 07:30:00 0.3599
2016_12_27_S2 12/27/2016 07:35:00 0.3374
2016_12_27_S2 12/27/2016 07:40:00 0.2047
2016_12_27_S2 12/27/2016 07:45:00 0.2479
2016_12_27_S2 12/27/2016 07:50:00 1.0499
2016_12_27_S2 12/27/2016 07:55:00 1.3051
2016_12_27_S2 12/27/2016 08:00:00 0.4517
2016_12_27_S2 12/27/2016 08:05:00 0.1231
2016_12_27_S2 12/27/2016 08:10:00 0.3573
2016_12_27_S2 12/27/2016 08:15:00 0.2026
2016_12_27_S2 12/27/2016 08:20:00 0.4897
2016_12_27_S2 12/27/2016 08:25:00 0.1008
2016_12_27_S2 12/27/2016 08:30:00 0.0848
2016_12_27_S2 12/27/2016 08:35:00 0.2962
2016_12_27_S2 12/27/2016 08:40:00 0.4672
2016_12_27_S2 12/27/2016 08:45:00 0.8892
2016_12_27_S2 12/27/2016 08:50:00 1.5042
2016_12_27_S2 12/27/2016 08:55:00 1.1483
2016_12_27_S2 12/27/2016 09:00:00 0.5511
2016_12_27_S2 12/27/2016 09:05:00 0.6853
2016_12_27_S2 12/27/2016 09:10:00 0.9752
2016_12_27_S2 12/27/2016 09:15:00 0.3317
2016_12_27_S2 12/27/2016 09:20:00 1.3478
2016_12_27_S2 12/27/2016 09:25:00 1.3497
2016_12_27_S2 12/27/2016 09:30:00 0.1745
2016_12_27_S2 12/27/2016 09:35:00 0.2037
2016_12_27_S2 12/27/2016 09:40:00 0.5903
2016_12_27_S2 12/27/2016 09:45:00 0.4174
2016_12_27_S2 12/27/2016 09:50:00 0.1774
2016_12_27_S2 12/27/2016 09:55:00 0.0
2016_12_27_S2 12/27/2016 10:00:00 0.0113
2016_12_27_S2 12/27/2016 10:05:00 0.298
2016_12_27_S2 12/27/2016 10:10:00 0.6571
2016_12_27_S2 12/27/2016 10:15:00 0.2148
2016_12_27_S2 12/27/2016 10:20:00 0.0713
2016_12_27_S2 12/27/2016 10:25:00 0.2566
2016_12_27_S2 12/27/2016 10:30:00 0.0203
2016_12_27_S2 12/27/2016 10:35:00 0.0485
2016_12_27_S2 12/27/2016 10:40:00 0.019
2016_12_27_S2 12/27/2016 10:45:00 1.0674
2016_12_27_S2 12/27/2016 10:50:00 0.3361
2016_12_27_S2 12/27/2016 10:55:00 1.2392
2016_12_27_S2 12/27/2016 11:00:00 0.3436
2016_12_27_S2 12/27/2016 11:05:00 0.2862
2016_12_27_S2 12/27/2016 11:10:00 0.1046
2016_12_27_S2 12/27/2016 11:15:00 0.2297
2016_12_27_S2 12/27/2016 11:20:00 0.217
2016_12_27_S2 12/27/2016 11:25:00 0.4474
2016_12_27_S2 12/27/2016 11:30:00 0.5241
2016_12_27_S2 12/27/2016 11:35:00 0.2431
2016_12_27_S2 12/27/2016 11:40:00 0.9915
2016_12_27_S2 12/27/2016 11:45:00 0.6712
2016_12_27_S2 12/27/2016 11:50:00 1.668
2016_12_27_S2 12/27/2016 11:55:00 1.4988
2016_12_27_S2 12/27/2016 12:00:00 0.2682
2016_12_27_S2 12/27/2016 12:05:00 0.3872
2016_12_27_S2 12/27/2016 12:10:00 0.5828
2016_12_27_S2 12/27/2016 12:15:00 0.2554
2016_12_27_S2 12/27/2016 12:20:00 0.0787
2016_12_27_S2 12/27/2016 12:25:00 0.1169
2016_12_27_S2 12/27/2016 12:30:00 0.1708
2016_12_27_S2 12/27/2016 12:35:00 0.0348
2016_12_27_S2 12/27/2016 12:40:00 0.0439
2016_12_27_S2 12/27/2016 12:45:00 0.0171
2016_12_27_S2 12/27/2016 12:50:00 0.0046
2016_12_27_S2 12/27/2016 12:55:00 0.0005
2016_12_27_S2 12/27/2016 13:00:00 0.0302
2016_12_27_S2 12/27/2016 13:05:00 0.0047
2016_12_27_S2 12/27/2016 13:10:00 0.0
2016_12_27_S2 12/27/2016 13:15:00 0.0
2016_12_27_S2 12/27/2016 13:20:00 0.0
2016_12_27_S2 12/27/2016 13:25:00 0.0
2016_12_27_S2 12/27/2016 13:30:00 0.144
2016_12_27_S2 12/27/2016 13:35:00 0.2088
2016_12_27_S2 12/27/2016 13:40:00 0.1771
2016_12_27_S2 12/27/2016 13:45:00 0.1421
2016_12_27_S2 12/27/2016 13:50:00 0.1439
2016_12_27_S2 12/27/2016 13:55:00 0.0156
2016_12_27_S2 12/27/2016 14:00:00 0.0367
2016_12_27_S2 12/27/2016 14:05:00 0.1044
2016_12_27_S2 12/27/2016 14:10:00 0.0212
2016_12_27_S2 12/27/2016 14:15:00 0.0019
2016_12_27_S2 12/27/2016 14:20:00 0.0229
2016_12_27_S2 12/27/2016 14:25:00 0.0171
2016_12_27_S2 12/27/2016 14:30:00 0.0026
2016_12_27_S2 12/27/2016 14:35:00 0.0
2016_12_27_S2 12/27/2016 14:40:00 0.0097
2016_12_27_S2 12/27/2016 14:45:00 0.0
2016_12_27_S2 12/27/2016 14:50:00 0.0
2016_12_27_S2 12/27/2016 14:55:00 0.0
2016_12_27_S2 12/27/2016 15:00:00 0.0
2016_12_27_S2 12/27/2016 15:05:00 0.0
2016_12_27_S2 12/27/2016 15:10:00 0.0
2016_12_27_S2 12/27/2016 15:15:00 0.0
2016_12_27_S2 12/27/2016 15:20:00 0.0
2016_12_27_S2 12/27/2016 15:25:00 0.0
2016_12_27_S2 12/27/2016 15:30:00 0.0
2016_12_27_S2 12/27/2016 15:35:00 0.0
2016_12_27_S2 12/27/2016 15:40:00 0.0
2016_12_27_S2 12/27/2016 15:45:00 0.0
2016_12_27_S2 12/27/2016 15:50:00 0.0
2016_12_27_S2 12/27/2016 15:55:00 0.0012
2016_12_27_S2 12/27/2016 16:00:00 0.3285
2016_12_27_S2 12/27/2016 16:05:00 0.0125
2016_12_27_S2 12/27/2016 16:10:00 0.0
2016_12_27_S2 12/27/2016 16:15:00 0.0017
2016_12_27_S2 12/27/2016 16:20:00 0.0403
2016_12_27_S2 12/27/2016 16:25:00 0.0
2016_12_27_S2 12/27/2016 16:30:00 0.0
2016_12_27_S2 12/27/2016 16:35:00 0.0
2016_12_27_S2 12/27/2016 16:40:00 0.0227
2016_12_27_S2 12/27/2016 16:45:00 0.0
2016_12_27_S2 12/27/2016 16:50:00 0.0
2016_12_27_S2 12/27/2016 16:55:00 0.0
2016_12_27_S2 12/27/2016 17:00:00 0.0
2016_12_27_S2 12/27/2016 17:05:00 0.0
2016_12_27_S2 12/27/2016 17:10:00 0.0
2016_12_27_S2 12/27/2016 17:15:00 0.0
2016_12_27_S2 12/27/2016 17:20:00 0.0
2016_12_27_S2 12/27/2016 17:25:00 0.0
2016_12_27_S2 12/27/2016 17:30:00 0.0
2016_12_27_S2 12/27/2016 17:35:00 0.0
2016_12_27_S2 12/27/2016 17:40:00 0.0279
2016_12_27_S2 12/27/2016 17:45:00 0.1602
2016_12_27_S2 12/27/2016 17:50:00 0.04
2016_12_27_S2 12/27/2016 17:55:00 0.0071
2016_12_27_S2 12/27/2016 18:00:00 0.0
2016_12_27_S2 12/27/2016 18:05:00 0.0
2016_12_27_S2 12/27/2016 18:10:00 0.0
2016_12_27_S2 12/27/2016 18:15:00 0.0
2016_12_27_S2 12/27/2016 18:20:00 0.1483
2016_12_27_S2 12/27/2016 18:25:00 0.046
2016_12_27_S2 12/27/2016 18:30:00 0.0171
2016_12_27_S2 12/27/2016 18:35:00 0.0221
2016_12_27_S2 12/27/2016 18:40:00 0.0053
2016_12_27_S2 12/27/2016 18:45:00 0.0
2016_12_27_S2 12/27/2016 18:50:00 0.0
2016_12_27_S2 12/27/2016 18:55:00 0.0
2016_12_27_S2 12/27/2016 19:00:00 0.0
2016_12_27_S2 12/27/2016 19:05:00 0.0021
2016_12_27_S2 12/27/2016 19:10:00 0.1805
2016_12_27_S2 12/27/2016 19:15:00 0.0047
2016_12_27_S2 12/27/2016 19:20:00 0.0
2016_12_27_S2 12/27/2016 19:25:00 0.0
2016_12_27_S2 12/27/2016 19:30:00 0.016
2016_12_27_S2 12/27/2016 19:35:00 1.0217
2016_12_27_S2 12/27/2016 19:40:00 0.8375
2016_12_27_S2 12/27/2016 19:45:00 1.4055
2016_12_27_S2 12/27/2016 19:50:00 1.5974
2016_12_27_S2 12/27/2016 19:55:00 0.3567
2016_12_27_S2 12/27/2016 20:00:00 0.0913
2016_12_27_S2 12/27/2016 20:05:00 0.0005
2016_12_27_S2 12/27/2016 20:10:00 0.0
2016_12_27_S2 12/27/2016 20:15:00 0.0
2016_12_27_S2 12/27/2016 20:20:00 0.0
2016_12_27_S2 12/27/2016 20:25:00 0.0
2016_12_27_S2 12/27/2016 20:30:00 0.0
2016_12_27_S2 12/27/2016 20:35:00 0.0
2016_12_27_S2 12/27/2016 20:40:00 0.0
2016_12_27_S2 12/27/2016 20:45:00 0.0
2016_12_27_S2 12/27/2016 20:50:00 0.0
2016_12_27_S2 12/27/2016 20:55:00 0.0
2016_12_27_S2 12/27/2016 21:00:00 0.0
2016_12_27_S2 12/27/2016 21:05:00 0.0
2016_12_27_S2 12/27/2016 21:10:00 0.0
2016_12_27_S2 12/27/2016 21:15:00 0.0
2016_12_27_S2 12/27/2016 21:20:00 0.0
2016_12_27_S2 12/27/2016 21:25:00 0.0
2016_12_27_S2 12/27/2016 21:30:00 0.0
2016_12_27_S2 12/27/2016 21:35:00 0.0
2016_12_27_S2 12/27/2016 21:40:00 0.0
2016_12_27_S2 12/27/2016 21:45:00 0.0
2016_12_27_S2 12/27/2016 21:50:00 0.0
2016_12_27_S2 12/27/2016 21:55:00 0.0
2016_12_27_S2 12/27/2016 22:00:00 0.0299
2016_12_27_S2 12/27/2016 22:05:00 0.0024
2016_12_27_S2 12/27/2016 22:10:00 0.0403
2016_12_27_S2 12/27/2016 22:15:00 0.0316
2016_12_27_S2 12/27/2016 22:20:00 0.0
2016_12_27_S2 12/27/2016 22:25:00 0.0261
2016_12_27_S2 12/27/2016 22:30:00 0.0796
2016_12_27_S2 12/27/2016 22:35:00 0.3911
2016_12_27_S2 12/27/2016 22:40:00 0.007
2016_12_27_S2 12/27/2016 22:45:00 0.0
2016_12_27_S2 12/27/2016 22:50:00 0.0
2016_12_27_S2 12/27/2016 22:55:00 0.0076
2016_12_27_S2 12/27/2016 23:00:00 0.0005
2016_12_27_S2 12/27/2016 23:05:00 0.0
2016_12_27_S2 12/27/2016 23:10:00 0.0007
2016_12_27_S2 12/27/2016 23:15:00 0.0006
2016_12_27_S2 12/27/2016 23:20:00 0.0082
2016_12_27_S2 12/27/2016 23:25:00 0.0064
2016_12_27_S2 12/27/2016 23:30:00 0.0054
2016_12_27_S2 12/27/2016 23:35:00 0.0025
2016_12_27_S2 12/27/2016 23:40:00 0.0006
2016_12_27_S2 12/27/2016 23:45:00 0.0
2016_12_27_S2 12/27/2016 23:50:00 0.0
2016_12_27_S2 12/27/2016 23:55:00 0.0
2016_12_27_S2 12/28/2016 00:00:00 0.0
2016_12_27_S2 12/28/2016 00:05:00 0.0
2016_12_27_S2 12/28/2016 00:10:00 0.0
2016_12_27_S2 12/28/2016 00:15:00 0.0
2016_12_27_S2 12/28/2016 00:20:00 0.0
2016_12_27_S2 12/28/2016 00:25:00 0.0
2016_12_27_S2 12/28/2016 00:30:00 0.0
2016_12_27_S2 12/28/2016 00:35:00 0.0
2016_12_27_S2 12/28/2016 00:40:00 0.0
2016_12_27_S2 12/28/2016 00:45:00 0.0
2016_12_27_S2 12/28/2016 00:50:00 0.0
2016_12_27_S2 12/28/2016 00:55:00 0.0
2016_12_27_S2 12/28/2016 01:00:00 0.0
2016_12_27_S2 12/28/2016 01:05:00 0.0
2016_12_27_S2 12/28/2016 01:10:00 0.0
2016_12_27_S2 12/28/2016 01:15:00 0.0
2016_12_27_S2 12/28/2016 01:20:00 0.0
2016_12_27_S2 12/28/2016 01:25:00 0.0
2016_12_27_S2 12/28/2016 01:30:00 0.0
2016_12_27_S2 12/28/2016 01:35:00 0.0
2016_12_27_S2 12/28/2016 01:40:00 0.0
2016_12_27_S2 12/28/2016 01:45:00 0.0
2016_12_27_S2 12/28/2016 01:50:00 0.0
2016_12_27_S2 12/28/2016 01:55:00 0.0
2016_12_27_S2 12/28/2016 02:00:00 0.0
2016_12_27_S2 12/28/2016 02:05:00 0.0
2016_12_27_S2 12/28/2016 02:10:00 0.0
2016_12_27_S2 12/28/2016 02:15:00 0.0
2016_12_27_S2 12/28/2016 02:20:00 0.0
2016_12_27_S2 12/28/2016 02:25:00 0.0
2016_12_27_S2 12/28/2016 02:30:00 0.0
2016_12_27_S2 12/28/2016 02:35:00 0.0
2016_12_27_S2 12/28/2016 02:40:00 0.0
2016_12_27_S2 12/28/2016 02:45:00 0.0
2016_12_27_S2 12/28/2016 02:50:00 0.0
2016_12_27_S2 12/28/2016 02:55:00 0.0
2016_12_27_S2 12/28/2016 03:00:00 0.0
2016_12_27_S2 12/28/2016 03:05:00 0.0
2016_12_27_S2 12/28/2016 03:10:00 0.0
2016_12_27_S2 12/28/2016 03:15:00 0.0
2016_12_27_S2 12/28/2016 03:20:00 0.0
2016_12_27_S2 12/28/2016 03:25:00 0.0
2016_12_27_S2 12/28/2016 03:30:00 0.0
2016_12_27_S2 12/28/2016 03:35:00 0.0
2016_12_27_S2 12/28/2016 03:40:00 0.0
2016_12_27_S2 12/28/2016 03:45:00 0.0
2016_12_27_S2 12/28/2016 03:50:00 0.0
2016_12_27_S2 12/28/2016 03:55:00 0.0
2016_12_27_S2 12/28/2016 04:00:00 0.0
2016_12_27_S2 12/28/2016 04:05:00 0.0
2016_12_27_S2 12/28/2016 04:10:00 0.0
2016_12_27_S2 12/28/2016 04:15:00 0.0
2016_12_27_S2 12/28/2016 04:20:00 0.0
2016_12_27_S2 12/28/2016 04:25:00 0.0
2016_12_27_S2 12/28/2016 04:30:00 0.0
2016_12_27_S2 12/28/2016 04:35:00 0.0
2016_12_27_S2 12/28/2016 04:40:00 0.0
2016_12_27_S2 12/28/2016 04:45:00 0.0
2016_12_27_S2 12/28/2016 04:50:00 0.0
2016_12_27_S2 12/28/2016 04:55:00 0.0
2016_12_27_S2 12/28/2016 05:00:00 0.0
2016_12_27_S2 12/28/2016 05:05:00 0.0
2016_12_27_S2 12/28/2016 05:10:00 0.0
2016_12_27_S2 12/28/2016 05:15:00 0.0
2016_12_27_S2 12/28/2016 05:20:00 0.0
2016_12_27_S2 12/28/2016 05:25:00 0.0
2016_12_27_S2 12/28/2016 05:30:00 0.0
2016_12_27_S2 12/28/2016 05:35:00 0.0
2016_12_27_S2 12/28/2016 05:40:00 0.0
2016_12_27_S2 12/28/2016 05:45:00 0.0
2016_12_27_S2 12/28/2016 05:50:00 0.0
2016_12_27_S2 12/28/2016 05:55:00 0.0
2016_12_27_S2 12/28/2016 06:00:00 0.0
2016_12_27_S2 12/28/2016 06:05:00 0.0
2016_12_27_S2 12/28/2016 06:10:00 0.0
2016_12_27_S2 12/28/2016 06:15:00 0.0
2016_12_27_S2 12/28/2016 06:20:00 0.0
2016_12_27_S2 12/28/2016 06:25:00 0.0
2016_12_27_S2 12/28/2016 06:30:00 0.0
2016_12_27_S2 12/28/2016 06:35:00 0.0
2016_12_27_S2 12/28/2016 06:40:00 0.0
2016_12_27_S2 12/28/2016 06:45:00 0.0
2016_12_27_S2 12/28/2016 06:50:00 0.0
2016_12_27_S2 12/28/2016 06:55:00 0.0
2016_12_27_S2 12/28/2016 07:00:00 0.0
2016_12_27_S2 12/28/2016 07:05:00 0.0
2016_12_27_S2 12/28/2016 07:10:00 0.0
2016_12_27_S2 12/28/2016 07:15:00 0.0
2016_12_27_S2 12/28/2016 07:20:00 0.0
2016_12_27_S2 12/28/2016 07:25:00 0.0
2016_12_27_S2 12/28/2016 07:30:00 0.0
2016_12_27_S2 12/28/2016 07:35:00 0.0
2016_12_27_S2 12/28/2016 07:40:00 0.0
2016_12_27_S2 12/28/2016 07:45:00 0.0
2016_12_27_S2 12/28/2016 07:50:00 0.0
2016_12_27_S2 12/28/2016 07:55:00 0.0
2016_12_27_S2 12/28/2016 08:00:00 0.0

2016_12_27_S3 12/26/2016 08:00:00 0.0
2016_12_27_S3 12/26/2016 08:05:00 0.0
2016_12_27_S3 12/26/2016 08:10:00 0.0
2016_12_27_S3 12/26/2016 08:15:00 0.0
2016_12_27_S3 12/26/2016 08:20:00 0.0
2016_12_27_S3 12/26/2016 08:25:00 0.0
2016_12_27_S3 12/26/2016 08:30:00 0.0
2016_12_27_S3 12/26/2016 08:35:00 0.0
2016_12_27_S3 12/26/2016 08:40:00 0.0
2016_12_27_S3 12/26/2016 08:45:00 0.0
2016_12_27_S3 12/26/2016 08:50:00 0.0
2016_12_27_S3 12/26/2016 08:55:00 0.0
2016_12_27_S3 12/26/2016 09:00:00 0.0
2016_12_27_S3 12/26/2016 09:05:00 0.0005
2016_12_27_S3 12/26/2016 09:10:00 0.0432
2016_12_27_S3 12/26/2016 09:15:00 0.0039
2016_12_27_S3 12/26/2016 09:20:00 0.0126
2016_12_27_S3 12/26/2016 09:25:00 0.0226
2016_12_27_S3 12/26/2016 09:30:00 0.0052
2016_12_27_S3 12/26/2016 09:35:00 0.0
2016_12_27_S3 12/26/2016 09:40:00 0.0
2016_12_27_S3 12/26/2016 09:45:00 0.0
2016_12_27_S3 12/26/2016 09:50:00 0.0
2016_12_27_S3 12/26/2016 09:55:00 0.0
2016_12_27_S3 12/26/2016 10:00:00 0.0
2016_12_27_S3 12/26/2016 10:05:00 0.0
2016_12_27_S3 12/26/2016 10:10:00 0.0
2016_12_27_S3 12/26/2016 10:15:00 0.0
2016_12_27_S3 12/26/2016 10:20:00 0.0164
2016_12_27_S3 12/26/2016 10:25:00 0.0006
2016_12_27_S3 12/26/2016 10:30:00 0.0
2016_12_27_S3 12/26/2016 10:35:00 0.0
2016_12_27_S3 12/26/2016 10:40:00 0.0
2016_12_27_S3 12/26/2016 10:45:00 0.0
2016_12_27_S3 12/26/2016 10:50:00 0.0
2016_12_27_S3 12/26/2016 10:55:00 0.0
2016_12_27_S3 12/26/2016 11:00:00 0.0
2016_12_27_S3 12/26/2016 11:05:00 0.0
2016_12_27_S3 12/26/2016 11:10:00 0.0
2016_12_27_S3 12/26/2016 11:15:00 0.0
2016_12_27_S3 12/26/2016 11:20:00 0.0
2016_12_27_S3 12/26/2016 11:25:00 0.0
2016_12_27_S3 12/26/2016 11:30:00 0.0
2016_12_27_S3 12/26/2016 11:35:00 0.0
2016_12_27_S3 12/26/2016 11:40:00 0.0
2016_12_27_S3 12/26/2016 11:45:00 0.0
2016_12_27_S3 12/26/2016 11:50:00 0.0
2016_12_27_S3 12/26/2016 11:55:00 0.0168
2016_12_27_S3 12/26/2016 12:00:00 0.1233
2016_12_27_S3 12/26/2016 12:05:00 0.1118
2016_12_27_S3 12/26/2016 12:10:00 0.0666
2016_12_27_S3 12/26/2016 12:15:00 0.036
2016_12_27_S3 12/26/2016 12:20:00 0.0
2016_12_27_S3 12/26/2016 12:25:00 0.0
2016_12_27_S3 12/26/2016 12:30:00 0.0
2016_12_27_S3 12/26/2016 12:35:00 0.0016
2016_12_27_S3 12/26/2016 12:40:00 0.0368
2016_12_27_S3 12/26/2016 12:45:00 0.0692
2016_12_27_S3 12/26/2016 12:50:00 0.0023
2016_12_27_S3 12/26/2016 12:55:00 0.0
2016_12_27_S3 12/26/2016 13:00:00 0.0
2016_12_27_S3 12/26/2016 13:05:00 0.0
2016_12_27_S3 12/26/2016 13:10:00 0.0
2016_12_27_S3 12/26/2016 13:15:00 0.0
2016_12_27_S3 12/26/2016 13:20:00 0.0
2016_12_27_S3 12/26/2016 13:25:00 0.0
2016_12_27_S3 12/26/2016 13:30:00 0.0
2016_12_27_S3 12/26/2016 13:35:00 0.0
2016_12_27_S3 12/26/2016 13:40:00 0.0
2016_12_27_S3 12/26/2016 13:45:00 0.0
2016_12_27_S3 12/26/2016 13:50:00 0.0
2016_12_27_S3 12/26/2016 13:55:00 0.0
2016_12_27_S3 12/26/2016 14:00:00 0.0
2016_12_27_S3 12/26/2016 14:05:00 0.0
2016_12_27_S3 12/26/2016 14:10:00 0.0
2016_12_27_S3 12/26/2016 14:15:00 0.0
2016_12_27_S3 12/26/2016 14:20:00 0.0
2016_12_27_S3 12/26/2016 14:25:00 0.0
2016_12_27_S3 12/26/2016 14:30:00 0.0
2016_12_27_S3 12/26/2016 14:35:00 0.0
2016_12_27_S3 12/26/2016 14:40:00 0.0
2016_12_27_S3 12/26/2016 14:45:00 0.0
2016_12_27_S3 12/26/2016 14:50:00 0.0
2016_12_27_S3 12/26/2016 14:55:00 0.0
2016_12_27_S3 12/26/2016 15:00:00 0.0
2016_12_27_S3 12/26/2016 15:05:00 0.0
2016_12_27_S3 12/26/2016 15:10:00 0.0
2016_12_27_S3 12/26/2016 15:15:00 0.0
2016_12_27_S3 12/26/2016 15:20:00 0.0
2016_12_27_S3 12/26/2016 15:25:00 0.0
2016_12_27_S3 12/26/2016 15:30:00 0.0
2016_12_27_S3 12/26/2016 15:35:00 0.0
2016_12_27_S3 12/26/2016 15:40:00 0.0
2016_12_27_S3 12/26/2016 15:45:00 0.0
2016_12_27_S3 12/26/2016 15:50:00 0.0
2016_12_27_S3 12/26/2016 15:55:00 0.0
2016_12_27_S3 12/26/2016 16:00:00 0.0
2016_12_27_S3 12/26/2016 16:05:00 0.0
2016_12_27_S3 12/26/2016 16:10:00 0.0
2016_12_27_S3 12/26/2016 16:15:00 0.0
2016_12_27_S3 12/26/2016 16:20:00 0.0
2016_12_27_S3 12/26/2016 16:25:00 0.0
2016_12_27_S3 12/26/2016 16:30:00 0.0
2016_12_27_S3 12/26/2016 16:35:00 0.0
2016_12_27_S3 12/26/2016 16:40:00 0.0
2016_12_27_S3 12/26/2016 16:45:00 0.0
2016_12_27_S3 12/26/2016 16:50:00 0.0
2016_12_27_S3 12/26/2016 16:55:00 0.0
2016_12_27_S3 12/26/2016 17:00:00 0.0
2016_12_27_S3 12/26/2016 17:05:00 0.0
2016_12_27_S3 12/26/2016 17:10:00 0.0
2016_12_27_S3 12/26/2016 17:15:00 0.0
2016_12_27_S3 12/26/2016 17:20:00 0.0
2016_12_27_S3 12/26/2016 17:25:00 0.0
2016_12_27_S3 12/26/2016 17:30:00 0.0
2016_12_27_S3 12/26/2016 17:35:00 0.0
2016_12_27_S3 12/26/2016 17:40:00 0.0
2016_12_27_S3 12/26/2016 17:45:00 0.0
2016_12_27_S3 12/26/2016 17:50:00 0.0
2016_12_27_S3 12/26/2016 17:55:00 0.0
2016_12_27_S3 12/26/2016 18:00:00 0.0
2016_12_27_S3 12/26/2016 18:05:00 0.0
2016_12_27_S3 12/26/2016 18:10:00 0.0
2016_12_27_S3 12/26/2016 18:15:00 0.0
2016_12_27_S3 12/26/2016 18:20:00 0.0
2016_12_27_S3 12/26/2016 18:25:00 0.0
2016_12_27_S3 12/26/2016 18:30:00 0.0
2016_12_27_S3 12/26/2016 18:35:00 0.0
2016_12_27_S3 12/26/2016 18:40:00 0.0
2016_12_27_S3 12/26/2016 18:45:00 0.0
2016_12_27_S3 12/26/2016 18:50:00 0.0
2016_12_27_S3 12/26/2016 18:55:00 0.0
2016_12_27_S3 12/26/2016 19:00:00 0.0
2016_12_27_S3 12/26/2016 19:05:00 0.0
2016_12_27_S3 12/26/2016 19:10:00 0.0
2016_12_27_S3 12/26/2016 19:15:00 0.0
2016_12_27_S3 12/26/2016 19:20:00 0.0
2016_12_27_S3 12/26/2016 19:25:00 0.0
2016_12_27_S3 12/26/2016 19:30:00 0.0
2016_12_27_S3 12/26/2016 19:35:00 0.0
2016_12_27_S3 12/26/2016 19:40:00 0.0
2016_12_27_S3 12/26/2016 19:45:00 0.0
2016_12_27_S3 12/26/2016 19:50:00 0.0
2016_12_27_S3 12/26/2016 19:55:00 0.0
2016_12_27_S3 12/26/2016 20:00:00 0.0
2016_12_27_S3 12/26/2016 20:05:00 0.0
2016_12_27_S3 12/26/2016 20:10:00 0.0
2016_12_27_S3 12/26/2016 20:15:00 0.0
2016_12_27_S3 12/26/2016 20:20:00 0.0
2016_12_27_S3 12/26/2016 20:25:00 0.0
2016_12_27_S3 12/26/2016 20:30:00 0.0
2016_12_27_S3 12/26/2016 20:35:00 0.0
2016_12_27_S3 12/26/2016 20:40:00 0.0
2016_12_27_S3 12/26/2016 20:45:00 0.0
2016_12_27_S3 12/26/2016 20:50:00 0.0
2016_12_27_S3 12/26/2016 20:55:00 0.0
2016_12_27_S3 12/26/2016 21:00:00 0.0
2016_12_27_S3 12/26/2016 21:05:00 0.0
2016_12_27_S3 12/26/2016 21:10:00 0.0
2016_12_27_S3 12/26/2016 21:15:00 0.0
2016_12_27_S3 12/26/2016 21:20:00 0.0
2016_12_27_S3 12/26/2016 21:25:00 0.0
2016_12_27_S3 12/26/2016 21:30:00 0.0
2016_12_27_S3 12/26/2016 21:35:00 0.0
2016_12_27_S3 12/26/2016 21:40:00 0.0
2016_12_27_S3 12/26/2016 21:45:00 0.0
2016_12_27_S3 12/26/2016 21:50:00 0.0
2016_12_27_S3 12/26/2016 21:55:00 0.0
2016_12_27_S3 12/26/2016 22:00:00 0.0
2016_12_27_S3 12/26/2016 22:05:00 0.0
2016_12_27_S3 12/26/2016 22:10:00 0.0
2016_12_27_S3 12/26/2016 22:15:00 0.0
2016_12_27_S3 12/26/2016 22:20:00 0.0
2016_12_27_S3 12/26/2016 22:25:00 0.0
2016_12_27_S3 12/26/2016 22:30:00 0.0
2016_12_27_S3 12/26/2016 22:35:00 0.0
2016_12_27_S3 12/26/2016 22:40:00 0.0
2016_12_27_S3 12/26/2016 22:45:00 0.0
2016_12_27_S3 12/26/2016 22:50:00 0.0
2016_12_27_S3 12/26/2016 22:55:00 0.0
2016_12_27_S3 12/26/2016 23:00:00 0.0
2016_12_27_S3 12/26/2016 23:05:00 0.0
2016_12_27_S3 12/26/2016 23:10:00 0.0
2016_12_27_S3 12/26/2016 23:15:00 0.0
2016_12_27_S3 12/26/2016 23:20:00 0.0
2016_12_27_S3 12/26/2016 23:25:00 0.0
2016_12_27_S3 12/26/2016 23:30:00 0.0
2016_12_27_S3 12/26/2016 23:35:00 0.0
2016_12_27_S3 12/26/2016 23:40:00 0.0
2016_12_27_S3 12/26/2016 23:45:00 0.0
2016_12_27_S3 12/26/2016 23:50:00 0.0
2016_12_27_S3 12/26/2016 23:55:00 0.0
2016_12_27_S3 12/27/2016 00:00:00 0.0
2016_12_27_S3 12/27/2016 00:05:00 0.0
2016_12_27_S3 12/27/2016 00:10:00 0.0
2016_12_27_S3 12/27/2016 00:15:00 0.0
2016_12_27_S3 12/27/2016 00:20:00 0.0
2016_12_27_S3 12/27/2016 00:25:00 0.0
2016_12_27_S3 12/27/2016 00:30:00 0.0
2016_12_27_S3 12/27/2016 00:35:00 0.0
2016_12_27_S3 12/27/2016 00:40:00 0.0
2016_12_27_S3 12/27/2016 00:45:00 0.0
2016_12_27_S3 12/27/2016 00:50:00 0.0
2016_12_27_S3 12/27/2016 00:55:00 0.0
2016_12_27_S3 12/27/2016 01:00:00 0.0
2016_12_27_S3 12/27/2016 01:05:00 0.0
2016_12_27_S3 12/27/2016 01:10:00 0.0089
2016_12_27_S3 12/27/2016 01:15:00 0.0406
2016_12_27_S3 12/27/2016 01:20:00 0.0126
2016_12_27_S3 12/27/2016 01:25:00 0.2543
2016_12_27_S3 12/27/2016 01:30:00 0.7504
2016_12_27_S3 12/27/2016 01:35:00 1.4934
2016_12_27_S3 12/27/2016 01:40:00 1.3241
2016_12_27_S3 12/27/2016 01:45:00 1.169
2016_12_27_S3 12/27/2016 01:50:00 1.3426
2016_12_27_S3 12/27/2016 01:55:00 0.6689
2016_12_27_S3 12/27/2016 02:00:00 0.0498
2016_12_27_S3 12/27/2016 02:05:00 0.0328
2016_12_27_S3 12/27/2016 02:10:00 0.0176
2016_12_27_S3 12/27/2016 02:15:00 0.1733
2016_12_27_S3 12/27/2016 02:20:00 0.1079
2016_12_27_S3 12/27/2016 02:25:00 0.1135
2016_12_27_S3 12/27/2016 02:30:00 0.1191
2016_12_27_S3 12/27/2016 02:35:00 0.1945
2016_12_27_S3 12/27/2016 02:40:00 0.4543
2016_12_27_S3 12/27/2016 02:45:00 0.2611
2016_12_27_S3 12/27/2016 02:50:00 0.351
2016_12_27_S3 12/27/2016 02:55:00 0.3879
2016_12_27_S3 12/27/2016 03:00:00 0.4039
2016_12_27_S3 12/27/2016 03:05:00 0.2097
2016_12_27_S3 12/27/2016 03:10:00 0.4012
2016_12_27_S3 12/27/2016 03:15:00 0.6363
2016_12_27_S3 12/27/2016 03:20:00 1.2158
2016_12_27_S3 12/27/2016 03:25:00 0.59
2016_12_27_S3 12/27/2016 03:30:00 0.6323
2016_12_27_S3 12/27/2016 03:35:00 0.3762
2016_12_27_S3 12/27/2016 03:40:00 0.2608
2016_12_27_S3 12/27/2016 03:45:00 0.171
2016_12_27_S3 12/27/2016 03:50:00 0.1476
2016_12_27_S3 12/27/2016 03:55:00 0.387
2016_12_27_S3 12/27/2016 04:00:00 0.1574
2016_12_27_S3 12/27/2016 04:05:00 0.1128
2016_12_27_S3 12/27/2016 04:10:00 0.209
2016_12_27_S3 12/27/2016 04:15:00 0.0943
2016_12_27_S3 12/27/2016 04:20:00 0.0184
2016_12_27_S3 12/27/2016 04:25:00 0.0424
2016_12_27_S3 12/27/2016 04:30:00 0.025
2016_12_27_S3 12/27/2016 04:35:00 0.061
2016_12_27_S3 12/27/2016 04:40:00 0.05
2016_12_27_S3 12/27/2016 04:45:00 0.0407
2016_12_27_S3 12/27/2016 04:50:00 0.1558
2016_12_27_S3 12/27/2016 04:55:00 0.5898
2016_12_27_S3 12/27/2016 05:00:00 0.2959
2016_12_27_S3 12/27/2016 05:05:00 0.1294
2016_12_27_S3 12/27/2016 05:10:00 0.213
2016_12_27_S3 12/27/2016 05:15:00 0.2015
2016_12_27_S3 12/27/2016 05:20:00 0.0949
2016_12_27_S3 12/27/2016 05:25:00 0.0081
2016_12_27_S3 12/27/2016 05:30:00 0.0
2016_12_27_S3 12/27/2016 05:35:00 0.0
2016_12_27_S3 12/27/2016 05:40:00 0.0
2016_12_27_S3 12/27/2016 05:45:00 0.0
2016_12_27_S3 12/27/2016 05:50:00 0.0
2016_12_27_S3 12/27/2016 05:55:00 0.0
2016_12_27_S3 12/27/2016 06:00:00 0.0
2016_12_27_S3 12/27/2016 06:05:00 0.0016
2016_12_27_S3 12/27/2016 06:10:00 0.0
2016_12_27_S3 12/27/2016 06:15:00 0.0
2016_12_27_S3 12/27/2016 06:20:00 0.0
2016_12_27_S3 12/27/2016 06:25:00 0.0
2016_12_27_S3 12/27/2016 06:30:00 0.0
2016_12_27_S3 12/27/2016 06:35:00 0.0
2016_12_27_S3 12/27/2016 06:40:00 0.01
2016_12_27_S3 12/27/2016 06:45:00 0.0279
2016_12_27_S3 12/27/2016 06:50:00 0.0107
2016_12_27_S3 12/27/2016 06:55:00 0.0655
2016_12_27_S3 12/27/2016 07:00:00 0.3909
2016_12_27_S3 12/27/2016 07:05:00 0.238
2016_12_27_S3 12/27/2016 07:10:00 1.0071
2016_12_27_S3 12/27/2016 07:15:00 0.5372
2016_12_27_S3 12/27/2016 07:20:00 0.4254
2016_12_27_S3 12/27/2016 07:25:00 0.2436
2016_12_27_S3 12/27/2016 07:30:00 0.4621
2016_12_27_S3 12/27/2016 07:35:00 0.3932
2016_12_27_S3 12/27/2016 07:40:00 0.1978
2016_12_27_S3 12/27/2016 07:45:00 0.2461
2016_12_27_S3 12/27/2016 07:50:00 1.0396
2016_12_27_S3 12/27/2016 07:55:00 0.9797
2016_12_27_S3 12/27/2016 08:00:00 0.363
2016_12_27_S3 12/27/2016 08:05:00 0.1278
2016_12_27_S3 12/27/2016 08:10:00 0.4326
2016_12_27_S3 12/27/2016 08:15:00 0.2613
2016_12_27_S3 12/27/2016 08:20:00 0.4352
2016_12_27_S3 12/27/2016 08:25:00 0.1219
2016_12_27_S3 12/27/2016 08:30:00 0.1042
2016_12_27_S3 12/27/2016 08:35:00 0.2345
2016_12_27_S3 12/27/2016 08:40:00 0.6181
2016_12_27_S3 12/27/2016 08:45:00 1.0717
2016_12_27_S3 12/27/2016 08:50:00 1.4781
2016_12_27_S3 12/27/2016 08:55:00 0.872
2016_12_27_S3 12/27/2016 09:00:00 0.6282
2016_12_27_S3 12/27/2016 09:05:00 0.6491
2016_12_27_S3 12/27/2016 09:10:00 0.8722
2016_12_27_S3 12/27/2016 09:15:00 0.3705
2016_12_27_S3 12/27/2016 09:20:00 1.0465
2016_12_27_S3 12/27/2016 09:25:00 1.1465
2016_12_27_S3 12/27/2016 09:30:00 0.1576
2016_12_27_S3 12/27/2016 09:35:00 0.1856
2016_12_27_S3 12/27/2016 09:40:00 0.622
2016_12_27_S3 12/27/2016 09:45:00 0.3632
2016_12_27_S3 12/27/2016 09:50:00 0.1645
2016_12_27_S3 12/27/2016 09:55:00 0.0
2016_12_27_S3 12/27/2016 10:00:00 0.0266
2016_12_27_S3 12/27/2016 10:05:00 0.3371
2016_12_27_S3 12/27/2016 10:10:00 0.5849
2016_12_27_S3 12/27/2016 10:15:00 0.1706
2016_12_27_S3 12/27/2016 10:20:00 0.0753
2016_12_27_S3 12/27/2016 10:25:00 0.1699
2016_12_27_S3 12/27/2016 10:30:00 0.0261
2016_12_27_S3 12/27/2016 10:35:00 0.0512
2016_12_27_S3 12/27/2016 10:40:00 0.0131
2016_12_27_S3 12/27/2016 10:45:00 1.1132
2016_12_27_S3 12/27/2016 10:50:00 0.3283
2016_12_27_S3 12/27/2016 10:55:00 1.1171
2016_12_27_S3 12/27/2016 11:00:00 0.3729
2016_12_27_S3 12/27/2016 11:05:00 0.2909
2016_12_27_S3 12/27/2016 11:10:00 0.0942
2016_12_27_S3 12/27/2016 11:15:00 0.214
2016_12_27_S3 12/27/2016 11:20:00 0.2835
2016_12_27_S3 12/27/2016 11:25:00 0.5047
2016_12_27_S3 12/27/2016 11:30:00 0.5324
2016_12_27_S3 12/27/2016 11:35:00 0.2818
2016_12_27_S3 12/27/2016 11:40:00 0.6996
2016_12_27_S3 12/27/2016 11:45:00 1.0161
2016_12_27_S3 12/27/2016 11:50:00 1.8339
2016_12_27_S3 12/27/2016 11:55:00 1.0947
2016_12_27_S3 12/27/2016 12:00:00 0.2722
2016_12_27_S3 12/27/2016 12:05:00 0.5379
2016_12_27_S3 12/27/2016 12:10:00 0.3716
2016_12_27_S3 12/27/2016 12:15:00 0.2242
2016_12_27_S3 12/27/2016 12:20:00 0.0821
2016_12_27_S3 12/27/2016 12:25:00 0.1505
2016_12_27_S3 12/27/2016 12:30:00 0.1511
2016_12_27_S3 12/27/2016 12:35:00 0.0376
2016_12_27_S3 12/27/2016 12:40:00 0.0473
2016_12_27_S3 12/27/2016 12:45:00 0.0166
2016_12_27_S3 12/27/2016 12:50:00 0.0051
2016_12_27_S3 12/27/2016 12:55:00 0.0007
2016_12_27_S3 12/27/2016 13:00:00 0.033
2016_12_27_S3 12/27/2016 13:05:00 0.005
2016_12_27_S3 12/27/2016 13:10:00 0.0
2016_12_27_S3 12/27/2016 13:15:00 0.0
2016_12_27_S3 12/27/2016 13:20:00 0.0
2016_12_27_S3 12/27/2016 13:25:00 0.0002
2016_12_27_S3 12/27/2016 13:30:00 0.1255
2016_12_27_S3 12/27/2016 13:35:00 0.1875
2016_12_27_S3 12/27/2016 13:40:00 0.2051
2016_12_27_S3 12/27/2016 13:45:00 0.1874
2016_12_27_S3 12/27/2016 13:50:00 0.1107
2016_12_27_S3 12/27/2016 13:55:00 0.0145
2016_12_27_S3 12/27/2016 14:00:00 0.0366
2016_12_27_S3 12/27/2016 14:05:00 0.1111
2016_12_27_S3 12/27/2016 14:10:00 0.0174
2016_12_27_S3 12/27/2016 14:15:00 0.0023
2016_12_27_S3 12/27/2016 14:20:00 0.0265
2016_12_27_S3 12/27/2016 14:25:00 0.0163
2016_12_27_S3 12/27/2016 14:30:00 0.0036
2016_12_27_S3 12/27/2016 14:35:00 0.0
2016_12_27_S3 12/27/2016 14:40:00 0.0077
2016_12_27_S3 12/27/2016 14:45:00 0.0
2016_12_27_S3 12/27/2016 14:50:00 0.0
2016_12_27_S3 12/27/2016 14:55:00 0.0
2016_12_27_S3 12/27/2016 15:00:00 0.0
2016_12_27_S3 12/27/2016 15:05:00 0.0
2016_12_27_S3 12/27/2016 15:10:00 0.0
2016_12_27_S3 12/27/2016 15:15:00 0.0005
2016_12_27_S3 12/27/2016 15:20:00 0.0
2016_12_27_S3 12/27/2016 15:25:00 0.0001
2016_12_27_S3 12/27/2016 15:30:00 0.0
2016_12_27_S3 12/27/2016 15:35:00 0.0
2016_12_27_S3 12/27/2016 15:40:00 0.0
2016_12_27_S3 12/27/2016 15:45:00 0.0
2016_12_27_S3 12/27/2016 15:50:00 0.0
2016_12_27_S3 12/27/2016 15:55:00 0.0019
2016_12_27_S3 12/27/2016 16:00:00 0.3683
2016_12_27_S3 12/27/2016 16:05:00 0.0223
2016_12_27_S3 12/27/2016 16:10:00 0.0
2016_12_27_S3 12/27/2016 16:15:00 0.0
2016_12_27_S3 12/27/2016 16:20:00 0.021
2016_12_27_S3 12/27/2016 16:25:00 0.0
2016_12_27_S3 12/27/2016 16:30:00 0.0
2016_12_27_S3 12/27/2016 16:35:00 0.0
2016_12_27_S3 12/27/2016 16:40:00 0.0319
2016_12_27_S3 12/27/2016 16:45:00 0.0
2016_12_27_S3 12/27/2016 16:50:00 0.0
2016_12_27_S3 12/27/2016 16:55:00 0.0
2016_12_27_S3 12/27/2016 17:00:00 0.0
2016_12_27_S3 12/27/2016 17:05:00 0.0
2016_12_27_S3 12/27/2016 17:10:00 0.0
2016_12_27_S3 12/27/2016 17:15:00 0.0
2016_12_27_S3 12/27/2016 17:20:00 0.0
2016_12_27_S3 12/27/2016 17:25:00 0.0
2016_12_27_S3 12/27/2016 17:30:00 0.0
2016_12_27_S3 12/27/2016 17:35:00 0.0
2016_12_27_S3 12/27/2016 17:40:00 0.0324
2016_12_27_S3 12/27/2016 17:45:00 0.1418
2016_12_27_S3 12/27/2016 17:50:00 0.0568
2016_12_27_S3 12/27/2016 17:55:00 0.0102
2016_12_27_S3 12/27/2016 18:00:00 0.0
2016_12_27_S3 12/27/2016 18:05:00 0.0
2016_12_27_S3 12/27/2016 18:10:00 0.0
2016_12_27_S3 12/27/2016 18:15:00 0.0
2016_12_27_S3 12/27/2016 18:20:00 0.2749
2016_12_27_S3 12/27/2016 18:25:00 0.14
2016_12_27_S3 12/27/2016 18:30:00 0.0209
2016_12_27_S3 12/27/2016 18:35:00 0.0182
2016_12_27_S3 12/27/2016 18:40:00 0.0081
2016_12_27_S3 12/27/2016 18:45:00 0.0
2016_12_27_S3 12/27/2016 18:50:00 0.0
2016_12_27_S3 12/27/2016 18:55:00 0.0
2016_12_27_S3 12/27/2016 19:00:00 0.0
2016_12_27_S3 12/27/2016 19:05:00 0.0012
2016_12_27_S3 12/27/2016 19:10:00 0.3063
2016_12_27_S3 12/27/2016 19:15:00 0.0162
2016_12_27_S3 12/27/2016 19:20:00 0.0
2016_12_27_S3 12/27/2016 19:25:00 0.0
2016_12_27_S3 12/27/2016 19:30:00 0.0138
2016_12_27_S3 12/27/2016 19:35:00 0.6964
2016_12_27_S3 12/27/2016 19:40:00 0.9801
2016_12_27_S3 12/27/2016 19:45:00 2.0698
2016_12_27_S3 12/27/2016 19:50:00 2.9319
2016_12_27_S3 12/27/2016 19:55:00 0.6206
2016_12_27_S3 12/27/2016 20:00:00 0.1053
2016_12_27_S3 12/27/2016 20:05:00 0.0007
2016_12_27_S3 12/27/2016 20:10:00 0.0
2016_12_27_S3 12/27/2016 20:15:00 0.0
2016_12_27_S3 12/27/2016 20:20:00 0.0
2016_12_27_S3 12/27/2016 20:25:00 0.0
2016_12_27_S3 12/27/2016 20:30:00 0.0
2016_12_27_S3 12/27/2016 20:35:00 0.0
2016_12_27_S3 12/27/2016 20:40:00 0.0
2016_12_27_S3 12/27/2016 20:45:00 0.0
2016_12_27_S3 12/27/2016 20:50:00 0.0
2016_12_27_S3 12/27/2016 20:55:00 0.0
2016_12_27_S3 12/27/2016 21:00:00 0.0
2016_12_27_S3 12/27/2016 21:05:00 0.0
2016_12_27_S3 12/27/2016 21:10:00 0.0
2016_12_27_S3 12/27/2016 21:15:00 0.0
2016_12_27_S3 12/27/2016 21:20:00 0.0
2016_12_27_S3 12/27/2016 21:25:00 0.0
2016_12_27_S3 12/27/2016 21:30:00 0.0
2016_12_27_S3 12/27/2016 21:35:00 0.0
2016_12_27_S3 12/27/2016 21:40:00 0.0
2016_12_27_S3 12/27/2016 21:45:00 0.0
2016_12_27_S3 12/27/2016 21:50:00 0.0
2016_12_27_S3 12/27/2016 21:55:00 0.0
2016_12_27_S3 12/27/2016 22:00:00 0.0078
2016_12_27_S3 12/27/2016 22:05:00 0.0002
2016_12_27_S3 12/27/2016 22:10:00 0.0136
2016_12_27_S3 12/27/2016 22:15:00 0.009
2016_12_27_S3 12/27/2016 22:20:00 0.0
2016_12_27_S3 12/27/2016 22:25:00 0.027
2016_12_27_S3 12/27/2016 22:30:00 0.0516
2016_12_27_S3 12/27/2016 22:35:00 0.5992
2016_12_27_S3 12/27/2016 22:40:00 0.0096
2016_12_27_S3 12/27/2016 22:45:00 0.0
2016_12_27_S3 12/27/2016 22:50:00 0.0001
2016_12_27_S3 12/27/2016 22:55:00 0.004
2016_12_27_S3 12/27/2016 23:00:00 0.0017
2016_12_27_S3 12/27/2016 23:05:00 0.0013
2016_12_27_S3 12/27/2016 23:10:00 0.0019
2016_12_27_S3 12/27/2016 23:15:00 0.0007
2016_12_27_S3 12/27/2016 23:20:00 0.0119
2016_12_27_S3 12/27/2016 23:25:00 0.0131
2016_12_27_S3 12/27/2016 23:30:00 0.0166
2016_12_27_S3 12/27/2016 23:35:00 0.0018
2016_12_27_S3 12/27/2016 23:40:00 0.0015
2016_12_27_S3 12/27/2016 23:45:00 0.0
2016_12_27_S3 12/27/2016 23:50:00 0.0
2016_12_27_S3 12/27/2016 23:55:00 0.0
2016_12_27_S3 12/28/2016 00:00:00 0.0
2016_12_27_S3 12/28/2016 00:05:00 0.0
2016_12_27_S3 12/28/2016 00:10:00 0.0
2016_12_27_S3 12/28/2016 00:15:00 0.0
2016_12_27_S3 12/28/2016 00:20:00 0.0
2016_12_27_S3 12/28/2016 00:25:00 0.0
2016_12_27_S3 12/28/2016 00:30:00 0.0
2016_12_27_S3 12/28/2016 00:35:00 0.0
2016_12_27_S3 12/28/2016 00:40:00 0.0
2016_12_27_S3 12/28/2016 00:45:00 0.0
2016_12_27_S3 12/28/2016 00:50:00 0.0
2016_12_27_S3 12/28/2016 00:55:00 0.0
2016_12_27_S3 12/28/2016 01:00:00 0.0
2016_12_27_S3 12/28/2016 01:05:00 0.0
2016_12_27_S3 12/28/2016 01:10:00 0.0
2016_12_27_S3 12/28/2016 01:15:00 0.0
2016_12_27_S3 12/28/2016 01:20:00 0.0
2016_12_27_S3 12/28/2016 01:25:00 0.0
2016_12_27_S3 12/28/2016 01:30:00 0.0
2016_12_27_S3 12/28/2016 01:35:00 0.0
2016_12_27_S3 12/28/2016 01:40:00 0.0
2016_12_27_S3 12/28/2016 01:45:00 0.0
2016_12_27_S3 12/28/2016 01:50:00 0.0
2016_12_27_S3 12/28/2016 01:55:00 0.0
2016_12_27_S3 12/28/2016 02:00:00 0.0
2016_12_27_S3 12/28/2016 02:05:00 0.0
2016_12_27_S3 12/28/2016 02:10:00 0.0
2016_12_27_S3 12/28/2016 02:15:00 0.0
2016_12_27_S3 12/28/2016 02:20:00 0.0
2016_12_27_S3 12/28/2016 02:25:00 0.0
2016_12_27_S3 12/28/2016 02:30:00 0.0
2016_12_27_S3 12/28/2016 02:35:00 0.0
2016_12_27_S3 12/28/2016 02:40:00 0.0
2016_12_27_S3 12/28/2016 02:45:00 0.0
2016_12_27_S3 12/28/2016 02:50:00 0.0
2016_12_27_S3 12/28/2016 02:55:00 0.0
2016_12_27_S3 12/28/2016 03:00:00 0.0
2016_12_27_S3 12/28/2016 03:05:00 0.0
2016_12_27_S3 12/28/2016 03:10:00 0.0
2016_12_27_S3 12/28/2016 03:15:00 0.0
2016_12_27_S3 12/28/2016 03:20:00 0.0
2016_12_27_S3 12/28/2016 03:25:00 0.0
2016_12_27_S3 12/28/2016 03:30:00 0.0
2016_12_27_S3 12/28/2016 03:35:00 0.0
2016_12_27_S3 12/28/2016 03:40:00 0.0
2016_12_27_S3 12/28/2016 03:45:00 0.0
2016_12_27_S3 12/28/2016 03:50:00 0.0
2016_12_27_S3 12/28/2016 03:55:00 0.0
2016_12_27_S3 12/28/2016 04:00:00 0.0
2016_12_27_S3 12/28/2016 04:05:00 0.0
2016_12_27_S3 12/28/2016 04:10:00 0.0
2016_12_27_S3 12/28/2016 04:15:00 0.0
2016_12_27_S3 12/28/2016 04:20:00 0.0
2016_12_27_S3 12/28/2016 04:25:00 0.0
2016_12_27_S3 12/28/2016 04:30:00 0.0
2016_12_27_S3 12/28/2016 04:35:00 0.0
2016_12_27_S3 12/28/2016 04:40:00 0.0
2016_12_27_S3 12/28/2016 04:45:00 0.0
2016_12_27_S3 12/28/2016 04:50:00 0.0
2016_12_27_S3 12/28/2016 04:55:00 0.0
2016_12_27_S3 12/28/2016 05:00:00 0.0
2016_12_27_S3 12/28/2016 05:05:00 0.0
2016_12_27_S3 12/28/2016 05:10:00 0.0
2016_12_27_S3 12/28/2016 05:15:00 0.0
2016_12_27_S3 12/28/2016 05:20:00 0.0
2016_12_27_S3 12/28/2016 05:25:00 0.0
2016_12_27_S3 12/28/2016 05:30:00 0.0
2016_12_27_S3 12/28/2016 05:35:00 0.0
2016_12_27_S3 12/28/2016 05:40:00 0.0
2016_12_27_S3 12/28/2016 05:45:00 0.0
2016_12_27_S3 12/28/2016 05:50:00 0.0
2016_12_27_S3 12/28/2016 05:55:00 0.0
2016_12_27_S3 12/28/2016 06:00:00 0.0
2016_12_27_S3 12/28/2016 06:05:00 0.0
2016_12_27_S3 12/28/2016 06:10:00 0.0
2016_12_27_S3 12/28/2016 06:15:00 0.0
2016_12_27_S3 12/28/2016 06:20:00 0.0
2016_12_27_S3 12/28/2016 06:25:00 0.0
2016_12_27_S3 12/28/2016 06:30:00 0.0
2016_12_27_S3 12/28/2016 06:35:00 0.0
2016_12_27_S3 12/28/2016 06:40:00 0.0
2016_12_27_S3 12/28/2016 06:45:00 0.0
2016_12_27_S3 12/28/2016 06:50:00 0.0
2016_12_27_S3 12/28/2016 06:55:00 0.0
2016_12_27_S3 12/28/2016 07:00:00 0.0
2016_12_27_S3 12/28/2016 07:05:00 0.0
2016_12_27_S3 12/28/2016 07:10:00 0.0
2016_12_27_S3 12/28/2016 07:15:00 0.0
2016_12_27_S3 12/28/2016 07:20:00 0.0
2016_12_27_S3 12/28/2016 07:25:00 0.0
2016_12_27_S3 12/28/2016 07:30:00 0.0
2016_12_27_S3 12/28/2016 07:35:00 0.0
2016_12_27_S3 12/28/2016 07:40:00 0.0
2016_12_27_S3 12/28/2016 07:45:00 0.0
2016_12_27_S3 12/28/2016 07:50:00 0.0
2016_12_27_S3 12/28/2016 07:55:00 0.0
2016_12_27_S3 12/28/2016 08:00:00 0.0

2016_12_27_S4 12/26/2016 08:00:00 0.0
2016_12_27_S4 12/26/2016 08:05:00 0.0
2016_12_27_S4 12/26/2016 08:10:00 0.0
2016_12_27_S4 12/26/2016 08:15:00 0.0
2016_12_27_S4 12/26/2016 08:20:00 0.0
2016_12_27_S4 12/26/2016 08:25:00 0.0
2016_12_27_S4 12/26/2016 08:30:00 0.0
2016_12_27_S4 12/26/2016 08:35:00 0.0
2016_12_27_S4 12/26/2016 08:40:00 0.0
2016_12_27_S4 12/26/2016 08:45:00 0.0
2016_12_27_S4 12/26/2016 08:50:00 0.0
2016_12_27_S4 12/26/2016 08:55:00 0.0
2016_12_27_S4 12/26/2016 09:00:00 0.0
2016_12_27_S4 12/26/2016 09:05:00 0.0012
2016_12_27_S4 12/26/2016 09:10:00 0.0783
2016_12_27_S4 12/26/2016 09:15:00 0.0088
2016_12_27_S4 12/26/2016 09:20:00 0.0166
2016_12_27_S4 12/26/2016 09:25:00 0.0259
2016_12_27_S4 12/26/2016 09:30:00 0.0036
2016_12_27_S4 12/26/2016 09:35:00 0.0
2016_12_27_S4 12/26/2016 09:40:00 0.0
2016_12_27_S4 12/26/2016 09:45:00 0.0
2016_12_27_S4 12/26/2016 09:50:00 0.0
2016_12_27_S4 12/26/2016 09:55:00 0.0
2016_12_27_S4 12/26/2016 10:00:00 0.0
2016_12_27_S4 12/26/2016 10:05:00 0.0
2016_12_27_S4 12/26/2016 10:10:00 0.0
2016_12_27_S4 12/26/2016 10:15:00 0.0
2016_12_27_S4 12/26/2016 10:20:00 0.007
2016_12_27_S4 12/26/2016 10:25:00 0.0001
2016_12_27_S4 12/26/2016 10:30:00 0.0
2016_12_27_S4 12/26/2016 10:35:00 0.0
2016_12_27_S4 12/26/2016 10:40:00 0.0
2016_12_27_S4 12/26/2016 10:45:00 0.0
2016_12_27_S4 12/26/2016 10:50:00 0.0
2016_12_27_S4 12/26/2016 10:55:00 0.0
2016_12_27_S4 12/26/2016 11:00:00 0.0
2016_12_27_S4 12/26/2016 11:05:00 0.0
2016_12_27_S4 12/26/2016 11:10:00 0.0
2016_12_27_S4 12/26/2016 11:15:00 0.0
2016_12_27_S4 12/26/2016 11:20:00 0.0
2016_12_27_S4 12/26/2016 11:25:00 0.0
2016_12_27_S4 12/26/2016 11:30:00 0.0
2016_12_27_S4 12/26/2016 11:35:00 0.0
2016_12_27_S4 12/26/2016 11:40:00 0.0
2016_12_27_S4 12/26/2016 11:45:00 0.0
2016_12_27_S4 12/26/2016 11:50:00 0.0
2016_12_27_S4 12/26/2016 11:55:00 0.0385
2016_12_27_S4 12/26/2016 12:00:00 0.0949
2016_12_27_S4 12/26/2016 12:05:00 0.1811
2016_12_27_S4 12/26/2016 12:10:00 0.0587
2016_12_27_S4 12/26/2016 12:15:00 0.0167
2016_12_27_S4 12/26/2016 12:20:00 0.0
2016_12_27_S4 12/26/2016 12:25:00 0.0
2016_12_27_S4 12/26/2016 12:30:00 0.0
2016_12_27_S4 12/26/2016 12:35:00 0.0052
2016_12_27_S4 12/26/2016 12:40:00 0.044
2016_12_27_S4 12/26/2016 12:45:00 0.1034
2016_12_27_S4 12/26/2016 12:50:00 0.0001
2016_12_27_S4 12/26/2016 12:55:00 0.0
2016_12_27_S4 12/26/2016 13:00:00 0.0
2016_12_27_S4 12/26/2016 13:05:00 0.0
2016_12_27_S4 12/26/2016 13:10:00 0.0
2016_12_27_S4 12/26/2016 13:15:00 0.0
2016_12_27_S4 12/26/2016 13:20:00 0.0
2016_12_27_S4 12/26/2016 13:25:00 0.0
2016_12_27_S4 12/26/2016 13:30:00 0.0
2016_12_27_S4 12/26/2016 13:35:00 0.0
2016_12_27_S4 12/26/2016 13:40:00 0.0
2016_12_27_S4 12/26/2016 13:45:00 0.0
2016_12_27_S4 12/26/2016 13:50:00 0.0
2016_12_27_S4 12/26/2016 13:55:00 0.0
2016_12_27_S4 12/26/2016 14:00:00 0.0
2016_12_27_S4 12/26/2016 14:05:00 0.0
2016_12_27_S4 12/26/2016 14:10:00 0.0
2016_12_27_S4 12/26/2016 14:15:00 0.0
2016_12_27_S4 12/26/2016 14:20:00 0.0
2016_12_27_S4 12/26/2016 14:25:00 0.0
2016_12_27_S4 12/26/2016 14:30:00 0.0
2016_12_27_S4 12/26/2016 14:35:00 0.0
2016_12_27_S4 12/26/2016 14:40:00 0.0
2016_12_27_S4 12/26/2016 14:45:00 0.0
2016_12_27_S4 12/26/2016 14:50:00 0.0
2016_12_27_S4 12/26/2016 14:55:00 0.0
2016_12_27_S4 12/26/2016 15:00:00 0.0
2016_12_27_S4 12/26/2016 15:05:00 0.0
2016_12_27_S4 12/26/2016 15:10:00 0.0
2016_12_27_S4 12/26/2016 15:15:00 0.0
2016_12_27_S4 12/26/2016 15:20:00 0.0
2016_12_27_S4 12/26/2016 15:25:00 0.0
2016_12_27_S4 12/26/2016 15:30:00 0.0
2016_12_27_S4 12/26/2016 15:35:00 0.0
2016_12_27_S4 12/26/2016 15:40:00 0.0
2016_12_27_S4 12/26/2016 15:45:00 0.0
2016_12_27_S4 12/26/2016 15:50:00 0.0
2016_12_27_S4 12/26/2016 15:55:00 0.0
2016_12_27_S4 12/26/2016 16:00:00 0.0
2016_12_27_S4 12/26/2016 16:05:00 0.0
2016_12_27_S4 12/26/2016 16:10:00 0.0
2016_12_27_S4 12/26/2016 16:15:00 0.0
2016_12_27_S4 12/26/2016 16:20:00 0.0
2016_12_27_S4 12/26/2016 16:25:00 0.0
2016_12_27_S4 12/26/2016 16:30:00 0.0
2016_12_27_S4 12/26/2016 16:35:00 0.0
2016_12_27_S4 12/26/2016 16:40:00 0.0
2016_12_27_S4 12/26/2016 16:45:00 0.0
2016_12_27_S4 12/26/2016 16:50:00 0.0
2016_12_27_S4 12/26/2016 16:55:00 0.0
2016_12_27_S4 12/26/2016 17:00:00 0.0
2016_12_27_S4 12/26/2016 17:05:00 0.0
2016_12_27_S4 12/26/2016 17:10:00 0.0
2016_12_27_S4 12/26/2016 17:15:00 0.0
2016_12_27_S4 12/26/2016 17:20:00 0.0
2016_12_27_S4 12/26/2016 17:25:00 0.0
2016_12_27_S4 12/26/2016 17:30:00 0.0
2016_12_27_S4 12/26/2016 17:35:00 0.0
2016_12_27_S4 12/26/2016 17:40:00 0.0
2016_12_27_S4 12/26/2016 17:45:00 0.0
2016_12_27_S4 12/26/2016 17:50:00 0.0
2016_12_27_S4 12/26/2016 17:55:00 0.0
2016_12_27_S4 12/26/2016 18:00:00 0.0
2016_12_27_S4 12/26/2016 18:05:00 0.0
2016_12_27_S4 12/26/2016 18:10:00 0.0
2016_12_27_S4 12/26/2016 18:15:00 0.0
2016_12_27_S4 12/26/2016 18:20:00 0.0
2016_12_27_S4 12/26/2016 18:25:00 0.0
2016_12_27_S4 12/26/2016 18:30:00 0.0
2016_12_27_S4 12/26/2016 18:35:00 0.0
2016_12_27_S4 12/26/2016 18:40:00 0.0
2016_12_27_S4 12/26/2016 18:45:00 0.0
2016_12_27_S4 12/26/2016 18:50:00 0.0
2016_12_27_S4 12/26/2016 18:55:00 0.0
2016_12_27_S4 12/26/2016 19:00:00 0.0
2016_12_27_S4 12/26/2016 19:05:00 0.0
2016_12_27_S4 12/26/2016 19:10:00 0.0
2016_12_27_S4 12/26/2016 19:15:00 0.0
2016_12_27_S4 12/26/2016 19:20:00 0.0
2016_12_27_S4 12/26/2016 19:25:00 0.0
2016_12_27_S4 12/26/2016 19:30:00 0.0
2016_12_27_S4 12/26/2016 19:35:00 0.0
2016_12_27_S4 12/26/2016 19:40:00 0.0
2016_12_27_S4 12/26/2016 19:45:00 0.0
2016_12_27_S4 12/26/2016 19:50:00 0.0
2016_12_27_S4 12/26/2016 19:55:00 0.0
2016_12_27_S4 12/26/2016 20:00:00 0.0
2016_12_27_S4 12/26/2016 20:05:00 0.0
2016_12_27_S4 12/26/2016 20:10:00 0.0
2016_12_27_S4 12/26/2016 20:15:00 0.0
2016_12_27_S4 12/26/2016 20:20:00 0.0
2016_12_27_S4 12/26/2016 20:25:00 0.0
2016_12_27_S4 12/26/2016 20:30:00 0.0
2016_12_27_S4 12/26/2016 20:35:00 0.0
2016_12_27_S4 12/26/2016 20:40:00 0.0
2016_12_27_S4 12/26/2016 20:45:00 0.0
2016_12_27_S4 12/26/2016 20:50:00 0.0
2016_12_27_S4 12/26/2016 20:55:00 0.0
2016_12_27_S4 12/26/2016 21:00:00 0.0
2016_12_27_S4 12/26/2016 21:05:00 0.0
2016_12_27_S4 12/26/2016 21:10:00 0.0
2016_12_27_S4 12/26/2016 21:15:00 0.0
2016_12_27_S4 12/26/2016 21:20:00 0.0
2016_12_27_S4 12/26/2016 21:25:00 0.0
2016_12_27_S4 12/26/2016 21:30:00 0.0
2016_12_27_S4 12/26/2016 21:35:00 0.0
2016_12_27_S4 12/26/2016 21:40:00 0.0
2016_12_27_S4 12/26/2016 21:45:00 0.0
2016_12_27_S4 12/26/2016 21:50:00 0.0
2016_12_27_S4 12/26/2016 21:55:00 0.0
2016_12_27_S4 12/26/2016 22:00:00 0.0
2016_12_27_S4 12/26/2016 22:05:00 0.0
2016_12_27_S4 12/26/2016 22:10:00 0.0
2016_12_27_S4 12/26/2016 22:15:00 0.0
2016_12_27_S4 12/26/2016 22:20:00 0.0
2016_12_27_S4 12/26/2016 22:25:00 0.0
2016_12_27_S4 12/26/2016 22:30:00 0.0
2016_12_27_S4 12/26/2016 22:35:00 0.0
2016_12_27_S4 12/26/2016 22:40:00 0.0
2016_12_27_S4 12/26/2016 22:45:00 0.0
2016_12_27_S4 12/26/2016 22:50:00 0.0
2016_12_27_S4 12/26/2016 22:55:00 0.0
2016_12_27_S4 12/26/2016 23:00:00 0.0
2016_12_27_S4 12/26/2016 23:05:00 0.0
2016_12_27_S4 12/26/2016 23:10:00 0.0
2016_12_27_S4 12/26/2016 23:15:00 0.0
2016_12_27_S4 12/26/2016 23:20:00 0.0
2016_12_27_S4 12/26/2016 23:25:00 0.0
2016_12_27_S4 12/26/2016 23:30:00 0.0
2016_12_27_S4 12/26/2016 23:35:00 0.0
2016_12_27_S4 12/26/2016 23:40:00 0.0
2016_12_27_S4 12/26/2016 23:45:00 0.0
2016_12_27_S4 12/26/2016 23:50:00 0.0
2016_12_27_S4 12/26/2016 23:55:00 0.0
2016_12_27_S4 12/27/2016 00:00:00 0.0
2016_12_27_S4 12/27/2016 00:05:00 0.0
2016_12_27_S4 12/27/2016 00:10:00 0.0
2016_12_27_S4 12/27/2016 00:15:00 0.0
2016_12_27_S4 12/27/2016 00:20:00 0.0
2016_12_27_S4 12/27/2016 00:25:00 0.0
2016_12_27_S4 12/27/2016 00:30:00 0.0
2016_12_27_S4 12/27/2016 00:35:00 0.0
2016_12_27_S4 12/27/2016 00:40:00 0.0
2016_12_27_S4 12/27/2016 00:45:00 0.0
2016_12_27_S4 12/27/2016 00:50:00 0.0
2016_12_27_S4 12/27/2016 00:55:00 0.0
2016_12_27_S4 12/27/2016 01:00:00 0.0
2016_12_27_S4 12/27/2016 01:05:00 0.0
2016_12_27_S4 12/27/2016 01:10:00 0.0025
2016_12_27_S4 12/27/2016 01:15:00 0.0151
2016_12_27_S4 12/27/2016 01:20:00 0.0137
2016_12_27_S4 12/27/2016 01:25:00 0.198
2016_12_27_S4 12/27/2016 01:30:00 0.3711
2016_12_27_S4 12/27/2016 01:35:00 1.5371
2016_12_27_S4 12/27/2016 01:40:00 0.5813
2016_12_27_S4 12/27/2016 01:45:00 1.0109
2016_12_27_S4 12/27/2016 01:50:00 1.4664
2016_12_27_S4 12/27/2016 01:55:00 0.7534
2016_12_27_S4 12/27/2016 02:00:00 0.0414
2016_12_27_S4 12/27/2016 02:05:00 0.0277
2016_12_27_S4 12/27/2016 02:10:00 0.022
2016_12_27_S4 12/27/2016 02:15:00 0.1771
2016_12_27_S4 12/27/2016 02:20:00 0.091
2016_12_27_S4 12/27/2016 02:25:00 0.1001
2016_12_27_S4 12/27/2016 02:30:00 0.1276
2016_12_27_S4 12/27/2016 02:35:00 0.1758
2016_12_27_S4 12/27/2016 02:40:00 0.3861
2016_12_27_S4 12/27/2016 02:45:00 0.2953
2016_12_27_S4 12/27/2016 02:50:00 0.5129
2016_12_27_S4 12/27/2016 02:55:00 0.4134
2016_12_27_S4 12/27/2016 03:00:00 0.472
2016_12_27_S4 12/27/2016 03:05:00 0.2335
2016_12_27_S4 12/27/2016 03:10:00 0.386
2016_12_27_S4 12/27/2016 03:15:00 0.7462
2016_12_27_S4 12/27/2016 03:20:00 1.4541
2016_12_27_S4 12/27/2016 03:25:00 0.5536
2016_12_27_S4 12/27/2016 03:30:00 0.748
2016_12_27_S4 12/27/2016 03:35:00 0.3931
2016_12_27_S4 12/27/2016 03:40:00 0.3019
2016_12_27_S4 12/27/2016 03:45:00 0.1521
2016_12_27_S4 12/27/2016 03:50:00 0.1566
2016_12_27_S4 12/27/2016 03:55:00 0.5359
2016_12_27_S4 12/27/2016 04:00:00 0.157
2016_12_27_S4 12/27/2016 04:05:00 0.1143
2016_12_27_S4 12/27/2016 04:10:00 0.2549
2016_12_27_S4 12/27/2016 04:15:00 0.1018
2016_12_27_S4 12/27/2016 04:20:00 0.0232
2016_12_27_S4 12/27/2016 04:25:00 0.0454
2016_12_27_S4 12/27/2016 04:30:00 0.0256
2016_12_27_S4 12/27/2016 04:35:00 0.0526
2016_12_27_S4 12/27/2016 04:40:00 0.0486
2016_12_27_S4 12/27/2016 04:45:00 0.0404
2016_12_27_S4 12/27/2016 04:50:00 0.1456
2016_12_27_S4 12/27/2016 04:55:00 0.4077
2016_12_27_S4 12/27/2016 05:00:00 0.3242
2016_12_27_S4 12/27/2016 05:05:00 0.1389
2016_12_27_S4 12/27/2016 05:10:00 0.2066
2016_12_27_S4 12/27/2016 05:15:00 0.1833
2016_12_27_S4 12/27/2016 05:20:00 0.1225
2016_12_27_S4 12/27/2016 05:25:00 0.0083
2016_12_27_S4 12/27/2016 05:30:00 0.0
2016_12_27_S4 12/27/2016 05:35:00 0.0
2016_12_27_S4 12/27/2016 05:40:00 0.0
2016_12_27_S4 12/27/2016 05:45:00 0.0
2016_12_27_S4 12/27/2016 05:50:00 0.0
2016_12_27_S4 12/27/2016 05:55:00 0.0
2016_12_27_S4 12/27/2016 06:00:00 0.0
2016_12_27_S4 12/27/2016 06:05:00 0.0017
2016_12_27_S4 12/27/2016 06:10:00 0.0
2016_12_27_S4 12/27/2016 06:15:00 0.0
2016_12_27_S4 12/27/2016 06:20:00 0.0
2016_12_27_S4 12/27/2016 06:25:00 0.0
2016_12_27_S4 12/27/2016 06:30:00 0.0
2016_12_27_S4 12/27/2016 06:35:00 0.0
2016_12_27_S4 12/27/2016 06:40:00 0.0073
2016_12_27_S4 12/27/2016 06:45:00 0.0413
2016_12_27_S4 12/27/2016 06:50:00 0.0037
2016_12_27_S4 12/27/2016 06:55:00 0.047
2016_12_27_S4 12/27/2016 07:00:00 0.3219
2016_12_27_S4 12/27/2016 07:05:00 0.1416
2016_12_27_S4 12/27/2016 07:10:00 0.7464
2016_12_27_S4 12/27/2016 07:15:00 0.5547
2016_12_27_S4 12/27/2016 07:20:00 0.4277
2016_12_27_S4 12/27/2016 07:25:00 0.2621
2016_12_27_S4 12/27/2016 07:30:00 0.6004
2016_12_27_S4 12/27/2016 07:35:00 0.4049
2016_12_27_S4 12/27/2016 07:40:00 0.2359
2016_12_27_S4 12/27/2016 07:45:00 0.2808
2016_12_27_S4 12/27/2016 07:50:00 1.0132
2016_12_27_S4 12/27/2016 07:55:00 0.9173
2016_12_27_S4 12/27/2016 08:00:00 0.3505
2016_12_27_S4 12/27/2016 08:05:00 0.1458
2016_12_27_S4 12/27/2016 08:10:00 0.5016
2016_12_27_S4 12/27/2016 08:15:00 0.3498
2016_12_27_S4 12/27/2016 08:20:00 0.3624
2016_12_27_S4 12/27/2016 08:25:00 0.1773
2016_12_27_S4 12/27/2016 08:30:00 0.085
2016_12_27_S4 12/27/2016 08:35:00 0.2499
2016_12_27_S4 12/27/2016 08:40:00 0.8377
2016_12_27_S4 12/27/2016 08:45:00 1.1791
2016_12_27_S4 12/27/2016 08:50:00 1.2909
2016_12_27_S4 12/27/2016 08:55:00 0.7049
2016_12_27_S4 12/27/2016 09:00:00 0.8521
2016_12_27_S4 12/27/2016 09:05:00 0.5775
2016_12_27_S4 12/27/2016 09:10:00 0.6554
2016_12_27_S4 12/27/2016 09:15:00 0.3703
2016_12_27_S4 12/27/2016 09:20:00 0.8069
2016_12_27_S4 12/27/2016 09:25:00 0.884
2016_12_27_S4 12/27/2016 09:30:00 0.1421
2016_12_27_S4 12/27/2016 09:35:00 0.1735
2016_12_27_S4 12/27/2016 09:40:00 0.5288
2016_12_27_S4 12/27/2016 09:45:00 0.422
2016_12_27_S4 12/27/2016 09:50:00 0.1483
2016_12_27_S4 12/27/2016 09:55:00 0.0
2016_12_27_S4 12/27/2016 10:00:00 0.0262
2016_12_27_S4 12/27/2016 10:05:00 0.4503
2016_12_27_S4 12/27/2016 10:10:00 0.547
2016_12_27_S4 12/27/2016 10:15:00 0.1448
2016_12_27_S4 12/27/2016 10:20:00 0.0755
2016_12_27_S4 12/27/2016 10:25:00 0.1396
2016_12_27_S4 12/27/2016 10:30:00 0.035
2016_12_27_S4 12/27/2016 10:35:00 0.0585
2016_12_27_S4 12/27/2016 10:40:00 0.0062
2016_12_27_S4 12/27/2016 10:45:00 1.0185
2016_12_27_S4 12/27/2016 10:50:00 0.3974
2016_12_27_S4 12/27/2016 10:55:00 1.1845
2016_12_27_S4 12/27/2016 11:00:00 0.4038
2016_12_27_S4 12/27/2016 11:05:00 0.2648
2016_12_27_S4 12/27/2016 11:10:00 0.0859
2016_12_27_S4 12/27/2016 11:15:00 0.1962
2016_12_27_S4 12/27/2016 11:20:00 0.3139
2016_12_27_S4 12/27/2016 11:25:00 0.6236
2016_12_27_S4 12/27/2016 11:30:00 0.4344
2016_12_27_S4 12/27/2016 11:35:00 0.3906
2016_12_27_S4 12/27/2016 11:40:00 0.65
2016_12_27_S4 12/27/2016 11:45:00 1.1575
2016_12_27_S4 12/27/2016 11:50:00 1.8615
2016_12_27_S4 12/27/2016 11:55:00 0.7958
2016_12_27_S4 12/27/2016 12:00:00 0.2451
2016_12_27_S4 12/27/2016 12:05:00 0.6659
2016_12_27_S4 12/27/2016 12:10:00 0.1774
2016_12_27_S4 12/27/2016 12:15:00 0.2406
2016_12_27_S4 12/27/2016 12:20:00 0.0978
2016_12_27_S4 12/27/2016 12:25:00 0.1484
2016_12_27_S4 12/27/2016 12:30:00 0.1785
2016_12_27_S4 12/27/2016 12:35:00 0.0377
2016_12_27_S4 12/27/2016 12:40:00 0.0421
2016_12_27_S4 12/27/2016 12:45:00 0.0178
2016_12_27_S4 12/27/2016 12:50:00 0.005
2016_12_27_S4 12/27/2016 12:55:00 0.001
2016_12_27_S4 12/27/2016 13:00:00 0.0381
2016_12_27_S4 12/27/2016 13:05:00 0.0113
2016_12_27_S4 12/27/2016 13:10:00 0.0
2016_12_27_S4 12/27/2016 13:15:00 0.0
2016_12_27_S4 12/27/2016 13:20:00 0.0
2016_12_27_S4 12/27/2016 13:25:00 0.0
2016_12_27_S4 12/27/2016 13:30:00 0.0977
2016_12_27_S4 12/27/2016 13:35:00 0.1711
2016_12_27_S4 12/27/2016 13:40:00 0.2111
2016_12_27_S4 12/27/2016 13:45:00 0.2127
2016_12_27_S4 12/27/2016 13:50:00 0.1235
2016_12_27_S4 12/27/2016 13:55:00 0.0138
2016_12_27_S4 12/27/2016 14:00:00 0.0418
2016_12_27_S4 12/27/2016 14:05:00 0.1241
2016_12_27_S4 12/27/2016 14:10:00 0.0201
2016_12_27_S4 12/27/2016 14:15:00 0.0
2016_12_27_S4 12/27/2016 14:20:00 0.0172
2016_12_27_S4 12/27/2016 14:25:00 0.0142
2016_12_27_S4 12/27/2016 14:30:00 0.0073
2016_12_27_S4 12/27/2016 14:35:00 0.0
2016_12_27_S4 12/27/2016 14:40:00 0.0051
2016_12_27_S4 12/27/2016 14:45:00 0.0
2016_12_27_S4 12/27/2016 14:50:00 0.0
2016_12_27_S4 12/27/2016 14:55:00 0.0
2016_12_27_S4 12/27/2016 15:00:00 0.0
2016_12_27_S4 12/27/2016 15:05:00 0.0
2016_12_27_S4 12/27/2016 15:10:00 0.0
2016_12_27_S4 12/27/2016 15:15:00 0.0017
2016_12_27_S4 12/27/2016 15:20:00 0.0
2016_12_27_S4 12/27/2016 15:25:00 0.0007
2016_12_27_S4 12/27/2016 15:30:00 0.0
2016_12_27_S4 12/27/2016 15:35:00 0.0
2016_12_27_S4 12/27/2016 15:40:00 0.0
2016_12_27_S4 12/27/2016 15:45:00 0.0
2016_12_27_S4 12/27/2016 15:50:00 0.0
2016_12_27_S4 12/27/2016 15:55:00 0.0001
2016_12_27_S4 12/27/2016 16:00:00 0.1773
2016_12_27_S4 12/27/2016 16:05:00 0.0346
2016_12_27_S4 12/27/2016 16:10:00 0.0
2016_12_27_S4 12/27/2016 16:15:00 0.0
2016_12_27_S4 12/27/2016 16:20:00 0.0142
2016_12_27_S4 12/27/2016 16:25:00 0.0
2016_12_27_S4 12/27/2016 16:30:00 0.0
2016_12_27_S4 12/27/2016 16:35:00 0.0
2016_12_27_S4 12/27/2016 16:40:00 0.0396
2016_12_27_S4 12/27/2016 16:45:00 0.0
2016_12_27_S4 12/27/2016 16:50:00 0.0
2016_12_27_S4 12/27/2016 16:55:00 0.0
2016_12_27_S4 12/27/2016 17:00:00 0.0
2016_12_27_S4 12/27/2016 17:05:00 0.0
2016_12_27_S4 12/27/2016 17:10:00 0.0
2016_12_27_S4 12/27/2016 17:15:00 0.0
2016_12_27_S4 12/27/2016 17:20:00 0.0
2016_12_27_S4 12/27/2016 17:25:00 0.0
2016_12_27_S4 12/27/2016 17:30:00 0.0
2016_12_27_S4 12/27/2016 17:35:00 0.0
2016_12_27_S4 12/27/2016 17:40:00 0.037
2016_12_27_S4 12/27/2016 17:45:00 0.1207
2016_12_27_S4 12/27/2016 17:50:00 0.0893
2016_12_27_S4 12/27/2016 17:55:00 0.0172
2016_12_27_S4 12/27/2016 18:00:00 0.0
2016_12_27_S4 12/27/2016 18:05:00 0.0
2016_12_27_S4 12/27/2016 18:10:00 0.0
2016_12_27_S4 12/27/2016 18:15:00 0.0
2016_12_27_S4 12/27/2016 18:20:00 0.1876
2016_12_27_S4 12/27/2016 18:25:00 0.3959
2016_12_27_S4 12/27/2016 18:30:00 0.0155
2016_12_27_S4 12/27/2016 18:35:00 0.0249
2016_12_27_S4 12/27/2016 18:40:00 0.0178
2016_12_27_S4 12/27/2016 18:45:00 0.0
2016_12_27_S4 12/27/2016 18:50:00 0.0
2016_12_27_S4 12/27/2016 18:55:00 0.0
2016_12_27_S4 12/27/2016 19:00:00 0.0
2016_12_27_S4 12/27/2016 19:05:00 0.0
2016_12_27_S4 12/27/2016 19:10:00 0.2735
2016_12_27_S4 12/27/2016 19:15:00 0.057
2016_12_27_S4 12/27/2016 19:20:00 0.0
2016_12_27_S4 12/27/2016 19:25:00 0.0
2016_12_27_S4 12/27/2016 19:30:00 0.0146
2016_12_27_S4 12/27/2016 19:35:00 0.4701
2016_12_27_S4 12/27/2016 19:40:00 1.0913
2016_12_27_S4 12/27/2016 19:45:00 2.8509
2016_12_27_S4 12/27/2016 19:50:00 3.8092
2016_12_27_S4 12/27/2016 19:55:00 0.8333
2016_12_27_S4 12/27/2016 20:00:00 0.1197
2016_12_27_S4 12/27/2016 20:05:00 0.0009
2016_12_27_S4 12/27/2016 20:10:00 0.0
2016_12_27_S4 12/27/2016 20:15:00 0.0
2016_12_27_S4 12/27/2016 20:20:00 0.0
2016_12_27_S4 12/27/2016 20:25:00 0.0
2016_12_27_S4 12/27/2016 20:30:00 0.0
2016_12_27_S4 12/27/2016 20:35:00 0.0
2016_12_27_S4 12/27/2016 20:40:00 0.0
2016_12_27_S4 12/27/2016 20:45:00 0.0
2016_12_27_S4 12/27/2016 20:50:00 0.0
2016_12_27_S4 12/27/2016 20:55:00 0.0
2016_12_27_S4 12/27/2016 21:00:00 0.0
2016_12_27_S4 12/27/2016 21:05:00 0.0
2016_12_27_S4 12/27/2016 21:10:00 0.0
2016_12_27_S4 12/27/2016 21:15:00 0.0
2016_12_27_S4 12/27/2016 21:20:00 0.0
2016_12_27_S4 12/27/2016 21:25:00 0.0
2016_12_27_S4 12/27/2016 21:30:00 0.0
2016_12_27_S4 12/27/2016 21:35:00 0.0
2016_12_27_S4 12/27/2016 21:40:00 0.0
2016_12_27_S4 12/27/2016 21:45:00 0.0
2016_12_27_S4 12/27/2016 21:50:00 0.0
2016_12_27_S4 12/27/2016 21:55:00 0.0
2016_12_27_S4 12/27/2016 22:00:00 0.0002
2016_12_27_S4 12/27/2016 22:05:00 0.0
2016_12_27_S4 12/27/2016 22:10:00 0.0055
2016_12_27_S4 12/27/2016 22:15:00 0.0083
2016_12_27_S4 12/27/2016 22:20:00 0.0
2016_12_27_S4 12/27/2016 22:25:00 0.0142
2016_12_27_S4 12/27/2016 22:30:00 0.0355
2016_12_27_S4 12/27/2016 22:35:00 0.8711
2016_12_27_S4 12/27/2016 22:40:00 0.013
2016_12_27_S4 12/27/2016 22:45:00 0.0
2016_12_27_S4 12/27/2016 22:50:00 0.0008
2016_12_27_S4 12/27/2016 22:55:00 0.0009
2016_12_27_S4 12/27/2016 23:00:00 0.0014
2016_12_27_S4 12/27/2016 23:05:00 0.0047
2016_12_27_S4 12/27/2016 23:10:00 0.0012
2016_12_27_S4 12/27/2016 23:15:00 0.0001
2016_12_27_S4 12/27/2016 23:20:00 0.0163
2016_12_27_S4 12/27/2016 23:25:00 0.0214
2016_12_27_S4 12/27/2016 23:30:00 0.0281
2016_12_27_S4 12/27/2016 23:35:00 0.0001
2016_12_27_S4 12/27/2016 23:40:00 0.0012
2016_12_27_S4 12/27/2016 23:45:00 0.0
2016_12_27_S4 12/27/2016 23:50:00 0.0
2016_12_27_S4 12/27/2016 23:55:00 0.0
2016_12_27_S4 12/28/2016 00:00:00 0.0
2016_12_27_S4 12/28/2016 00:05:00 0.0
2016_12_27_S4 12/28/2016 00:10:00 0.0
2016_12_27_S4 12/28/2016 00:15:00 0.0
2016_12_27_S4 12/28/2016 00:20:00 0.0
2016_12_27_S4 12/28/2016 00:25:00 0.0
2016_12_27_S4 12/28/2016 00:30:00 0.0
2016_12_27_S4 12/28/2016 00:35:00 0.0
2016_12_27_S4 12/28/2016 00:40:00 0.0
2016_12_27_S4 12/28/2016 00:45:00 0.0
2016_12_27_S4 12/28/2016 00:50:00 0.0
2016_12_27_S4 12/28/2016 00:55:00 0.0
2016_12_27_S4 12/28/2016 01:00:00 0.0
2016_12_27_S4 12/28/2016 01:05:00 0.0
2016_12_27_S4 12/28/2016 01:10:00 0.0
2016_12_27_S4 12/28/2016 01:15:00 0.0
2016_12_27_S4 12/28/2016 01:20:00 0.0
2016_12_27_S4 12/28/2016 01:25:00 0.0
2016_12_27_S4 12/28/2016 01:30:00 0.0
2016_12_27_S4 12/28/2016 01:35:00 0.0
2016_12_27_S4 12/28/2016 01:40:00 0.0
2016_12_27_S4 12/28/2016 01:45:00 0.0
2016_12_27_S4 12/28/2016 01:50:00 0.0
2016_12_27_S4 12/28/2016 01:55:00 0.0
2016_12_27_S4 12/28/2016 02:00:00 0.0
2016_12_27_S4 12/28/2016 02:05:00 0.0
2016_12_27_S4 12/28/2016 02:10:00 0.0
2016_12_27_S4 12/28/2016 02:15:00 0.0
2016_12_27_S4 12/28/2016 02:20:00 0.0
2016_12_27_S4 12/28/2016 02:25:00 0.0
2016_12_27_S4 12/28/2016 02:30:00 0.0
2016_12_27_S4 12/28/2016 02:35:00 0.0
2016_12_27_S4 12/28/2016 02:40:00 0.0
2016_12_27_S4 12/28/2016 02:45:00 0.0
2016_12_27_S4 12/28/2016 02:50:00 0.0
2016_12_27_S4 12/28/2016 02:55:00 0.0
2016_12_27_S4 12/28/2016 03:00:00 0.0
2016_12_27_S4 12/28/2016 03:05:00 0.0
2016_12_27_S4 12/28/2016 03:10:00 0.0
2016_12_27_S4 12/28/2016 03:15:00 0.0
2016_12_27_S4 12/28/2016 03:20:00 0.0
2016_12_27_S4 12/28/2016 03:25:00 0.0
2016_12_27_S4 12/28/2016 03:30:00 0.0
2016_12_27_S4 12/28/2016 03:35:00 0.0
2016_12_27_S4 12/28/2016 03:40:00 0.0
2016_12_27_S4 12/28/2016 03:45:00 0.0
2016_12_27_S4 12/28/2016 03:50:00 0.0
2016_12_27_S4 12/28/2016 03:55:00 0.0
2016_12_27_S4 12/28/2016 04:00:00 0.0
2016_12_27_S4 12/28/2016 04:05:00 0.0
2016_12_27_S4 12/28/2016 04:10:00 0.0
2016_12_27_S4 12/28/2016 04:15:00 0.0
2016_12_27_S4 12/28/2016 04:20:00 0.0
2016_12_27_S4 12/28/2016 04:25:00 0.0
2016_12_27_S4 12/28/2016 04:30:00 0.0
2016_12_27_S4 12/28/2016 04:35:00 0.0
2016_12_27_S4 12/28/2016 04:40:00 0.0
2016_12_27_S4 12/28/2016 04:45:00 0.0
2016_12_27_S4 12/28/2016 04:50:00 0.0
2016_12_27_S4 12/28/2016 04:55:00 0.0
2016_12_27_S4 12/28/2016 05:00:00 0.0
2016_12_27_S4 12/28/2016 05:05:00 0.0
2016_12_27_S4 12/28/2016 05:10:00 0.0
2016_12_27_S4 12/28/2016 05:15:00 0.0
2016_12_27_S4 12/28/2016 05:20:00 0.0
2016_12_27_S4 12/28/2016 05:25:00 0.0
2016_12_27_S4 12/28/2016 05:30:00 0.0
2016_12_27_S4 12/28/2016 05:35:00 0.0
2016_12_27_S4 12/28/2016 05:40:00 0.0
2016_12_27_S4 12/28/2016 05:45:00 0.0
2016_12_27_S4 12/28/2016 05:50:00 0.0
2016_12_27_S4 12/28/2016 05:55:00 0.0
2016_12_27_S4 12/28/2016 06:00:00 0.0
2016_12_27_S4 12/28/2016 06:05:00 0.0
2016_12_27_S4 12/28/2016 06:10:00 0.0
2016_12_27_S4 12/28/2016 06:15:00 0.0
2016_12_27_S4 12/28/2016 06:20:00 0.0
2016_12_27_S4 12/28/2016 06:25:00 0.0
2016_12_27_S4 12/28/2016 06:30:00 0.0
2016_12_27_S4 12/28/2016 06:35:00 0.0
2016_12_27_S4 12/28/2016 06:40:00 0.0
2016_12_27_S4 12/28/2016 06:45:00 0.0
2016_12_27_S4 12/28/2016 06:50:00 0.0
2016_12_27_S4 12/28/2016 06:55:00 0.0
2016_12_27_S4 12/28/2016 07:00:00 0.0
2016_12_27_S4 12/28/2016 07:05:00 0.0
2016_12_27_S4 12/28/2016 07:10:00 0.0
2016_12_27_S4 12/28/2016 07:15:00 0.0
2016_12_27_S4 12/28/2016 07:20:00 0.0
2016_12_27_S4 12/28/2016 07:25:00 0.0
2016_12_27_S4 12/28/2016 07:30:00 0.0
2016_12_27_S4 12/28/2016 07:35:00 0.0
2016_12_27_S4 12/28/2016 07:40:00 0.0
2016_12_27_S4 12/28/2016 07:45:00 0.0
2016_12_27_S4 12/28/2016 07:50:00 0.0
2016_12_27_S4 12/28/2016 07:55:00 0.0
2016_12_27_S4 12/28/2016 08:00:00 0.0

2016_12_27_S5 12/26/2016 08:00:00 0.0
2016_12_27_S5 12/26/2016 08:05:00 0.0
2016_12_27_S5 12/26/2016 08:10:00 0.0
2016_12_27_S5 12/26/2016 08:15:00 0.0
2016_12_27_S5 12/26/2016 08:20:00 0.0
2016_12_27_S5 12/26/2016 08:25:00 0.0
2016_12_27_S5 12/26/2016 08:30:00 0.0
2016_12_27_S5 12/26/2016 08:35:00 0.0
2016_12_27_S5 12/26/2016 08:40:00 0.0
2016_12_27_S5 12/26/2016 08:45:00 0.0
2016_12_27_S5 12/26/2016 08:50:00 0.0
2016_12_27_S5 12/26/2016 08:55:00 0.0
2016_12_27_S5 12/26/2016 09:00:00 0.0
2016_12_27_S5 12/26/2016 09:05:00 0.0009
2016_12_27_S5 12/26/2016 09:10:00 0.0664
2016_12_27_S5 12/26/2016 09:15:00 0.0106
2016_12_27_S5 12/26/2016 09:20:00 0.0144
2016_12_27_S5 12/26/2016 09:25:00 0.0265
2016_12_27_S5 12/26/2016 09:30:00 0.0022
2016_12_27_S5 12/26/2016 09:35:00 0.0
2016_12_27_S5 12/26/2016 09:40:00 0.0
2016_12_27_S5 12/26/2016 09:45:00 0.0
2016_12_27_S5 12/26/2016 09:50:00 0.0
2016_12_27_S5 12/26/2016 09:55:00 0.0
2016_12_27_S5 12/26/2016 10:00:00 0.0
2016_12_27_S5 12/26/2016 10:05:00 0.0
2016_12_27_S5 12/26/2016 10:10:00 0.0
2016_12_27_S5 12/26/2016 10:15:00 0.0
2016_12_27_S5 12/26/2016 10:20:00 0.0069
2016_12_27_S5 12/26/2016 10:25:00 0.0
2016_12_27_S5 12/26/2016 10:30:00 0.0
2016_12_27_S5 12/26/2016 10:35:00 0.0
2016_12_27_S5 12/26/2016 10:40:00 0.0
2016_12_27_S5 12/26/2016 10:45:00 0.0
2016_12_27_S5 12/26/2016 10:50:00 0.0
2016_12_27_S5 12/26/2016 10:55:00 0.0
2016_12_27_S5 12/26/2016 11:00:00 0.0
2016_12_27_S5 12/26/2016 11:05:00 0.0
2016_12_27_S5 12/26/2016 11:10:00 0.0
2016_12_27_S5 12/26/2016 11:15:00 0.0
2016_12_27_S5 12/26/2016 11:20:00 0.0
2016_12_27_S5 12/26/2016 11:25:00 0.0
2016_12_27_S5 12/26/2016 11:30:00 0.0
2016_12_27_S5 12/26/2016 11:35:00 0.0
2016_12_27_S5 12/26/2016 11:40:00 0.0
2016_12_27_S5 12/26/2016 11:45:00 0.0
2016_12_27_S5 12/26/2016 11:50:00 0.0
2016_12_27_S5 12/26/2016 11:55:00 0.0112
2016_12_27_S5 12/26/2016 12:00:00 0.0914
2016_12_27_S5 12/26/2016 12:05:00 0.1925
2016_12_27_S5 12/26/2016 12:10:00 0.0547
2016_12_27_S5 12/26/2016 12:15:00 0.0143
2016_12_27_S5 12/26/2016 12:20:00 0.0
2016_12_27_S5 12/26/2016 12:25:00 0.0
2016_12_27_S5 12/26/2016 12:30:00 0.0
2016_12_27_S5 12/26/2016 12:35:00 0.0048
2016_12_27_S5 12/26/2016 12:40:00 0.0452
2016_12_27_S5 12/26/2016 12:45:00 0.1118
2016_12_27_S5 12/26/2016 12:50:00 0.0
2016_12_27_S5 12/26/2016 12:55:00 0.0
2016_12_27_S5 12/26/2016 13:00:00 0.0
2016_12_27_S5 12/26/2016 13:05:00 0.0
2016_12_27_S5 12/26/2016 13:10:00 0.0
2016_12_27_S5 12/26/2016 13:15:00 0.0
2016_12_27_S5 12/26/2016 13:20:00 0.0
2016_12_27_S5 12/26/2016 13:25:00 0.0
2016_12_27_S5 12/26/2016 13:30:00 0.0
2016_12_27_S5 12/26/2016 13:35:00 0.0
2016_12_27_S5 12/26/2016 13:40:00 0.0
2016_12_27_S5 12/26/2016 13:45:00 0.0
2016_12_27_S5 12/26/2016 13:50:00 0.0
2016_12_27_S5 12/26/2016 13:55:00 0.0
2016_12_27_S5 12/26/2016 14:00:00 0.0
2016_12_27_S5 12/26/2016 14:05:00 0.0
2016_12_27_S5 12/26/2016 14:10:00 0.0
2016_12_27_S5 12/26/2016 14:15:00 0.0
2016_12_27_S5 12/26/2016 14:20:00 0.0
2016_12_27_S5 12/26/2016 14:25:00 0.0
2016_12_27_S5 12/26/2016 14:30:00 0.0
2016_12_27_S5 12/26/2016 14:35:00 0.0
2016_12_27_S5 12/26/2016 14:40:00 0.0
2016_12_27_S5 12/26/2016 14:45:00 0.0
2016_12_27_S5 12/26/2016 14:50:00 0.0
2016_12_27_S5 12/26/2016 14:55:00 0.0
2016_12_27_S5 12/26/2016 15:00:00 0.0
2016_12_27_S5 12/26/2016 15:05:00 0.0
2016_12_27_S5 12/26/2016 15:10:00 0.0
2016_12_27_S5 12/26/2016 15:15:00 0.0
2016_12_27_S5 12/26/2016 15:20:00 0.0
2016_12_27_S5 12/26/2016 15:25:00 0.0
2016_12_27_S5 12/26/2016 15:30:00 0.0
2016_12_27_S5 12/26/2016 15:35:00 0.0
2016_12_27_S5 12/26/2016 15:40:00 0.0
2016_12_27_S5 12/26/2016 15:45:00 0.0
2016_12_27_S5 12/26/2016 15:50:00 0.0
2016_12_27_S5 12/26/2016 15:55:00 0.0
2016_12_27_S5 12/26/2016 16:00:00 0.0
2016_12_27_S5 12/26/2016 16:05:00 0.0
2016_12_27_S5 12/26/2016 16:10:00 0.0
2016_12_27_S5 12/26/2016 16:15:00 0.0
2016_12_27_S5 12/26/2016 16:20:00 0.0
2016_12_27_S5 12/26/2016 16:25:00 0.0
2016_12_27_S5 12/26/2016 16:30:00 0.0
2016_12_27_S5 12/26/2016 16:35:00 0.0
2016_12_27_S5 12/26/2016 16:40:00 0.0
2016_12_27_S5 12/26/2016 16:45:00 0.0
2016_12_27_S5 12/26/2016 16:50:00 0.0
2016_12_27_S5 12/26/2016 16:55:00 0.0
2016_12_27_S5 12/26/2016 17:00:00 0.0
2016_12_27_S5 12/26/2016 17:05:00 0.0
2016_12_27_S5 12/26/2016 17:10:00 0.0
2016_12_27_S5 12/26/2016 17:15:00 0.0
2016_12_27_S5 12/26/2016 17:20:00 0.0
2016_12_27_S5 12/26/2016 17:25:00 0.0
2016_12_27_S5 12/26/2016 17:30:00 0.0
2016_12_27_S5 12/26/2016 17:35:00 0.0
2016_12_27_S5 12/26/2016 17:40:00 0.0
2016_12_27_S5 12/26/2016 17:45:00 0.0
2016_12_27_S5 12/26/2016 17:50:00 0.0
2016_12_27_S5 12/26/2016 17:55:00 0.0
2016_12_27_S5 12/26/2016 18:00:00 0.0
2016_12_27_S5 12/26/2016 18:05:00 0.0
2016_12_27_S5 12/26/2016 18:10:00 0.0
2016_12_27_S5 12/26/2016 18:15:00 0.0
2016_12_27_S5 12/26/2016 18:20:00 0.0
2016_12_27_S5 12/26/2016 18:25:00 0.0
2016_12_27_S5 12/26/2016 18:30:00 0.0
2016_12_27_S5 12/26/2016 18:35:00 0.0
2016_12_27_S5 12/26/2016 18:40:00 0.0
2016_12_27_S5 12/26/2016 18:45:00 0.0
2016_12_27_S5 12/26/2016 18:50:00 0.0
2016_12_27_S5 12/26/2016 18:55:00 0.0
2016_12_27_S5 12/26/2016 19:00:00 0.0
2016_12_27_S5 12/26/2016 19:05:00 0.0
2016_12_27_S5 12/26/2016 19:10:00 0.0
2016_12_27_S5 12/26/2016 19:15:00 0.0
2016_12_27_S5 12/26/2016 19:20:00 0.0
2016_12_27_S5 12/26/2016 19:25:00 0.0
2016_12_27_S5 12/26/2016 19:30:00 0.0
2016_12_27_S5 12/26/2016 19:35:00 0.0
2016_12_27_S5 12/26/2016 19:40:00 0.0
2016_12_27_S5 12/26/2016 19:45:00 0.0
2016_12_27_S5 12/26/2016 19:50:00 0.0
2016_12_27_S5 12/26/2016 19:55:00 0.0
2016_12_27_S5 12/26/2016 20:00:00 0.0
2016_12_27_S5 12/26/2016 20:05:00 0.0
2016_12_27_S5 12/26/2016 20:10:00 0.0
2016_12_27_S5 12/26/2016 20:15:00 0.0
2016_12_27_S5 12/26/2016 20:20:00 0.0
2016_12_27_S5 12/26/2016 20:25:00 0.0
2016_12_27_S5 12/26/2016 20:30:00 0.0
2016_12_27_S5 12/26/2016 20:35:00 0.0
2016_12_27_S5 12/26/2016 20:40:00 0.0
2016_12_27_S5 12/26/2016 20:45:00 0.0
2016_12_27_S5 12/26/2016 20:50:00 0.0
2016_12_27_S5 12/26/2016 20:55:00 0.0
2016_12_27_S5 12/26/2016 21:00:00 0.0
2016_12_27_S5 12/26/2016 21:05:00 0.0
2016_12_27_S5 12/26/2016 21:10:00 0.0
2016_12_27_S5 12/26/2016 21:15:00 0.0
2016_12_27_S5 12/26/2016 21:20:00 0.0
2016_12_27_S5 12/26/2016 21:25:00 0.0
2016_12_27_S5 12/26/2016 21:30:00 0.0
2016_12_27_S5 12/26/2016 21:35:00 0.0
2016_12_27_S5 12/26/2016 21:40:00 0.0
2016_12_27_S5 12/26/2016 21:45:00 0.0
2016_12_27_S5 12/26/2016 21:50:00 0.0
2016_12_27_S5 12/26/2016 21:55:00 0.0
2016_12_27_S5 12/26/2016 22:00:00 0.0
2016_12_27_S5 12/26/2016 22:05:00 0.0
2016_12_27_S5 12/26/2016 22:10:00 0.0
2016_12_27_S5 12/26/2016 22:15:00 0.0
2016_12_27_S5 12/26/2016 22:20:00 0.0
2016_12_27_S5 12/26/2016 22:25:00 0.0
2016_12_27_S5 12/26/2016 22:30:00 0.0
2016_12_27_S5 12/26/2016 22:35:00 0.0
2016_12_27_S5 12/26/2016 22:40:00 0.0
2016_12_27_S5 12/26/2016 22:45:00 0.0
2016_12_27_S5 12/26/2016 22:50:00 0.0
2016_12_27_S5 12/26/2016 22:55:00 0.0
2016_12_27_S5 12/26/2016 23:00:00 0.0
2016_12_27_S5 12/26/2016 23:05:00 0.0
2016_12_27_S5 12/26/2016 23:10:00 0.0
2016_12_27_S5 12/26/2016 23:15:00 0.0
2016_12_27_S5 12/26/2016 23:20:00 0.0
2016_12_27_S5 12/26/2016 23:25:00 0.0
2016_12_27_S5 12/26/2016 23:30:00 0.0
2016_12_27_S5 12/26/2016 23:35:00 0.0
2016_12_27_S5 12/26/2016 23:40:00 0.0
2016_12_27_S5 12/26/2016 23:45:00 0.0
2016_12_27_S5 12/26/2016 23:50:00 0.0
2016_12_27_S5 12/26/2016 23:55:00 0.0
2016_12_27_S5 12/27/2016 00:00:00 0.0
2016_12_27_S5 12/27/2016 00:05:00 0.0
2016_12_27_S5 12/27/2016 00:10:00 0.0
2016_12_27_S5 12/27/2016 00:15:00 0.0
2016_12_27_S5 12/27/2016 00:20:00 0.0
2016_12_27_S5 12/27/2016 00:25:00 0.0
2016_12_27_S5 12/27/2016 00:30:00 0.0
2016_12_27_S5 12/27/2016 00:35:00 0.0
2016_12_27_S5 12/27/2016 00:40:00 0.0
2016_12_27_S5 12/27/2016 00:45:00 0.0
2016_12_27_S5 12/27/2016 00:50:00 0.0
2016_12_27_S5 12/27/2016 00:55:00 0.0
2016_12_27_S5 12/27/2016 01:00:00 0.0
2016_12_27_S5 12/27/2016 01:05:00 0.0
2016_12_27_S5 12/27/2016 01:10:00 0.0
2016_12_27_S5 12/27/2016 01:15:00 0.0143
2016_12_27_S5 12/27/2016 01:20:00 0.0143
2016_12_27_S5 12/27/2016 01:25:00 0.1423
2016_12_27_S5 12/27/2016 01:30:00 0.2737
2016_12_27_S5 12/27/2016 01:35:00 1.4355
2016_12_27_S5 12/27/2016 01:40:00 0.3645
2016_12_27_S5 12/27/2016 01:45:00 1.0524
2016_12_27_S5 12/27/2016 01:50:00 1.5738
2016_12_27_S5 12/27/2016 01:55:00 0.7765
2016_12_27_S5 12/27/2016 02:00:00 0.0434
2016_12_27_S5 12/27/2016 02:05:00 0.03
2016_12_27_S5 12/27/2016 02:10:00 0.0238
2016_12_27_S5 12/27/2016 02:15:00 0.1646
2016_12_27_S5 12/27/2016 02:20:00 0.0818
2016_12_27_S5 12/27/2016 02:25:00 0.1001
2016_12_27_S5 12/27/2016 02:30:00 0.1369
2016_12_27_S5 12/27/2016 02:35:00 0.179
2016_12_27_S5 12/27/2016 02:40:00 0.3517
2016_12_27_S5 12/27/2016 02:45:00 0.3091
2016_12_27_S5 12/27/2016 02:50:00 0.5301
2016_12_27_S5 12/27/2016 02:55:00 0.4464
2016_12_27_S5 12/27/2016 03:00:00 0.5377
2016_12_27_S5 12/27/2016 03:05:00 0.2553
2016_12_27_S5 12/27/2016 03:10:00 0.3762
2016_12_27_S5 12/27/2016 03:15:00 0.7875
2016_12_27_S5 12/27/2016 03:20:00 1.4956
2016_12_27_S5 12/27/2016 03:25:00 0.5677
2016_12_27_S5 12/27/2016 03:30:00 0.8613
2016_12_27_S5 12/27/2016 03:35:00 0.3969
2016_12_27_S5 12/27/2016 03:40:00 0.3167
2016_12_27_S5 12/27/2016 03:45:00 0.1709
2016_12_27_S5 12/27/2016 03:50:00 0.1668
2016_12_27_S5 12/27/2016 03:55:00 0.5501
2016_12_27_S5 12/27/2016 04:00:00 0.1783
2016_12_27_S5 12/27/2016 04:05:00 0.117
2016_12_27_S5 12/27/2016 04:10:00 0.287
2016_12_27_S5 12/27/2016 04:15:00 0.1118
2016_12_27_S5 12/27/2016 04:20:00 0.0274
2016_12_27_S5 12/27/2016 04:25:00 0.0576
2016_12_27_S5 12/27/2016 04:30:00 0.0287
2016_12_27_S5 12/27/2016 04:35:00 0.0499
2016_12_27_S5 12/27/2016 04:40:00 0.0485
2016_12_27_S5 12/27/2016 04:45:00 0.0417
2016_12_27_S5 12/27/2016 04:50:00 0.147
2016_12_27_S5 12/27/2016 04:55:00 0.3702
2016_12_27_S5 12/27/2016 05:00:00 0.3659
2016_12_27_S5 12/27/2016 05:05:00 0.1429
2016_12_27_S5 12/27/2016 05:10:00 0.2251
2016_12_27_S5 12/27/2016 05:15:00 0.2032
2016_12_27_S5 12/27/2016 05:20:00 0.1405
2016_12_27_S5 12/27/2016 05:25:00 0.0112
2016_12_27_S5 12/27/2016 05:30:00 0.0
2016_12_27_S5 12/27/2016 05:35:00 0.0
2016_12_27_S5 12/27/2016 05:40:00 0.0
2016_12_27_S5 12/27/2016 05:45:00 0.0
2016_12_27_S5 12/27/2016 05:50:00 0.0
2016_12_27_S5 12/27/2016 05:55:00 0.0
2016_12_27_S5 12/27/2016 06:00:00 0.0
2016_12_27_S5 12/27/2016 06:05:00 0.0021
2016_12_27_S5 12/27/2016 06:10:00 0.0
2016_12_27_S5 12/27/2016 06:15:00 0.0
2016_12_27_S5 12/27/2016 06:20:00 0.0
2016_12_27_S5 12/27/2016 06:25:00 0.0
2016_12_27_S5 12/27/2016 06:30:00 0.0
2016_12_27_S5 12/27/2016 06:35:00 0.0
2016_12_27_S5 12/27/2016 06:40:00 0.0068
2016_12_27_S5 12/27/2016 06:45:00 0.0836
2016_12_27_S5 12/27/2016 06:50:00 0.0021
2016_12_27_S5 12/27/2016 06:55:00 0.0374
2016_12_27_S5 12/27/2016 07:00:00 0.2785
2016_12_27_S5 12/27/2016 07:05:00 0.1115
2016_12_27_S5 12/27/2016 07:10:00 0.7228
2016_12_27_S5 12/27/2016 07:15:00 0.6181
2016_12_27_S5 12/27/2016 07:20:00 0.432
2016_12_27_S5 12/27/2016 07:25:00 0.2655
2016_12_27_S5 12/27/2016 07:30:00 0.5725
2016_12_27_S5 12/27/2016 07:35:00 0.3418
2016_12_27_S5 12/27/2016 07:40:00 0.2262
2016_12_27_S5 12/27/2016 07:45:00 0.2704
2016_12_27_S5 12/27/2016 07:50:00 1.0729
2016_12_27_S5 12/27/2016 07:55:00 0.9493
2016_12_27_S5 12/27/2016 08:00:00 0.3967
2016_12_27_S5 12/27/2016 08:05:00 0.1656
2016_12_27_S5 12/27/2016 08:10:00 0.482
2016_12_27_S5 12/27/2016 08:15:00 0.3712
2016_12_27_S5 12/27/2016 08:20:00 0.3676
2016_12_27_S5 12/27/2016 08:25:00 0.2182
2016_12_27_S5 12/27/2016 08:30:00 0.0685
2016_12_27_S5 12/27/2016 08:35:00 0.2271
2016_12_27_S5 12/27/2016 08:40:00 0.6851
2016_12_27_S5 12/27/2016 08:45:00 1.1326
2016_12_27_S5 12/27/2016 08:50:00 1.1312
2016_12_27_S5 12/27/2016 08:55:00 0.6302
2016_12_27_S5 12/27/2016 09:00:00 1.1526
2016_12_27_S5 12/27/2016 09:05:00 0.4878
2016_12_27_S5 12/27/2016 09:10:00 0.6606
2016_12_27_S5 12/27/2016 09:15:00 0.4036
2016_12_27_S5 12/27/2016 09:20:00 0.7678
2016_12_27_S5 12/27/2016 09:25:00 0.7187
2016_12_27_S5 12/27/2016 09:30:00 0.1515
2016_12_27_S5 12/27/2016 09:35:00 0.1853
2016_12_27_S5 12/27/2016 09:40:00 0.3821
2016_12_27_S5 12/27/2016 09:45:00 0.5065
2016_12_27_S5 12/27/2016 09:50:00 0.1504
2016_12_27_S5 12/27/2016 09:55:00 0.0
2016_12_27_S5 12/27/2016 10:00:00 0.028
2016_12_27_S5 12/27/2016 10:05:00 0.5038
2016_12_27_S5 12/27/2016 10:10:00 0.5841
2016_12_27_S5 12/27/2016 10:15:00 0.1519
2016_12_27_S5 12/27/2016 10:20:00 0.067
2016_12_27_S5 12/27/2016 10:25:00 0.1267
2016_12_27_S5 12/27/2016 10:30:00 0.0449
2016_12_27_S5 12/27/2016 10:35:00 0.0525
2016_12_27_S5 12/27/2016 10:40:00 0.0063
2016_12_27_S5 12/27/2016 10:45:00 0.9909
2016_12_27_S5 12/27/2016 10:50:00 0.4155
2016_12_27_S5 12/27/2016 10:55:00 1.3504
2016_12_27_S5 12/27/2016 11:00:00 0.4156
2016_12_27_S5 12/27/2016 11:05:00 0.2781
2016_12_27_S5 12/27/2016 11:10:00 0.09
2016_12_27_S5 12/27/2016 11:15:00 0.2287
2016_12_27_S5 12/27/2016 11:20:00 0.307
2016_12_27_S5 12/27/2016 11:25:00 0.6038
2016_12_27_S5 12/27/2016 11:30:00 0.3963
2016_12_27_S5 12/27/2016 11:35:00 0.4591
2016_12_27_S5 12/27/2016 11:40:00 0.7124
2016_12_27_S5 12/27/2016 11:45:00 1.0669
2016_12_27_S5 12/27/2016 11:50:00 1.9964
2016_12_27_S5 12/27/2016 11:55:00 0.7898
2016_12_27_S5 12/27/2016 12:00:00 0.2652
2016_12_27_S5 12/27/2016 12:05:00 0.6391
2016_12_27_S5 12/27/2016 12:10:00 0.1336
2016_12_27_S5 12/27/2016 12:15:00 0.2708
2016_12_27_S5 12/27/2016 12:20:00 0.1079
2016_12_27_S5 12/27/2016 12:25:00 0.1275
2016_12_27_S5 12/27/2016 12:30:00 0.1855
2016_12_27_S5 12/27/2016 12:35:00 0.0387
2016_12_27_S5 12/27/2016 12:40:00 0.0449
2016_12_27_S5 12/27/2016 12:45:00 0.0159
2016_12_27_S5 12/27/2016 12:50:00 0.005
2016_12_27_S5 12/27/2016 12:55:00 0.0015
2016_12_27_S5 12/27/2016 13:00:00 0.0432
2016_12_27_S5 12/27/2016 13:05:00 0.0132
2016_12_27_S5 12/27/2016 13:10:00 0.0
2016_12_27_S5 12/27/2016 13:15:00 0.0
2016_12_27_S5 12/27/2016 13:20:00 0.0
2016_12_27_S5 12/27/2016 13:25:00 0.0
2016_12_27_S5 12/27/2016 13:30:00 0.1083
2016_12_27_S5 12/27/2016 13:35:00 0.1769
2016_12_27_S5 12/27/2016 13:40:00 0.216
2016_12_27_S5 12/27/2016 13:45:00 0.2032
2016_12_27_S5 12/27/2016 13:50:00 0.1376
2016_12_27_S5 12/27/2016 13:55:00 0.0139
2016_12_27_S5 12/27/2016 14:00:00 0.0548
2016_12_27_S5 12/27/2016 14:05:00 0.1208
2016_12_27_S5 12/27/2016 14:10:00 0.0232
2016_12_27_S5 12/27/2016 14:15:00 0.0
2016_12_27_S5 12/27/2016 14:20:00 0.0179
2016_12_27_S5 12/27/2016 14:25:00 0.0144
2016_12_27_S5 12/27/2016 14:30:00 0.0089
2016_12_27_S5 12/27/2016 14:35:00 0.0
2016_12_27_S5 12/27/2016 14:40:00 0.0033
2016_12_27_S5 12/27/2016 14:45:00 0.0
2016_12_27_S5 12/27/2016 14:50:00 0.0
2016_12_27_S5 12/27/2016 14:55:00 0.0
2016_12_27_S5 12/27/2016 15:00:00 0.0
2016_12_27_S5 12/27/2016 15:05:00 0.0
2016_12_27_S5 12/27/2016 15:10:00 0.0
2016_12_27_S5 12/27/2016 15:15:00 0.0021
2016_12_27_S5 12/27/2016 15:20:00 0.0
2016_12_27_S5 12/27/2016 15:25:00 0.0014
2016_12_27_S5 12/27/2016 15:30:00 0.0
2016_12_27_S5 12/27/2016 15:35:00 0.0
2016_12_27_S5 12/27/2016 15:40:00 0.0
2016_12_27_S5 12/27/2016 15:45:00 0.0
2016_12_27_S5 12/27/2016 15:50:00 0.0
2016_12_27_S5 12/27/2016 15:55:00 0.0
2016_12_27_S5 12/27/2016 16:00:00 0.1367
2016_12_27_S5 12/27/2016 16:05:00 0.0401
2016_12_27_S5 12/27/2016 16:10:00 0.0
2016_12_27_S5 12/27/2016 16:15:00 0.0
2016_12_27_S5 12/27/2016 16:20:00 0.0143
2016_12_27_S5 12/27/2016 16:25:00 0.0
2016_12_27_S5 12/27/2016 16:30:00 0.0
2016_12_27_S5 12/27/2016 16:35:00 0.0
2016_12_27_S5 12/27/2016 16:40:00 0.0523
2016_12_27_S5 12/27/2016 16:45:00 0.0
2016_12_27_S5 12/27/2016 16:50:00 0.0
2016_12_27_S5 12/27/2016 16:55:00 0.0
2016_12_27_S5 12/27/2016 17:00:00 0.0
2016_12_27_S5 12/27/2016 17:05:00 0.0
2016_12_27_S5 12/27/2016 17:10:00 0.0
2016_12_27_S5 12/27/2016 17:15:00 0.0
2016_12_27_S5 12/27/2016 17:20:00 0.0
2016_12_27_S5 12/27/2016 17:25:00 0.0
2016_12_27_S5 12/27/2016 17:30:00 0.0
2016_12_27_S5 12/27/2016 17:35:00 0.0
2016_12_27_S5 12/27/2016 17:40:00 0.0309
2016_12_27_S5 12/27/2016 17:45:00 0.1162
2016_12_27_S5 12/27/2016 17:50:00 0.0933
2016_12_27_S5 12/27/2016 17:55:00 0.0202
2016_12_27_S5 12/27/2016 18:00:00 0.0
2016_12_27_S5 12/27/2016 18:05:00 0.0
2016_12_27_S5 12/27/2016 18:10:00 0.0
2016_12_27_S5 12/27/2016 18:15:00 0.0
2016_12_27_S5 12/27/2016 18:20:00 0.0863
2016_12_27_S5 12/27/2016 18:25:00 1.1695
2016_12_27_S5 12/27/2016 18:30:00 0.0152
2016_12_27_S5 12/27/2016 18:35:00 0.0269
2016_12_27_S5 12/27/2016 18:40:00 0.0217
2016_12_27_S5 12/27/2016 18:45:00 0.0
2016_12_27_S5 12/27/2016 18:50:00 0.0
2016_12_27_S5 12/27/2016 18:55:00 0.0
2016_12_27_S5 12/27/2016 19:00:00 0.0
2016_12_27_S5 12/27/2016 19:05:00 0.0
2016_12_27_S5 12/27/2016 19:10:00 0.2353
2016_12_27_S5 12/27/2016 19:15:00 0.1176
2016_12_27_S5 12/27/2016 19:20:00 0.0
2016_12_27_S5 12/27/2016 19:25:00 0.0
2016_12_27_S5 12/27/2016 19:30:00 0.0156
2016_12_27_S5 12/27/2016 19:35:00 0.3497
2016_12_27_S5 12/27/2016 19:40:00 1.1744
2016_12_27_S5 12/27/2016 19:45:00 2.9498
2016_12_27_S5 12/27/2016 19:50:00 3.9046
2016_12_27_S5 12/27/2016 19:55:00 1.0549
2016_12_27_S5 12/27/2016 20:00:00 0.1107
2016_12_27_S5 12/27/2016 20:05:00 0.0008
2016_12_27_S5 12/27/2016 20:10:00 0.0
2016_12_27_S5 12/27/2016 20:15:00 0.0
2016_12_27_S5 12/27/2016 20:20:00 0.0
2016_12_27_S5 12/27/2016 20:25:00 0.0
2016_12_27_S5 12/27/2016 20:30:00 0.0
2016_12_27_S5 12/27/2016 20:35:00 0.0
2016_12_27_S5 12/27/2016 20:40:00 0.0
2016_12_27_S5 12/27/2016 20:45:00 0.0
2016_12_27_S5 12/27/2016 20:50:00 0.0
2016_12_27_S5 12/27/2016 20:55:00 0.0
2016_12_27_S5 12/27/2016 21:00:00 0.0
2016_12_27_S5 12/27/2016 21:05:00 0.0
2016_12_27_S5 12/27/2016 21:10:00 0.0
2016_12_27_S5 12/27/2016 21:15:00 0.0
2016_12_27_S5 12/27/2016 21:20:00 0.0
2016_12_27_S5 12/27/2016 21:25:00 0.0
2016_12_27_S5 12/27/2016 21:30:00 0.0
2016_12_27_S5 12/27/2016 21:35:00 0.0
2016_12_27_S5 12/27/2016 21:40:00 0.0
2016_12_27_S5 12/27/2016 21:45:00 0.0
2016_12_27_S5 12/27/2016 21:50:00 0.0
2016_12_27_S5 12/27/2016 21:55:00 0.0
2016_12_27_S5 12/27/2016 22:00:00 0.0
2016_12_27_S5 12/27/2016 22:05:00 0.0
2016_12_27_S5 12/27/2016 22:10:00 0.0039
2016_12_27_S5 12/27/2016 22:15:00 0.0065
2016_12_27_S5 12/27/2016 22:20:00 0.0
2016_12_27_S5 12/27/2016 22:25:00 0.0119
2016_12_27_S5 12/27/2016 22:30:00 0.0323
2016_12_27_S5 12/27/2016 22:35:00 0.9187
2016_12_27_S5 12/27/2016 22:40:00 0.016
2016_12_27_S5 12/27/2016 22:45:00 0.0
2016_12_27_S5 12/27/2016 22:50:00 0.0008
2016_12_27_S5 12/27/2016 22:55:00 0.0007
2016_12_27_S5 12/27/2016 23:00:00 0.0
2016_12_27_S5 12/27/2016 23:05:00 0.0074
2016_12_27_S5 12/27/2016 23:10:00 0.0
2016_12_27_S5 12/27/2016 23:15:00 0.0008
2016_12_27_S5 12/27/2016 23:20:00 0.0138
2016_12_27_S5 12/27/2016 23:25:00 0.0165
2016_12_27_S5 12/27/2016 23:30:00 0.0308
2016_12_27_S5 12/27/2016 23:35:00 0.0
2016_12_27_S5 12/27/2016 23:40:00 0.0
2016_12_27_S5 12/27/2016 23:45:00 0.0
2016_12_27_S5 12/27/2016 23:50:00 0.0
2016_12_27_S5 12/27/2016 23:55:00 0.0
2016_12_27_S5 12/28/2016 00:00:00 0.0
2016_12_27_S5 12/28/2016 00:05:00 0.0
2016_12_27_S5 12/28/2016 00:10:00 0.0
2016_12_27_S5 12/28/2016 00:15:00 0.0
2016_12_27_S5 12/28/2016 00:20:00 0.0
2016_12_27_S5 12/28/2016 00:25:00 0.0
2016_12_27_S5 12/28/2016 00:30:00 0.0
2016_12_27_S5 12/28/2016 00:35:00 0.0
2016_12_27_S5 12/28/2016 00:40:00 0.0
2016_12_27_S5 12/28/2016 00:45:00 0.0
2016_12_27_S5 12/28/2016 00:50:00 0.0
2016_12_27_S5 12/28/2016 00:55:00 0.0
2016_12_27_S5 12/28/2016 01:00:00 0.0
2016_12_27_S5 12/28/2016 01:05:00 0.0
2016_12_27_S5 12/28/2016 01:10:00 0.0
2016_12_27_S5 12/28/2016 01:15:00 0.0
2016_12_27_S5 12/28/2016 01:20:00 0.0
2016_12_27_S5 12/28/2016 01:25:00 0.0
2016_12_27_S5 12/28/2016 01:30:00 0.0
2016_12_27_S5 12/28/2016 01:35:00 0.0
2016_12_27_S5 12/28/2016 01:40:00 0.0
2016_12_27_S5 12/28/2016 01:45:00 0.0
2016_12_27_S5 12/28/2016 01:50:00 0.0
2016_12_27_S5 12/28/2016 01:55:00 0.0
2016_12_27_S5 12/28/2016 02:00:00 0.0
2016_12_27_S5 12/28/2016 02:05:00 0.0
2016_12_27_S5 12/28/2016 02:10:00 0.0
2016_12_27_S5 12/28/2016 02:15:00 0.0
2016_12_27_S5 12/28/2016 02:20:00 0.0
2016_12_27_S5 12/28/2016 02:25:00 0.0
2016_12_27_S5 12/28/2016 02:30:00 0.0
2016_12_27_S5 12/28/2016 02:35:00 0.0
2016_12_27_S5 12/28/2016 02:40:00 0.0
2016_12_27_S5 12/28/2016 02:45:00 0.0
2016_12_27_S5 12/28/2016 02:50:00 0.0
2016_12_27_S5 12/28/2016 02:55:00 0.0
2016_12_27_S5 12/28/2016 03:00:00 0.0
2016_12_27_S5 12/28/2016 03:05:00 0.0
2016_12_27_S5 12/28/2016 03:10:00 0.0
2016_12_27_S5 12/28/2016 03:15:00 0.0
2016_12_27_S5 12/28/2016 03:20:00 0.0
2016_12_27_S5 12/28/2016 03:25:00 0.0
2016_12_27_S5 12/28/2016 03:30:00 0.0
2016_12_27_S5 12/28/2016 03:35:00 0.0
2016_12_27_S5 12/28/2016 03:40:00 0.0
2016_12_27_S5 12/28/2016 03:45:00 0.0
2016_12_27_S5 12/28/2016 03:50:00 0.0
2016_12_27_S5 12/28/2016 03:55:00 0.0
2016_12_27_S5 12/28/2016 04:00:00 0.0
2016_12_27_S5 12/28/2016 04:05:00 0.0
2016_12_27_S5 12/28/2016 04:10:00 0.0
2016_12_27_S5 12/28/2016 04:15:00 0.0
2016_12_27_S5 12/28/2016 04:20:00 0.0
2016_12_27_S5 12/28/2016 04:25:00 0.0
2016_12_27_S5 12/28/2016 04:30:00 0.0
2016_12_27_S5 12/28/2016 04:35:00 0.0
2016_12_27_S5 12/28/2016 04:40:00 0.0
2016_12_27_S5 12/28/2016 04:45:00 0.0
2016_12_27_S5 12/28/2016 04:50:00 0.0
2016_12_27_S5 12/28/2016 04:55:00 0.0
2016_12_27_S5 12/28/2016 05:00:00 0.0
2016_12_27_S5 12/28/2016 05:05:00 0.0
2016_12_27_S5 12/28/2016 05:10:00 0.0
2016_12_27_S5 12/28/2016 05:15:00 0.0
2016_12_27_S5 12/28/2016 05:20:00 0.0
2016_12_27_S5 12/28/2016 05:25:00 0.0
2016_12_27_S5 12/28/2016 05:30:00 0.0
2016_12_27_S5 12/28/2016 05:35:00 0.0
2016_12_27_S5 12/28/2016 05:40:00 0.0
2016_12_27_S5 12/28/2016 05:45:00 0.0
2016_12_27_S5 12/28/2016 05:50:00 0.0
2016_12_27_S5 12/28/2016 05:55:00 0.0
2016_12_27_S5 12/28/2016 06:00:00 0.0
2016_12_27_S5 12/28/2016 06:05:00 0.0
2016_12_27_S5 12/28/2016 06:10:00 0.0
2016_12_27_S5 12/28/2016 06:15:00 0.0
2016_12_27_S5 12/28/2016 06:20:00 0.0
2016_12_27_S5 12/28/2016 06:25:00 0.0
2016_12_27_S5 12/28/2016 06:30:00 0.0
2016_12_27_S5 12/28/2016 06:35:00 0.0
2016_12_27_S5 12/28/2016 06:40:00 0.0
2016_12_27_S5 12/28/2016 06:45:00 0.0
2016_12_27_S5 12/28/2016 06:50:00 0.0
2016_12_27_S5 12/28/2016 06:55:00 0.0
2016_12_27_S5 12/28/2016 07:00:00 0.0
2016_12_27_S5 12/28/2016 07:05:00 0.0
2016_12_27_S5 12/28/2016 07:10:00 0.0
2016_12_27_S5 12/28/2016 07:15:00 0.0
2016_12_27_S5 12/28/2016 07:20:00 0.0
2016_12_27_S5 12/28/2016 07:25:00 0.0
2016_12_27_S5 12/28/2016 07:30:00 0.0
2016_12_27_S5 12/28/2016 07:35:00 0.0
2016_12_27_S5 12/28/2016 07:40:00 0.0
2016_12_27_S5 12/28/2016 07:45:00 0.0
2016_12_27_S5 12/28/2016 07:50:00 0.0
2016_12_27_S5 12/28/2016 07:55:00 0.0
2016_12_27_S5 12/28/2016 08:00:00 0.0

2016_12_27_S6 12/26/2016 08:00:00 0.0
2016_12_27_S6 12/26/2016 08:05:00 0.0
2016_12_27_S6 12/26/2016 08:10:00 0.0
2016_12_27_S6 12/26/2016 08:15:00 0.0
2016_12_27_S6 12/26/2016 08:20:00 0.0
2016_12_27_S6 12/26/2016 08:25:00 0.0
2016_12_27_S6 12/26/2016 08:30:00 0.0
2016_12_27_S6 12/26/2016 08:35:00 0.0
2016_12_27_S6 12/26/2016 08:40:00 0.0
2016_12_27_S6 12/26/2016 08:45:00 0.0
2016_12_27_S6 12/26/2016 08:50:00 0.0
2016_12_27_S6 12/26/2016 08:55:00 0.0
2016_12_27_S6 12/26/2016 09:00:00 0.0
2016_12_27_S6 12/26/2016 09:05:00 0.0072
2016_12_27_S6 12/26/2016 09:10:00 0.0699
2016_12_27_S6 12/26/2016 09:15:00 0.0107
2016_12_27_S6 12/26/2016 09:20:00 0.0391
2016_12_27_S6 12/26/2016 09:25:00 0.0082
2016_12_27_S6 12/26/2016 09:30:00 0.0023
2016_12_27_S6 12/26/2016 09:35:00 0.0
2016_12_27_S6 12/26/2016 09:40:00 0.0
2016_12_27_S6 12/26/2016 09:45:00 0.0
2016_12_27_S6 12/26/2016 09:50:00 0.0
2016_12_27_S6 12/26/2016 09:55:00 0.0
2016_12_27_S6 12/26/2016 10:00:00 0.0
2016_12_27_S6 12/26/2016 10:05:00 0.0
2016_12_27_S6 12/26/2016 10:10:00 0.0
2016_12_27_S6 12/26/2016 10:15:00 0.0
2016_12_27_S6 12/26/2016 10:20:00 0.0081
2016_12_27_S6 12/26/2016 10:25:00 0.0
2016_12_27_S6 12/26/2016 10:30:00 0.0
2016_12_27_S6 12/26/2016 10:35:00 0.0
2016_12_27_S6 12/26/2016 10:40:00 0.0
2016_12_27_S6 12/26/2016 10:45:00 0.0
2016_12_27_S6 12/26/2016 10:50:00 0.0
2016_12_27_S6 12/26/2016 10:55:00 0.0
2016_12_27_S6 12/26/2016 11:00:00 0.0
2016_12_27_S6 12/26/2016 11:05:00 0.0
2016_12_27_S6 12/26/2016 11:10:00 0.0
2016_12_27_S6 12/26/2016 11:15:00 0.0
2016_12_27_S6 12/26/2016 11:20:00 0.0
2016_12_27_S6 12/26/2016 11:25:00 0.0
2016_12_27_S6 12/26/2016 11:30:00 0.0
2016_12_27_S6 12/26/2016 11:35:00 0.0
2016_12_27_S6 12/26/2016 11:40:00 0.0
2016_12_27_S6 12/26/2016 11:45:00 0.0
2016_12_27_S6 12/26/2016 11:50:00 0.0
2016_12_27_S6 12/26/2016 11:55:00 0.1061
2016_12_27_S6 12/26/2016 12:00:00 0.0363
2016_12_27_S6 12/26/2016 12:05:00 0.2262
2016_12_27_S6 12/26/2016 12:10:00 0.045
2016_12_27_S6 12/26/2016 12:15:00 0.0118
2016_12_27_S6 12/26/2016 12:20:00 0.0
2016_12_27_S6 12/26/2016 12:25:00 0.0
2016_12_27_S6 12/26/2016 12:30:00 0.0
2016_12_27_S6 12/26/2016 12:35:00 0.0063
2016_12_27_S6 12/26/2016 12:40:00 0.03
2016_12_27_S6 12/26/2016 12:45:00 0.1013
2016_12_27_S6 12/26/2016 12:50:00 0.0
2016_12_27_S6 12/26/2016 12:55:00 0.0
2016_12_27_S6 12/26/2016 13:00:00 0.0
2016_12_27_S6 12/26/2016 13:05:00 0.0
2016_12_27_S6 12/26/2016 13:10:00 0.0
2016_12_27_S6 12/26/2016 13:15:00 0.0
2016_12_27_S6 12/26/2016 13:20:00 0.0
2016_12_27_S6 12/26/2016 13:25:00 0.0
2016_12_27_S6 12/26/2016 13:30:00 0.0
2016_12_27_S6 12/26/2016 13:35:00 0.0
2016_12_27_S6 12/26/2016 13:40:00 0.0
2016_12_27_S6 12/26/2016 13:45:00 0.0
2016_12_27_S6 12/26/2016 13:50:00 0.0
2016_12_27_S6 12/26/2016 13:55:00 0.0
2016_12_27_S6 12/26/2016 14:00:00 0.0
2016_12_27_S6 12/26/2016 14:05:00 0.0
2016_12_27_S6 12/26/2016 14:10:00 0.0
2016_12_27_S6 12/26/2016 14:15:00 0.0
2016_12_27_S6 12/26/2016 14:20:00 0.0
2016_12_27_S6 12/26/2016 14:25:00 0.0
2016_12_27_S6 12/26/2016 14:30:00 0.0
2016_12_27_S6 12/26/2016 14:35:00 0.0
2016_12_27_S6 12/26/2016 14:40:00 0.0
2016_12_27_S6 12/26/2016 14:45:00 0.0
2016_12_27_S6 12/26/2016 14:50:00 0.0
2016_12_27_S6 12/26/2016 14:55:00 0.0
2016_12_27_S6 12/26/2016 15:00:00 0.0
2016_12_27_S6 12/26/2016 15:05:00 0.0
2016_12_27_S6 12/26/2016 15:10:00 0.0
2016_12_27_S6 12/26/2016 15:15:00 0.0
2016_12_27_S6 12/26/2016 15:20:00 0.0
2016_12_27_S6 12/26/2016 15:25:00 0.0
2016_12_27_S6 12/26/2016 15:30:00 0.0
2016_12_27_S6 12/26/2016 15:35:00 0.0
2016_12_27_S6 12/26/2016 15:40:00 0.0
2016_12_27_S6 12/26/2016 15:45:00 0.0
2016_12_27_S6 12/26/2016 15:50:00 0.0
2016_12_27_S6 12/26/2016 15:55:00 0.0
2016_12_27_S6 12/26/2016 16:00:00 0.0
2016_12_27_S6 12/26/2016 16:05:00 0.0
2016_12_27_S6 12/26/2016 16:10:00 0.0
2016_12_27_S6 12/26/2016 16:15:00 0.0
2016_12_27_S6 12/26/2016 16:20:00 0.0
2016_12_27_S6 12/26/2016 16:25:00 0.0
2016_12_27_S6 12/26/2016 16:30:00 0.0
2016_12_27_S6 12/26/2016 16:35:00 0.0
2016_12_27_S6 12/26/2016 16:40:00 0.0
2016_12_27_S6 12/26/2016 16:45:00 0.0
2016_12_27_S6 12/26/2016 16:50:00 0.0
2016_12_27_S6 12/26/2016 16:55:00 0.0
2016_12_27_S6 12/26/2016 17:00:00 0.0
2016_12_27_S6 12/26/2016 17:05:00 0.0
2016_12_27_S6 12/26/2016 17:10:00 0.0
2016_12_27_S6 12/26/2016 17:15:00 0.0
2016_12_27_S6 12/26/2016 17:20:00 0.0
2016_12_27_S6 12/26/2016 17:25:00 0.0
2016_12_27_S6 12/26/2016 17:30:00 0.0
2016_12_27_S6 12/26/2016 17:35:00 0.0
2016_12_27_S6 12/26/2016 17:40:00 0.0
2016_12_27_S6 12/26/2016 17:45:00 0.0
2016_12_27_S6 12/26/2016 17:50:00 0.0
2016_12_27_S6 12/26/2016 17:55:00 0.0
2016_12_27_S6 12/26/2016 18:00:00 0.0
2016_12_27_S6 12/26/2016 18:05:00 0.0
2016_12_27_S6 12/26/2016 18:10:00 0.0
2016_12_27_S6 12/26/2016 18:15:00 0.0
2016_12_27_S6 12/26/2016 18:20:00 0.0
2016_12_27_S6 12/26/2016 18:25:00 0.0
2016_12_27_S6 12/26/2016 18:30:00 0.0
2016_12_27_S6 12/26/2016 18:35:00 0.0
2016_12_27_S6 12/26/2016 18:40:00 0.0
2016_12_27_S6 12/26/2016 18:45:00 0.0
2016_12_27_S6 12/26/2016 18:50:00 0.0
2016_12_27_S6 12/26/2016 18:55:00 0.0
2016_12_27_S6 12/26/2016 19:00:00 0.0
2016_12_27_S6 12/26/2016 19:05:00 0.0
2016_12_27_S6 12/26/2016 19:10:00 0.0
2016_12_27_S6 12/26/2016 19:15:00 0.0
2016_12_27_S6 12/26/2016 19:20:00 0.0
2016_12_27_S6 12/26/2016 19:25:00 0.0
2016_12_27_S6 12/26/2016 19:30:00 0.0
2016_12_27_S6 12/26/2016 19:35:00 0.0
2016_12_27_S6 12/26/2016 19:40:00 0.0
2016_12_27_S6 12/26/2016 19:45:00 0.0
2016_12_27_S6 12/26/2016 19:50:00 0.0
2016_12_27_S6 12/26/2016 19:55:00 0.0
2016_12_27_S6 12/26/2016 20:00:00 0.0
2016_12_27_S6 12/26/2016 20:05:00 0.0
2016_12_27_S6 12/26/2016 20:10:00 0.0
2016_12_27_S6 12/26/2016 20:15:00 0.0
2016_12_27_S6 12/26/2016 20:20:00 0.0
2016_12_27_S6 12/26/2016 20:25:00 0.0
2016_12_27_S6 12/26/2016 20:30:00 0.0
2016_12_27_S6 12/26/2016 20:35:00 0.0
2016_12_27_S6 12/26/2016 20:40:00 0.0
2016_12_27_S6 12/26/2016 20:45:00 0.0
2016_12_27_S6 12/26/2016 20:50:00 0.0
2016_12_27_S6 12/26/2016 20:55:00 0.0
2016_12_27_S6 12/26/2016 21:00:00 0.0
2016_12_27_S6 12/26/2016 21:05:00 0.0
2016_12_27_S6 12/26/2016 21:10:00 0.0
2016_12_27_S6 12/26/2016 21:15:00 0.0
2016_12_27_S6 12/26/2016 21:20:00 0.0
2016_12_27_S6 12/26/2016 21:25:00 0.0
2016_12_27_S6 12/26/2016 21:30:00 0.0
2016_12_27_S6 12/26/2016 21:35:00 0.0
2016_12_27_S6 12/26/2016 21:40:00 0.0
2016_12_27_S6 12/26/2016 21:45:00 0.0
2016_12_27_S6 12/26/2016 21:50:00 0.0
2016_12_27_S6 12/26/2016 21:55:00 0.0
2016_12_27_S6 12/26/2016 22:00:00 0.0
2016_12_27_S6 12/26/2016 22:05:00 0.0
2016_12_27_S6 12/26/2016 22:10:00 0.0
2016_12_27_S6 12/26/2016 22:15:00 0.0
2016_12_27_S6 12/26/2016 22:20:00 0.0
2016_12_27_S6 12/26/2016 22:25:00 0.0
2016_12_27_S6 12/26/2016 22:30:00 0.0
2016_12_27_S6 12/26/2016 22:35:00 0.0
2016_12_27_S6 12/26/2016 22:40:00 0.0
2016_12_27_S6 12/26/2016 22:45:00 0.0
2016_12_27_S6 12/26/2016 22:50:00 0.0
2016_12_27_S6 12/26/2016 22:55:00 0.0
2016_12_27_S6 12/26/2016 23:00:00 0.0
2016_12_27_S6 12/26/2016 23:05:00 0.0
2016_12_27_S6 12/26/2016 23:10:00 0.0
2016_12_27_S6 12/26/2016 23:15:00 0.0
2016_12_27_S6 12/26/2016 23:20:00 0.0
2016_12_27_S6 12/26/2016 23:25:00 0.0
2016_12_27_S6 12/26/2016 23:30:00 0.0
2016_12_27_S6 12/26/2016 23:35:00 0.0
2016_12_27_S6 12/26/2016 23:40:00 0.0
2016_12_27_S6 12/26/2016 23:45:00 0.0
2016_12_27_S6 12/26/2016 23:50:00 0.0
2016_12_27_S6 12/26/2016 23:55:00 0.0
2016_12_27_S6 12/27/2016 00:00:00 0.0
2016_12_27_S6 12/27/2016 00:05:00 0.0
2016_12_27_S6 12/27/2016 00:10:00 0.0
2016_12_27_S6 12/27/2016 00:15:00 0.0
2016_12_27_S6 12/27/2016 00:20:00 0.0
2016_12_27_S6 12/27/2016 00:25:00 0.0
2016_12_27_S6 12/27/2016 00:30:00 0.0
2016_12_27_S6 12/27/2016 00:35:00 0.0
2016_12_27_S6 12/27/2016 00:40:00 0.0
2016_12_27_S6 12/27/2016 00:45:00 0.0
2016_12_27_S6 12/27/2016 00:50:00 0.0
2016_12_27_S6 12/27/2016 00:55:00 0.0
2016_12_27_S6 12/27/2016 01:00:00 0.0001
2016_12_27_S6 12/27/2016 01:05:00 0.0
2016_12_27_S6 12/27/2016 01:10:00 0.007
2016_12_27_S6 12/27/2016 01:15:00 0.0194
2016_12_27_S6 12/27/2016 01:20:00 0.024
2016_12_27_S6 12/27/2016 01:25:00 0.2874
2016_12_27_S6 12/27/2016 01:30:00 0.4596
2016_12_27_S6 12/27/2016 01:35:00 1.0539
2016_12_27_S6 12/27/2016 01:40:00 1.2355
2016_12_27_S6 12/27/2016 01:45:00 1.2088
2016_12_27_S6 12/27/2016 01:50:00 1.1367
2016_12_27_S6 12/27/2016 01:55:00 0.6557
2016_12_27_S6 12/27/2016 02:00:00 0.0277
2016_12_27_S6 12/27/2016 02:05:00 0.0095
2016_12_27_S6 12/27/2016 02:10:00 0.0239
2016_12_27_S6 12/27/2016 02:15:00 0.2122
2016_12_27_S6 12/27/2016 02:20:00 0.0774
2016_12_27_S6 12/27/2016 02:25:00 0.2431
2016_12_27_S6 12/27/2016 02:30:00 0.1207
2016_12_27_S6 12/27/2016 02:35:00 0.1642
2016_12_27_S6 12/27/2016 02:40:00 0.4018
2016_12_27_S6 12/27/2016 02:45:00 0.3112
2016_12_27_S6 12/27/2016 02:50:00 0.6445
2016_12_27_S6 12/27/2016 02:55:00 0.3578
2016_12_27_S6 12/27/2016 03:00:00 0.4254
2016_12_27_S6 12/27/2016 03:05:00 0.218
2016_12_27_S6 12/27/2016 03:10:00 0.338
2016_12_27_S6 12/27/2016 03:15:00 0.7608
2016_12_27_S6 12/27/2016 03:20:00 1.1748
2016_12_27_S6 12/27/2016 03:25:00 0.3828
2016_12_27_S6 12/27/2016 03:30:00 0.7215
2016_12_27_S6 12/27/2016 03:35:00 0.4569
2016_12_27_S6 12/27/2016 03:40:00 0.2707
2016_12_27_S6 12/27/2016 03:45:00 0.1414
2016_12_27_S6 12/27/2016 03:50:00 0.1688
2016_12_27_S6 12/27/2016 03:55:00 0.3391
2016_12_27_S6 12/27/2016 04:00:00 0.1266
2016_12_27_S6 12/27/2016 04:05:00 0.1096
2016_12_27_S6 12/27/2016 04:10:00 0.2132
2016_12_27_S6 12/27/2016 04:15:00 0.1059
2016_12_27_S6 12/27/2016 04:20:00 0.0213
2016_12_27_S6 12/27/2016 04:25:00 0.0371
2016_12_27_S6 12/27/2016 04:30:00 0.0332
2016_12_27_S6 12/27/2016 04:35:00 0.0543
2016_12_27_S6 12/27/2016 04:40:00 0.0499
2016_12_27_S6 12/27/2016 04:45:00 0.0416
2016_12_27_S6 12/27/2016 04:50:00 0.1956
2016_12_27_S6 12/27/2016 04:55:00 0.4262
2016_12_27_S6 12/27/2016 05:00:00 0.4237
2016_12_27_S6 12/27/2016 05:05:00 0.1064
2016_12_27_S6 12/27/2016 05:10:00 0.2341
2016_12_27_S6 12/27/2016 05:15:00 0.1931
2016_12_27_S6 12/27/2016 05:20:00 0.0718
2016_12_27_S6 12/27/2016 05:25:00 0.0037
2016_12_27_S6 12/27/2016 05:30:00 0.0
2016_12_27_S6 12/27/2016 05:35:00 0.0
2016_12_27_S6 12/27/2016 05:40:00 0.0
2016_12_27_S6 12/27/2016 05:45:00 0.0
2016_12_27_S6 12/27/2016 05:50:00 0.0
2016_12_27_S6 12/27/2016 05:55:00 0.0
2016_12_27_S6 12/27/2016 06:00:00 0.0
2016_12_27_S6 12/27/2016 06:05:00 0.0
2016_12_27_S6 12/27/2016 06:10:00 0.0
2016_12_27_S6 12/27/2016 06:15:00 0.0
2016_12_27_S6 12/27/2016 06:20:00 0.0
2016_12_27_S6 12/27/2016 06:25:00 0.0
2016_12_27_S6 12/27/2016 06:30:00 0.0
2016_12_27_S6 12/27/2016 06:35:00 0.0
2016_12_27_S6 12/27/2016 06:40:00 0.0097
2016_12_27_S6 12/27/2016 06:45:00 0.0928
2016_12_27_S6 12/27/2016 06:50:00 0.0028
2016_12_27_S6 12/27/2016 06:55:00 0.0956
2016_12_27_S6 12/27/2016 07:00:00 0.2968
2016_12_27_S6 12/27/2016 07:05:00 0.2063
2016_12_27_S6 12/27/2016 07:10:00 0.9255
2016_12_27_S6 12/27/2016 07:15:00 0.6167
2016_12_27_S6 12/27/2016 07:20:00 0.4905
2016_12_27_S6 12/27/2016 07:25:00 0.326
2016_12_27_S6 12/27/2016 07:30:00 0.6345
2016_12_27_S6 12/27/2016 07:35:00 0.408
2016_12_27_S6 12/27/2016 07:40:00 0.2603
2016_12_27_S6 12/27/2016 07:45:00 0.2745
2016_12_27_S6 12/27/2016 07:50:00 1.07
2016_12_27_S6 12/27/2016 07:55:00 0.794
2016_12_27_S6 12/27/2016 08:00:00 0.2726
2016_12_27_S6 12/27/2016 08:05:00 0.2407
2016_12_27_S6 12/27/2016 08:10:00 0.6307
2016_12_27_S6 12/27/2016 08:15:00 0.3368
2016_12_27_S6 12/27/2016 08:20:00 0.3435
2016_12_27_S6 12/27/2016 08:25:00 0.1332
2016_12_27_S6 12/27/2016 08:30:00 0.1029
2016_12_27_S6 12/27/2016 08:35:00 0.3396
2016_12_27_S6 12/27/2016 08:40:00 0.9072
2016_12_27_S6 12/27/2016 08:45:00 1.1396
2016_12_27_S6 12/27/2016 08:50:00 1.3365
2016_12_27_S6 12/27/2016 08:55:00 0.6325
2016_12_27_S6 12/27/2016 09:00:00 1.1308
2016_12_27_S6 12/27/2016 09:05:00 0.3986
2016_12_27_S6 12/27/2016 09:10:00 0.3856
2016_12_27_S6 12/27/2016 09:15:00 0.5001
2016_12_27_S6 12/27/2016 09:20:00 0.707
2016_12_27_S6 12/27/2016 09:25:00 0.8908
2016_12_27_S6 12/27/2016 09:30:00 0.19
2016_12_27_S6 12/27/2016 09:35:00 0.1761
2016_12_27_S6 12/27/2016 09:40:00 0.5791
2016_12_27_S6 12/27/2016 09:45:00 0.3276
2016_12_27_S6 12/27/2016 09:50:00 0.0782
2016_12_27_S6 12/27/2016 09:55:00 0.0
2016_12_27_S6 12/27/2016 10:00:00 0.062
2016_12_27_S6 12/27/2016 10:05:00 0.5581
2016_12_27_S6 12/27/2016 10:10:00 0.4922
2016_12_27_S6 12/27/2016 10:15:00 0.1497
2016_12_27_S6 12/27/2016 10:20:00 0.0848
2016_12_27_S6 12/27/2016 10:25:00 0.1017
2016_12_27_S6 12/27/2016 10:30:00 0.0296
2016_12_27_S6 12/27/2016 10:35:00 0.0711
2016_12_27_S6 12/27/2016 10:40:00 0.0036
2016_12_27_S6 12/27/2016 10:45:00 1.0598
2016_12_27_S6 12/27/2016 10:50:00 0.3048
2016_12_27_S6 12/27/2016 10:55:00 0.7127
2016_12_27_S6 12/27/2016 11:00:00 0.4088
2016_12_27_S6 12/27/2016 11:05:00 0.2182
2016_12_27_S6 12/27/2016 11:10:00 0.0913
2016_12_27_S6 12/27/2016 11:15:00 0.2133
2016_12_27_S6 12/27/2016 11:20:00 0.4435
2016_12_27_S6 12/27/2016 11:25:00 0.5076
2016_12_27_S6 12/27/2016 11:30:00 0.5508
2016_12_27_S6 12/27/2016 11:35:00 0.4673
2016_12_27_S6 12/27/2016 11:40:00 0.6549
2016_12_27_S6 12/27/2016 11:45:00 1.1077
2016_12_27_S6 12/27/2016 11:50:00 1.6994
2016_12_27_S6 12/27/2016 11:55:00 0.5045
2016_12_27_S6 12/27/2016 12:00:00 0.2722
2016_12_27_S6 12/27/2016 12:05:00 0.7949
2016_12_27_S6 12/27/2016 12:10:00 0.3782
2016_12_27_S6 12/27/2016 12:15:00 0.1978
2016_12_27_S6 12/27/2016 12:20:00 0.0776
2016_12_27_S6 12/27/2016 12:25:00 0.2645
2016_12_27_S6 12/27/2016 12:30:00 0.143
2016_12_27_S6 12/27/2016 12:35:00 0.0472
2016_12_27_S6 12/27/2016 12:40:00 0.0604
2016_12_27_S6 12/27/2016 12:45:00 0.0144
2016_12_27_S6 12/27/2016 12:50:00 0.0056
2016_12_27_S6 12/27/2016 12:55:00 0.0013
2016_12_27_S6 12/27/2016 13:00:00 0.0616
2016_12_27_S6 12/27/2016 13:05:00 0.0025
2016_12_27_S6 12/27/2016 13:10:00 0.0
2016_12_27_S6 12/27/2016 13:15:00 0.0
2016_12_27_S6 12/27/2016 13:20:00 0.0
2016_12_27_S6 12/27/2016 13:25:00 0.0
2016_12_27_S6 12/27/2016 13:30:00 0.0993
2016_12_27_S6 12/27/2016 13:35:00 0.1528
2016_12_27_S6 12/27/2016 13:40:00 0.242
2016_12_27_S6 12/27/2016 13:45:00 0.2271
2016_12_27_S6 12/27/2016 13:50:00 0.0562
2016_12_27_S6 12/27/2016 13:55:00 0.0171
2016_12_27_S6 12/27/2016 14:00:00 0.054
2016_12_27_S6 12/27/2016 14:05:00 0.068
2016_12_27_S6 12/27/2016 14:10:00 0.0091
2016_12_27_S6 12/27/2016 14:15:00 0.0014
2016_12_27_S6 12/27/2016 14:20:00 0.0248
2016_12_27_S6 12/27/2016 14:25:00 0.0191
2016_12_27_S6 12/27/2016 14:30:00 0.0015
2016_12_27_S6 12/27/2016 14:35:00 0.0
2016_12_27_S6 12/27/2016 14:40:00 0.0038
2016_12_27_S6 12/27/2016 14:45:00 0.0
2016_12_27_S6 12/27/2016 14:50:00 0.0
2016_12_27_S6 12/27/2016 14:55:00 0.0
2016_12_27_S6 12/27/2016 15:00:00 0.0
2016_12_27_S6 12/27/2016 15:05:00 0.0
2016_12_27_S6 12/27/2016 15:10:00 0.0
2016_12_27_S6 12/27/2016 15:15:00 0.0
2016_12_27_S6 12/27/2016 15:20:00 0.0
2016_12_27_S6 12/27/2016 15:25:00 0.0008
2016_12_27_S6 12/27/2016 15:30:00 0.0
2016_12_27_S6 12/27/2016 15:35:00 0.0
2016_12_27_S6 12/27/2016 15:40:00 0.0
2016_12_27_S6 12/27/2016 15:45:00 0.0
2016_12_27_S6 12/27/2016 15:50:00 0.0
2016_12_27_S6 12/27/2016 15:55:00 0.0009
2016_12_27_S6 12/27/2016 16:00:00 0.2184
2016_12_27_S6 12/27/2016 16:05:00 0.026
2016_12_27_S6 12/27/2016 16:10:00 0.0
2016_12_27_S6 12/27/2016 16:15:00 0.0001
2016_12_27_S6 12/27/2016 16:20:00 0.0039
2016_12_27_S6 12/27/2016 16:25:00 0.0
2016_12_27_S6 12/27/2016 16:30:00 0.0
2016_12_27_S6 12/27/2016 16:35:00 0.0
2016_12_27_S6 12/27/2016 16:40:00 0.0315
2016_12_27_S6 12/27/2016 16:45:00 0.0063
2016_12_27_S6 12/27/2016 16:50:00 0.0
2016_12_27_S6 12/27/2016 16:55:00 0.0
2016_12_27_S6 12/27/2016 17:00:00 0.0
2016_12_27_S6 12/27/2016 17:05:00 0.0
2016_12_27_S6 12/27/2016 17:10:00 0.0
2016_12_27_S6 12/27/2016 17:15:00 0.0
2016_12_27_S6 12/27/2016 17:20:00 0.0
2016_12_27_S6 12/27/2016 17:25:00 0.0
2016_12_27_S6 12/27/2016 17:30:00 0.0
2016_12_27_S6 12/27/2016 17:35:00 0.0
2016_12_27_S6 12/27/2016 17:40:00 0.0543
2016_12_27_S6 12/27/2016 17:45:00 0.1301
2016_12_27_S6 12/27/2016 17:50:00 0.0954
2016_12_27_S6 12/27/2016 17:55:00 0.0021
2016_12_27_S6 12/27/2016 18:00:00 0.0
2016_12_27_S6 12/27/2016 18:05:00 0.0
2016_12_27_S6 12/27/2016 18:10:00 0.0
2016_12_27_S6 12/27/2016 18:15:00 0.0
2016_12_27_S6 12/27/2016 18:20:00 0.295
2016_12_27_S6 12/27/2016 18:25:00 1.007
2016_12_27_S6 12/27/2016 18:30:00 0.0206
2016_12_27_S6 12/27/2016 18:35:00 0.0247
2016_12_27_S6 12/27/2016 18:40:00 0.0173
2016_12_27_S6 12/27/2016 18:45:00 0.0
2016_12_27_S6 12/27/2016 18:50:00 0.0
2016_12_27_S6 12/27/2016 18:55:00 0.0
2016_12_27_S6 12/27/2016 19:00:00 0.0
2016_12_27_S6 12/27/2016 19:05:00 0.0007
2016_12_27_S6 12/27/2016 19:10:00 0.1272
2016_12_27_S6 12/27/2016 19:15:00 0.0767
2016_12_27_S6 12/27/2016 19:20:00 0.0
2016_12_27_S6 12/27/2016 19:25:00 0.0
2016_12_27_S6 12/27/2016 19:30:00 0.0173
2016_12_27_S6 12/27/2016 19:35:00 0.8665
2016_12_27_S6 12/27/2016 19:40:00 0.362
2016_12_27_S6 12/27/2016 19:45:00 2.1196
2016_12_27_S6 12/27/2016 19:50:00 4.4194
2016_12_27_S6 12/27/2016 19:55:00 1.3201
2016_12_27_S6 12/27/2016 20:00:00 0.1086
2016_12_27_S6 12/27/2016 20:05:00 0.0001
2016_12_27_S6 12/27/2016 20:10:00 0.0
2016_12_27_S6 12/27/2016 20:15:00 0.0
2016_12_27_S6 12/27/2016 20:20:00 0.0009
2016_12_27_S6 12/27/2016 20:25:00 0.0
2016_12_27_S6 12/27/2016 20:30:00 0.0018
2016_12_27_S6 12/27/2016 20:35:00 0.0
2016_12_27_S6 12/27/2016 20:40:00 0.0
2016_12_27_S6 12/27/2016 20:45:00 0.0
2016_12_27_S6 12/27/2016 20:50:00 0.0
2016_12_27_S6 12/27/2016 20:55:00 0.0
2016_12_27_S6 12/27/2016 21:00:00 0.0
2016_12_27_S6 12/27/2016 21:05:00 0.0
2016_12_27_S6 12/27/2016 21:10:00 0.0
2016_12_27_S6 12/27/2016 21:15:00 0.0
2016_12_27_S6 12/27/2016 21:20:00 0.0
2016_12_27_S6 12/27/2016 21:25:00 0.0
2016_12_27_S6 12/27/2016 21:30:00 0.0
2016_12_27_S6 12/27/2016 21:35:00 0.0
2016_12_27_S6 12/27/2016 21:40:00 0.0
2016_12_27_S6 12/27/2016 21:45:00 0.0
2016_12_27_S6 12/27/2016 21:50:00 0.0
2016_12_27_S6 12/27/2016 21:55:00 0.0
2016_12_27_S6 12/27/2016 22:00:00 0.0
2016_12_27_S6 12/27/2016 22:05:00 0.0
2016_12_27_S6 12/27/2016 22:10:00 0.0023
2016_12_27_S6 12/27/2016 22:15:00 0.0003
2016_12_27_S6 12/27/2016 22:20:00 0.0
2016_12_27_S6 12/27/2016 22:25:00 0.0202
2016_12_27_S6 12/27/2016 22:30:00 0.0641
2016_12_27_S6 12/27/2016 22:35:00 0.6986
2016_12_27_S6 12/27/2016 22:40:00 0.0034
2016_12_27_S6 12/27/2016 22:45:00 0.0
2016_12_27_S6 12/27/2016 22:50:00 0.0003
2016_12_27_S6 12/27/2016 22:55:00 0.0
2016_12_27_S6 12/27/2016 23:00:00 0.0053
2016_12_27_S6 12/27/2016 23:05:00 0.0122
2016_12_27_S6 12/27/2016 23:10:00 0.0023
2016_12_27_S6 12/27/2016 23:15:00 0.0017
2016_12_27_S6 12/27/2016 23:20:00 0.0339
2016_12_27_S6 12/27/2016 23:25:00 0.0358
2016_12_27_S6 12/27/2016 23:30:00 0.0173
2016_12_27_S6 12/27/2016 23:35:00 0.0004
2016_12_27_S6 12/27/2016 23:40:00 0.001
2016_12_27_S6 12/27/2016 23:45:00 0.0
2016_12_27_S6 12/27/2016 23:50:00 0.0
2016_12_27_S6 12/27/2016 23:55:00 0.0
2016_12_27_S6 12/28/2016 00:00:00 0.0
2016_12_27_S6 12/28/2016 00:05:00 0.0
2016_12_27_S6 12/28/2016 00:10:00 0.0
2016_12_27_S6 12/28/2016 00:15:00 0.0
2016_12_27_S6 12/28/2016 00:20:00 0.0
2016_12_27_S6 12/28/2016 00:25:00 0.0
2016_12_27_S6 12/28/2016 00:30:00 0.0
2016_12_27_S6 12/28/2016 00:35:00 0.0
2016_12_27_S6 12/28/2016 00:40:00 0.0
2016_12_27_S6 12/28/2016 00:45:00 0.0
2016_12_27_S6 12/28/2016 00:50:00 0.0
2016_12_27_S6 12/28/2016 00:55:00 0.0
2016_12_27_S6 12/28/2016 01:00:00 0.0
2016_12_27_S6 12/28/2016 01:05:00 0.0
2016_12_27_S6 12/28/2016 01:10:00 0.0
2016_12_27_S6 12/28/2016 01:15:00 0.0
2016_12_27_S6 12/28/2016 01:20:00 0.0
2016_12_27_S6 12/28/2016 01:25:00 0.0
2016_12_27_S6 12/28/2016 01:30:00 0.0
2016_12_27_S6 12/28/2016 01:35:00 0.0
2016_12_27_S6 12/28/2016 01:40:00 0.0
2016_12_27_S6 12/28/2016 01:45:00 0.0
2016_12_27_S6 12/28/2016 01:50:00 0.0
2016_12_27_S6 12/28/2016 01:55:00 0.0
2016_12_27_S6 12/28/2016 02:00:00 0.0
2016_12_27_S6 12/28/2016 02:05:00 0.0
2016_12_27_S6 12/28/2016 02:10:00 0.0
2016_12_27_S6 12/28/2016 02:15:00 0.0
2016_12_27_S6 12/28/2016 02:20:00 0.0
2016_12_27_S6 12/28/2016 02:25:00 0.0
2016_12_27_S6 12/28/2016 02:30:00 0.0
2016_12_27_S6 12/28/2016 02:35:00 0.0
2016_12_27_S6 12/28/2016 02:40:00 0.0
2016_12_27_S6 12/28/2016 02:45:00 0.0
2016_12_27_S6 12/28/2016 02:50:00 0.0
2016_12_27_S6 12/28/2016 02:55:00 0.0
2016_12_27_S6 12/28/2016 03:00:00 0.0
2016_12_27_S6 12/28/2016 03:05:00 0.0
2016_12_27_S6 12/28/2016 03:10:00 0.0
2016_12_27_S6 12/28/2016 03:15:00 0.0
2016_12_27_S6 12/28/2016 03:20:00 0.0
2016_12_27_S6 12/28/2016 03:25:00 0.0
2016_12_27_S6 12/28/2016 03:30:00 0.0
2016_12_27_S6 12/28/2016 03:35:00 0.0
2016_12_27_S6 12/28/2016 03:40:00 0.0
2016_12_27_S6 12/28/2016 03:45:00 0.0
2016_12_27_S6 12/28/2016 03:50:00 0.0
2016_12_27_S6 12/28/2016 03:55:00 0.0
2016_12_27_S6 12/28/2016 04:00:00 0.0
2016_12_27_S6 12/28/2016 04:05:00 0.0
2016_12_27_S6 12/28/2016 04:10:00 0.0
2016_12_27_S6 12/28/2016 04:15:00 0.0
2016_12_27_S6 12/28/2016 04:20:00 0.0
2016_12_27_S6 12/28/2016 04:25:00 0.0
2016_12_27_S6 12/28/2016 04:30:00 0.0
2016_12_27_S6 12/28/2016 04:35:00 0.0
2016_12_27_S6 12/28/2016 04:40:00 0.0
2016_12_27_S6 12/28/2016 04:45:00 0.0
2016_12_27_S6 12/28/2016 04:50:00 0.0
2016_12_27_S6 12/28/2016 04:55:00 0.0
2016_12_27_S6 12/28/2016 05:00:00 0.0
2016_12_27_S6 12/28/2016 05:05:00 0.0
2016_12_27_S6 12/28/2016 05:10:00 0.0
2016_12_27_S6 12/28/2016 05:15:00 0.0
2016_12_27_S6 12/28/2016 05:20:00 0.0
2016_12_27_S6 12/28/2016 05:25:00 0.0
2016_12_27_S6 12/28/2016 05:30:00 0.0
2016_12_27_S6 12/28/2016 05:35:00 0.0
2016_12_27_S6 12/28/2016 05:40:00 0.0
2016_12_27_S6 12/28/2016 05:45:00 0.0
2016_12_27_S6 12/28/2016 05:50:00 0.0
2016_12_27_S6 12/28/2016 05:55:00 0.0
2016_12_27_S6 12/28/2016 06:00:00 0.0
2016_12_27_S6 12/28/2016 06:05:00 0.0
2016_12_27_S6 12/28/2016 06:10:00 0.0
2016_12_27_S6 12/28/2016 06:15:00 0.0
2016_12_27_S6 12/28/2016 06:20:00 0.0
2016_12_27_S6 12/28/2016 06:25:00 0.0
2016_12_27_S6 12/28/2016 06:30:00 0.0
2016_12_27_S6 12/28/2016 06:35:00 0.0
2016_12_27_S6 12/28/2016 06:40:00 0.0
2016_12_27_S6 12/28/2016 06:45:00 0.0
2016_12_27_S6 12/28/2016 06:50:00 0.0
2016_12_27_S6 12/28/2016 06:55:00 0.0
2016_12_27_S6 12/28/2016 07:00:00 0.0
2016_12_27_S6 12/28/2016 07:05:00 0.0
2016_12_27_S6 12/28/2016 07:10:00 0.0
2016_12_27_S6 12/28/2016 07:15:00 0.0
2016_12_27_S6 12/28/2016 07:20:00 0.0
2016_12_27_S6 12/28/2016 07:25:00 0.0
2016_12_27_S6 12/28/2016 07:30:00 0.0
2016_12_27_S6 12/28/2016 07:35:00 0.0
2016_12_27_S6 12/28/2016 07:40:00 0.0
2016_12_27_S6 12/28/2016 07:45:00 0.0
2016_12_27_S6 12/28/2016 07:50:00 0.0
2016_12_27_S6 12/28/2016 07:55:00 0.0
2016_12_27_S6 12/28/2016 08:00:00 0.0

2016_12_27_S7 12/26/2016 08:00:00 0.0
2016_12_27_S7 12/26/2016 08:05:00 0.0
2016_12_27_S7 12/26/2016 08:10:00 0.0
2016_12_27_S7 12/26/2016 08:15:00 0.0
2016_12_27_S7 12/26/2016 08:20:00 0.0
2016_12_27_S7 12/26/2016 08:25:00 0.0
2016_12_27_S7 12/26/2016 08:30:00 0.0
2016_12_27_S7 12/26/2016 08:35:00 0.0
2016_12_27_S7 12/26/2016 08:40:00 0.0
2016_12_27_S7 12/26/2016 08:45:00 0.0
2016_12_27_S7 12/26/2016 08:50:00 0.0
2016_12_27_S7 12/26/2016 08:55:00 0.0
2016_12_27_S7 12/26/2016 09:00:00 0.0
2016_12_27_S7 12/26/2016 09:05:00 0.0096
2016_12_27_S7 12/26/2016 09:10:00 0.0319
2016_12_27_S7 12/26/2016 09:15:00 0.0177
2016_12_27_S7 12/26/2016 09:20:00 0.0365
2016_12_27_S7 12/26/2016 09:25:00 0.0038
2016_12_27_S7 12/26/2016 09:30:00 0.0
2016_12_27_S7 12/26/2016 09:35:00 0.0
2016_12_27_S7 12/26/2016 09:40:00 0.0
2016_12_27_S7 12/26/2016 09:45:00 0.0
2016_12_27_S7 12/26/2016 09:50:00 0.0
2016_12_27_S7 12/26/2016 09:55:00 0.0
2016_12_27_S7 12/26/2016 10:00:00 0.0
2016_12_27_S7 12/26/2016 10:05:00 0.0
2016_12_27_S7 12/26/2016 10:10:00 0.0
2016_12_27_S7 12/26/2016 10:15:00 0.0
2016_12_27_S7 12/26/2016 10:20:00 0.0073
2016_12_27_S7 12/26/2016 10:25:00 0.0
2016_12_27_S7 12/26/2016 10:30:00 0.0
2016_12_27_S7 12/26/2016 10:35:00 0.0
2016_12_27_S7 12/26/2016 10:40:00 0.0
2016_12_27_S7 12/26/2016 10:45:00 0.0
2016_12_27_S7 12/26/2016 10:50:00 0.0
2016_12_27_S7 12/26/2016 10:55:00 0.0
2016_12_27_S7 12/26/2016 11:00:00 0.0
2016_12_27_S7 12/26/2016 11:05:00 0.0
2016_12_27_S7 12/26/2016 11:10:00 0.0
2016_12_27_S7 12/26/2016 11:15:00 0.0
2016_12_27_S7 12/26/2016 11:20:00 0.0
2016_12_27_S7 12/26/2016 11:25:00 0.0
2016_12_27_S7 12/26/2016 11:30:00 0.0
2016_12_27_S7 12/26/2016 11:35:00 0.0
2016_12_27_S7 12/26/2016 11:40:00 0.0
2016_12_27_S7 12/26/2016 11:45:00 0.0
2016_12_27_S7 12/26/2016 11:50:00 0.0
2016_12_27_S7 12/26/2016 11:55:00 0.0657
2016_12_27_S7 12/26/2016 12:00:00 0.025
2016_12_27_S7 12/26/2016 12:05:00 0.1927
2016_12_27_S7 12/26/2016 12:10:00 0.0367
2016_12_27_S7 12/26/2016 12:15:00 0.0033
2016_12_27_S7 12/26/2016 12:20:00 0.0
2016_12_27_S7 12/26/2016 12:25:00 0.0
2016_12_27_S7 12/26/2016 12:30:00 0.0
2016_12_27_S7 12/26/2016 12:35:00 0.0087
2016_12_27_S7 12/26/2016 12:40:00 0.0282
2016_12_27_S7 12/26/2016 12:45:00 0.0974
2016_12_27_S7 12/26/2016 12:50:00 0.0
2016_12_27_S7 12/26/2016 12:55:00 0.0
2016_12_27_S7 12/26/2016 13:00:00 0.0
2016_12_27_S7 12/26/2016 13:05:00 0.0
2016_12_27_S7 12/26/2016 13:10:00 0.0
2016_12_27_S7 12/26/2016 13:15:00 0.0
2016_12_27_S7 12/26/2016 13:20:00 0.0
2016_12_27_S7 12/26/2016 13:25:00 0.0
2016_12_27_S7 12/26/2016 13:30:00 0.0
2016_12_27_S7 12/26/2016 13:35:00 0.0
2016_12_27_S7 12/26/2016 13:40:00 0.0
2016_12_27_S7 12/26/2016 13:45:00 0.0
2016_12_27_S7 12/26/2016 13:50:00 0.0
2016_12_27_S7 12/26/2016 13:55:00 0.0
2016_12_27_S7 12/26/2016 14:00:00 0.0
2016_12_27_S7 12/26/2016 14:05:00 0.0
2016_12_27_S7 12/26/2016 14:10:00 0.0
2016_12_27_S7 12/26/2016 14:15:00 0.0
2016_12_27_S7 12/26/2016 14:20:00 0.0
2016_12_27_S7 12/26/2016 14:25:00 0.0
2016_12_27_S7 12/26/2016 14:30:00 0.0
2016_12_27_S7 12/26/2016 14:35:00 0.0
2016_12_27_S7 12/26/2016 14:40:00 0.0
2016_12_27_S7 12/26/2016 14:45:00 0.0
2016_12_27_S7 12/26/2016 14:50:00 0.0
2016_12_27_S7 12/26/2016 14:55:00 0.0
2016_12_27_S7 12/26/2016 15:00:00 0.0
2016_12_27_S7 12/26/2016 15:05:00 0.0
2016_12_27_S7 12/26/2016 15:10:00 0.0
2016_12_27_S7 12/26/2016 15:15:00 0.0
2016_12_27_S7 12/26/2016 15:20:00 0.0
2016_12_27_S7 12/26/2016 15:25:00 0.0
2016_12_27_S7 12/26/2016 15:30:00 0.0
2016_12_27_S7 12/26/2016 15:35:00 0.0
2016_12_27_S7 12/26/2016 15:40:00 0.0
2016_12_27_S7 12/26/2016 15:45:00 0.0
2016_12_27_S7 12/26/2016 15:50:00 0.0
2016_12_27_S7 12/26/2016 15:55:00 0.0
2016_12_27_S7 12/26/2016 16:00:00 0.0
2016_12_27_S7 12/26/2016 16:05:00 0.0
2016_12_27_S7 12/26/2016 16:10:00 0.0
2016_12_27_S7 12/26/2016 16:15:00 0.0
2016_12_27_S7 12/26/2016 16:20:00 0.0
2016_12_27_S7 12/26/2016 16:25:00 0.0
2016_12_27_S7 12/26/2016 16:30:00 0.0
2016_12_27_S7 12/26/2016 16:35:00 0.0
2016_12_27_S7 12/26/2016 16:40:00 0.0
2016_12_27_S7 12/26/2016 16:45:00 0.0
2016_12_27_S7 12/26/2016 16:50:00 0.0
2016_12_27_S7 12/26/2016 16:55:00 0.0
2016_12_27_S7 12/26/2016 17:00:00 0.0
2016_12_27_S7 12/26/2016 17:05:00 0.0
2016_12_27_S7 12/26/2016 17:10:00 0.0
2016_12_27_S7 12/26/2016 17:15:00 0.0
2016_12_27_S7 12/26/2016 17:20:00 0.0
2016_12_27_S7 12/26/2016 17:25:00 0.0
2016_12_27_S7 12/26/2016 17:30:00 0.0
2016_12_27_S7 12/26/2016 17:35:00 0.0
2016_12_27_S7 12/26/2016 17:40:00 0.0
2016_12_27_S7 12/26/2016 17:45:00 0.0
2016_12_27_S7 12/26/2016 17:50:00 0.0
2016_12_27_S7 12/26/2016 17:55:00 0.0
2016_12_27_S7 12/26/2016 18:00:00 0.0
2016_12_27_S7 12/26/2016 18:05:00 0.0
2016_12_27_S7 12/26/2016 18:10:00 0.0
2016_12_27_S7 12/26/2016 18:15:00 0.0
2016_12_27_S7 12/26/2016 18:20:00 0.0
2016_12_27_S7 12/26/2016 18:25:00 0.0
2016_12_27_S7 12/26/2016 18:30:00 0.0
2016_12_27_S7 12/26/2016 18:35:00 0.0
2016_12_27_S7 12/26/2016 18:40:00 0.0
2016_12_27_S7 12/26/2016 18:45:00 0.0
2016_12_27_S7 12/26/2016 18:50:00 0.0
2016_12_27_S7 12/26/2016 18:55:00 0.0
2016_12_27_S7 12/26/2016 19:00:00 0.0
2016_12_27_S7 12/26/2016 19:05:00 0.0
2016_12_27_S7 12/26/2016 19:10:00 0.0
2016_12_27_S7 12/26/2016 19:15:00 0.0
2016_12_27_S7 12/26/2016 19:20:00 0.0
2016_12_27_S7 12/26/2016 19:25:00 0.0
2016_12_27_S7 12/26/2016 19:30:00 0.0
2016_12_27_S7 12/26/2016 19:35:00 0.0
2016_12_27_S7 12/26/2016 19:40:00 0.0
2016_12_27_S7 12/26/2016 19:45:00 0.0
2016_12_27_S7 12/26/2016 19:50:00 0.0
2016_12_27_S7 12/26/2016 19:55:00 0.0
2016_12_27_S7 12/26/2016 20:00:00 0.0
2016_12_27_S7 12/26/2016 20:05:00 0.0
2016_12_27_S7 12/26/2016 20:10:00 0.0
2016_12_27_S7 12/26/2016 20:15:00 0.0
2016_12_27_S7 12/26/2016 20:20:00 0.0
2016_12_27_S7 12/26/2016 20:25:00 0.0
2016_12_27_S7 12/26/2016 20:30:00 0.0
2016_12_27_S7 12/26/2016 20:35:00 0.0
2016_12_27_S7 12/26/2016 20:40:00 0.0
2016_12_27_S7 12/26/2016 20:45:00 0.0
2016_12_27_S7 12/26/2016 20:50:00 0.0
2016_12_27_S7 12/26/2016 20:55:00 0.0
2016_12_27_S7 12/26/2016 21:00:00 0.0
2016_12_27_S7 12/26/2016 21:05:00 0.0
2016_12_27_S7 12/26/2016 21:10:00 0.0
2016_12_27_S7 12/26/2016 21:15:00 0.0
2016_12_27_S7 12/26/2016 21:20:00 0.0
2016_12_27_S7 12/26/2016 21:25:00 0.0
2016_12_27_S7 12/26/2016 21:30:00 0.0
2016_12_27_S7 12/26/2016 21:35:00 0.0
2016_12_27_S7 12/26/2016 21:40:00 0.0
2016_12_27_S7 12/26/2016 21:45:00 0.0
2016_12_27_S7 12/26/2016 21:50:00 0.0
2016_12_27_S7 12/26/2016 21:55:00 0.0
2016_12_27_S7 12/26/2016 22:00:00 0.0
2016_12_27_S7 12/26/2016 22:05:00 0.0
2016_12_27_S7 12/26/2016 22:10:00 0.0
2016_12_27_S7 12/26/2016 22:15:00 0.0
2016_12_27_S7 12/26/2016 22:20:00 0.0
2016_12_27_S7 12/26/2016 22:25:00 0.0
2016_12_27_S7 12/26/2016 22:30:00 0.0
2016_12_27_S7 12/26/2016 22:35:00 0.0
2016_12_27_S7 12/26/2016 22:40:00 0.0
2016_12_27_S7 12/26/2016 22:45:00 0.0
2016_12_27_S7 12/26/2016 22:50:00 0.0
2016_12_27_S7 12/26/2016 22:55:00 0.0
2016_12_27_S7 12/26/2016 23:00:00 0.0
2016_12_27_S7 12/26/2016 23:05:00 0.0
2016_12_27_S7 12/26/2016 23:10:00 0.0
2016_12_27_S7 12/26/2016 23:15:00 0.0
2016_12_27_S7 12/26/2016 23:20:00 0.0
2016_12_27_S7 12/26/2016 23:25:00 0.0
2016_12_27_S7 12/26/2016 23:30:00 0.0
2016_12_27_S7 12/26/2016 23:35:00 0.0
2016_12_27_S7 12/26/2016 23:40:00 0.0
2016_12_27_S7 12/26/2016 23:45:00 0.0
2016_12_27_S7 12/26/2016 23:50:00 0.0
2016_12_27_S7 12/26/2016 23:55:00 0.0
2016_12_27_S7 12/27/2016 00:00:00 0.0
2016_12_27_S7 12/27/2016 00:05:00 0.0
2016_12_27_S7 12/27/2016 00:10:00 0.0
2016_12_27_S7 12/27/2016 00:15:00 0.0
2016_12_27_S7 12/27/2016 00:20:00 0.0
2016_12_27_S7 12/27/2016 00:25:00 0.0
2016_12_27_S7 12/27/2016 00:30:00 0.0
2016_12_27_S7 12/27/2016 00:35:00 0.0
2016_12_27_S7 12/27/2016 00:40:00 0.0
2016_12_27_S7 12/27/2016 00:45:00 0.0
2016_12_27_S7 12/27/2016 00:50:00 0.0
2016_12_27_S7 12/27/2016 00:55:00 0.0
2016_12_27_S7 12/27/2016 01:00:00 0.0
2016_12_27_S7 12/27/2016 01:05:00 0.0
2016_12_27_S7 12/27/2016 01:10:00 0.0006
2016_12_27_S7 12/27/2016 01:15:00 0.0098
2016_12_27_S7 12/27/2016 01:20:00 0.0264
2016_12_27_S7 12/27/2016 01:25:00 0.1838
2016_12_27_S7 12/27/2016 01:30:00 0.2091
2016_12_27_S7 12/27/2016 01:35:00 0.6939
2016_12_27_S7 12/27/2016 01:40:00 1.0437
2016_12_27_S7 12/27/2016 01:45:00 1.469
2016_12_27_S7 12/27/2016 01:50:00 1.0187
2016_12_27_S7 12/27/2016 01:55:00 0.6241
2016_12_27_S7 12/27/2016 02:00:00 0.0188
2016_12_27_S7 12/27/2016 02:05:00 0.0043
2016_12_27_S7 12/27/2016 02:10:00 0.0304
2016_12_27_S7 12/27/2016 02:15:00 0.2078
2016_12_27_S7 12/27/2016 02:20:00 0.0688
2016_12_27_S7 12/27/2016 02:25:00 0.3723
2016_12_27_S7 12/27/2016 02:30:00 0.1052
2016_12_27_S7 12/27/2016 02:35:00 0.153
2016_12_27_S7 12/27/2016 02:40:00 0.346
2016_12_27_S7 12/27/2016 02:45:00 0.3163
2016_12_27_S7 12/27/2016 02:50:00 0.7088
2016_12_27_S7 12/27/2016 02:55:00 0.3463
2016_12_27_S7 12/27/2016 03:00:00 0.622
2016_12_27_S7 12/27/2016 03:05:00 0.3116
2016_12_27_S7 12/27/2016 03:10:00 0.2922
2016_12_27_S7 12/27/2016 03:15:00 0.8365
2016_12_27_S7 12/27/2016 03:20:00 1.0253
2016_12_27_S7 12/27/2016 03:25:00 0.3791
2016_12_27_S7 12/27/2016 03:30:00 0.9075
2016_12_27_S7 12/27/2016 03:35:00 0.4866
2016_12_27_S7 12/27/2016 03:40:00 0.2835
2016_12_27_S7 12/27/2016 03:45:00 0.1495
2016_12_27_S7 12/27/2016 03:50:00 0.1666
2016_12_27_S7 12/27/2016 03:55:00 0.3664
2016_12_27_S7 12/27/2016 04:00:00 0.1422
2016_12_27_S7 12/27/2016 04:05:00 0.1033
2016_12_27_S7 12/27/2016 04:10:00 0.2463
2016_12_27_S7 12/27/2016 04:15:00 0.1121
2016_12_27_S7 12/27/2016 04:20:00 0.0302
2016_12_27_S7 12/27/2016 04:25:00 0.0485
2016_12_27_S7 12/27/2016 04:30:00 0.0356
2016_12_27_S7 12/27/2016 04:35:00 0.0507
2016_12_27_S7 12/27/2016 04:40:00 0.0463
2016_12_27_S7 12/27/2016 04:45:00 0.0464
2016_12_27_S7 12/27/2016 04:50:00 0.1997
2016_12_27_S7 12/27/2016 04:55:00 0.3982
2016_12_27_S7 12/27/2016 05:00:00 0.5002
2016_12_27_S7 12/27/2016 05:05:00 0.0981
2016_12_27_S7 12/27/2016 05:10:00 0.2798
2016_12_27_S7 12/27/2016 05:15:00 0.2152
2016_12_27_S7 12/27/2016 05:20:00 0.0918
2016_12_27_S7 12/27/2016 05:25:00 0.0043
2016_12_27_S7 12/27/2016 05:30:00 0.0
2016_12_27_S7 12/27/2016 05:35:00 0.0
2016_12_27_S7 12/27/2016 05:40:00 0.0
2016_12_27_S7 12/27/2016 05:45:00 0.0
2016_12_27_S7 12/27/2016 05:50:00 0.0
2016_12_27_S7 12/27/2016 05:55:00 0.0
2016_12_27_S7 12/27/2016 06:00:00 0.0
2016_12_27_S7 12/27/2016 06:05:00 0.0
2016_12_27_S7 12/27/2016 06:10:00 0.0
2016_12_27_S7 12/27/2016 06:15:00 0.0
2016_12_27_S7 12/27/2016 06:20:00 0.0
2016_12_27_S7 12/27/2016 06:25:00 0.0
2016_12_27_S7 12/27/2016 06:30:00 0.0
2016_12_27_S7 12/27/2016 06:35:00 0.0
2016_12_27_S7 12/27/2016 06:40:00 0.0095
2016_12_27_S7 12/27/2016 06:45:00 0.1602
2016_12_27_S7 12/27/2016 06:50:00 0.0006
2016_12_27_S7 12/27/2016 06:55:00 0.0999
2016_12_27_S7 12/27/2016 07:00:00 0.1739
2016_12_27_S7 12/27/2016 07:05:00 0.0957
2016_12_27_S7 12/27/2016 07:10:00 0.8025
2016_12_27_S7 12/27/2016 07:15:00 0.7657
2016_12_27_S7 12/27/2016 07:20:00 0.6199
2016_12_27_S7 12/27/2016 07:25:00 0.3299
2016_12_27_S7 12/27/2016 07:30:00 0.6139
2016_12_27_S7 12/27/2016 07:35:00 0.3201
2016_12_27_S7 12/27/2016 07:40:00 0.2361
2016_12_27_S7 12/27/2016 07:45:00 0.2633
2016_12_27_S7 12/27/2016 07:50:00 0.945
2016_12_27_S7 12/27/2016 07:55:00 0.8594
2016_12_27_S7 12/27/2016 08:00:00 0.3506
2016_12_27_S7 12/27/2016 08:05:00 0.4052
2016_12_27_S7 12/27/2016 08:10:00 0.7742
2016_12_27_S7 12/27/2016 08:15:00 0.3717
2016_12_27_S7 12/27/2016 08:20:00 0.3822
2016_12_27_S7 12/27/2016 08:25:00 0.1442
2016_12_27_S7 12/27/2016 08:30:00 0.0409
2016_12_27_S7 12/27/2016 08:35:00 0.2929
2016_12_27_S7 12/27/2016 08:40:00 0.6204
2016_12_27_S7 12/27/2016 08:45:00 1.0614
2016_12_27_S7 12/27/2016 08:50:00 0.9767
2016_12_27_S7 12/27/2016 08:55:00 0.5294
2016_12_27_S7 12/27/2016 09:00:00 1.687
2016_12_27_S7 12/27/2016 09:05:00 0.2078
2016_12_27_S7 12/27/2016 09:10:00 0.3199
2016_12_27_S7 12/27/2016 09:15:00 0.6134
2016_12_27_S7 12/27/2016 09:20:00 0.6781
2016_12_27_S7 12/27/2016 09:25:00 0.5128
2016_12_27_S7 12/27/2016 09:30:00 0.2414
2016_12_27_S7 12/27/2016 09:35:00 0.2167
2016_12_27_S7 12/27/2016 09:40:00 0.4054
2016_12_27_S7 12/27/2016 09:45:00 0.3814
2016_12_27_S7 12/27/2016 09:50:00 0.059
2016_12_27_S7 12/27/2016 09:55:00 0.0
2016_12_27_S7 12/27/2016 10:00:00 0.0873
2016_12_27_S7 12/27/2016 10:05:00 0.6473
2016_12_27_S7 12/27/2016 10:10:00 0.411
2016_12_27_S7 12/27/2016 10:15:00 0.1475
2016_12_27_S7 12/27/2016 10:20:00 0.0599
2016_12_27_S7 12/27/2016 10:25:00 0.0781
2016_12_27_S7 12/27/2016 10:30:00 0.0409
2016_12_27_S7 12/27/2016 10:35:00 0.0773
2016_12_27_S7 12/27/2016 10:40:00 0.0067
2016_12_27_S7 12/27/2016 10:45:00 1.1018
2016_12_27_S7 12/27/2016 10:50:00 0.2973
2016_12_27_S7 12/27/2016 10:55:00 0.6473
2016_12_27_S7 12/27/2016 11:00:00 0.4639
2016_12_27_S7 12/27/2016 11:05:00 0.2342
2016_12_27_S7 12/27/2016 11:10:00 0.0823
2016_12_27_S7 12/27/2016 11:15:00 0.2277
2016_12_27_S7 12/27/2016 11:20:00 0.5205
2016_12_27_S7 12/27/2016 11:25:00 0.4812
2016_12_27_S7 12/27/2016 11:30:00 0.6487
2016_12_27_S7 12/27/2016 11:35:00 0.6238
2016_12_27_S7 12/27/2016 11:40:00 0.7071
2016_12_27_S7 12/27/2016 11:45:00 0.9489
2016_12_27_S7 12/27/2016 11:50:00 1.7762
2016_12_27_S7 12/27/2016 11:55:00 0.5043
2016_12_27_S7 12/27/2016 12:00:00 0.3557
2016_12_27_S7 12/27/2016 12:05:00 0.9065
2016_12_27_S7 12/27/2016 12:10:00 0.2696
2016_12_27_S7 12/27/2016 12:15:00 0.2495
2016_12_27_S7 12/27/2016 12:20:00 0.0846
2016_12_27_S7 12/27/2016 12:25:00 0.3362
2016_12_27_S7 12/27/2016 12:30:00 0.1588
2016_12_27_S7 12/27/2016 12:35:00 0.0461
2016_12_27_S7 12/27/2016 12:40:00 0.0659
2016_12_27_S7 12/27/2016 12:45:00 0.0116
2016_12_27_S7 12/27/2016 12:50:00 0.0056
2016_12_27_S7 12/27/2016 12:55:00 0.0023
2016_12_27_S7 12/27/2016 13:00:00 0.0832
2016_12_27_S7 12/27/2016 13:05:00 0.0042
2016_12_27_S7 12/27/2016 13:10:00 0.0
2016_12_27_S7 12/27/2016 13:15:00 0.0
2016_12_27_S7 12/27/2016 13:20:00 0.0
2016_12_27_S7 12/27/2016 13:25:00 0.0
2016_12_27_S7 12/27/2016 13:30:00 0.1292
2016_12_27_S7 12/27/2016 13:35:00 0.144
2016_12_27_S7 12/27/2016 13:40:00 0.2644
2016_12_27_S7 12/27/2016 13:45:00 0.2341
2016_12_27_S7 12/27/2016 13:50:00 0.0587
2016_12_27_S7 12/27/2016 13:55:00 0.0208
2016_12_27_S7 12/27/2016 14:00:00 0.068
2016_12_27_S7 12/27/2016 14:05:00 0.0503
2016_12_27_S7 12/27/2016 14:10:00 0.0098
2016_12_27_S7 12/27/2016 14:15:00 0.0027
2016_12_27_S7 12/27/2016 14:20:00 0.0224
2016_12_27_S7 12/27/2016 14:25:00 0.0242
2016_12_27_S7 12/27/2016 14:30:00 0.0018
2016_12_27_S7 12/27/2016 14:35:00 0.0
2016_12_27_S7 12/27/2016 14:40:00 0.0007
2016_12_27_S7 12/27/2016 14:45:00 0.0
2016_12_27_S7 12/27/2016 14:50:00 0.0
2016_12_27_S7 12/27/2016 14:55:00 0.0
2016_12_27_S7 12/27/2016 15:00:00 0.0
2016_12_27_S7 12/27/2016 15:05:00 0.0
2016_12_27_S7 12/27/2016 15:10:00 0.0
2016_12_27_S7 12/27/2016 15:15:00 0.0
2016_12_27_S7 12/27/2016 15:20:00 0.0
2016_12_27_S7 12/27/2016 15:25:00 0.0015
2016_12_27_S7 12/27/2016 15:30:00 0.0
2016_12_27_S7 12/27/2016 15:35:00 0.0
2016_12_27_S7 12/27/2016 15:40:00 0.0
2016_12_27_S7 12/27/2016 15:45:00 0.0
2016_12_27_S7 12/27/2016 15:50:00 0.0
2016_12_27_S7 12/27/2016 15:55:00 0.0
2016_12_27_S7 12/27/2016 16:00:00 0.1093
2016_12_27_S7 12/27/2016 16:05:00 0.0278
2016_12_27_S7 12/27/2016 16:10:00 0.0
2016_12_27_S7 12/27/2016 16:15:00 0.0027
2016_12_27_S7 12/27/2016 16:20:00 0.0006
2016_12_27_S7 12/27/2016 16:25:00 0.0
2016_12_27_S7 12/27/2016 16:30:00 0.0
2016_12_27_S7 12/27/2016 16:35:00 0.0003
2016_12_27_S7 12/27/2016 16:40:00 0.0748
2016_12_27_S7 12/27/2016 16:45:00 0.0231
2016_12_27_S7 12/27/2016 16:50:00 0.0
2016_12_27_S7 12/27/2016 16:55:00 0.0
2016_12_27_S7 12/27/2016 17:00:00 0.0
2016_12_27_S7 12/27/2016 17:05:00 0.0
2016_12_27_S7 12/27/2016 17:10:00 0.0
2016_12_27_S7 12/27/2016 17:15:00 0.0
2016_12_27_S7 12/27/2016 17:20:00 0.0
2016_12_27_S7 12/27/2016 17:25:00 0.0
2016_12_27_S7 12/27/2016 17:30:00 0.0
2016_12_27_S7 12/27/2016 17:35:00 0.0
2016_12_27_S7 12/27/2016 17:40:00 0.0417
2016_12_27_S7 12/27/2016 17:45:00 0.1352
2016_12_27_S7 12/27/2016 17:50:00 0.0628
2016_12_27_S7 12/27/2016 17:55:00 0.0011
2016_12_27_S7 12/27/2016 18:00:00 0.0
2016_12_27_S7 12/27/2016 18:05:00 0.0
2016_12_27_S7 12/27/2016 18:10:00 0.0
2016_12_27_S7 12/27/2016 18:15:00 0.0
2016_12_27_S7 12/27/2016 18:20:00 0.1464
2016_12_27_S7 12/27/2016 18:25:00 1.3618
2016_12_27_S7 12/27/2016 18:30:00 0.0224
2016_12_27_S7 12/27/2016 18:35:00 0.0305
2016_12_27_S7 12/27/2016 18:40:00 0.0279
2016_12_27_S7 12/27/2016 18:45:00 0.0
2016_12_27_S7 12/27/2016 18:50:00 0.0
2016_12_27_S7 12/27/2016 18:55:00 0.0
2016_12_27_S7 12/27/2016 19:00:00 0.0
2016_12_27_S7 12/27/2016 19:05:00 0.0
2016_12_27_S7 12/27/2016 19:10:00 0.0369
2016_12_27_S7 12/27/2016 19:15:00 0.0817
2016_12_27_S7 12/27/2016 19:20:00 0.0
2016_12_27_S7 12/27/2016 19:25:00 0.0
2016_12_27_S7 12/27/2016 19:30:00 0.0137
2016_12_27_S7 12/27/2016 19:35:00 0.6331
2016_12_27_S7 12/27/2016 19:40:00 0.2426
2016_12_27_S7 12/27/2016 19:45:00 1.4191
2016_12_27_S7 12/27/2016 19:50:00 4.2971
2016_12_27_S7 12/27/2016 19:55:00 1.1084
2016_12_27_S7 12/27/2016 20:00:00 0.1188
2016_12_27_S7 12/27/2016 20:05:00 0.0017
2016_12_27_S7 12/27/2016 20:10:00 0.0
2016_12_27_S7 12/27/2016 20:15:00 0.0
2016_12_27_S7 12/27/2016 20:20:00 0.002
2016_12_27_S7 12/27/2016 20:25:00 0.0
2016_12_27_S7 12/27/2016 20:30:00 0.0047
2016_12_27_S7 12/27/2016 20:35:00 0.0
2016_12_27_S7 12/27/2016 20:40:00 0.0
2016_12_27_S7 12/27/2016 20:45:00 0.0
2016_12_27_S7 12/27/2016 20:50:00 0.0
2016_12_27_S7 12/27/2016 20:55:00 0.0
2016_12_27_S7 12/27/2016 21:00:00 0.0
2016_12_27_S7 12/27/2016 21:05:00 0.0
2016_12_27_S7 12/27/2016 21:10:00 0.0
2016_12_27_S7 12/27/2016 21:15:00 0.0
2016_12_27_S7 12/27/2016 21:20:00 0.0
2016_12_27_S7 12/27/2016 21:25:00 0.0
2016_12_27_S7 12/27/2016 21:30:00 0.0
2016_12_27_S7 12/27/2016 21:35:00 0.0
2016_12_27_S7 12/27/2016 21:40:00 0.0
2016_12_27_S7 12/27/2016 21:45:00 0.0
2016_12_27_S7 12/27/2016 21:50:00 0.0
2016_12_27_S7 12/27/2016 21:55:00 0.0
2016_12_27_S7 12/27/2016 22:00:00 0.0
2016_12_27_S7 12/27/2016 22:05:00 0.0
2016_12_27_S7 12/27/2016 22:10:00 0.0
2016_12_27_S7 12/27/2016 22:15:00 0.0
2016_12_27_S7 12/27/2016 22:20:00 0.0
2016_12_27_S7 12/27/2016 22:25:00 0.0126
2016_12_27_S7 12/27/2016 22:30:00 0.0791
2016_12_27_S7 12/27/2016 22:35:00 0.4982
2016_12_27_S7 12/27/2016 22:40:00 0.0028
2016_12_27_S7 12/27/2016 22:45:00 0.0
2016_12_27_S7 12/27/2016 22:50:00 0.0
2016_12_27_S7 12/27/2016 22:55:00 0.0028
2016_12_27_S7 12/27/2016 23:00:00 0.003
2016_12_27_S7 12/27/2016 23:05:00 0.0216
2016_12_27_S7 12/27/2016 23:10:00 0.0027
2016_12_27_S7 12/27/2016 23:15:00 0.0029
2016_12_27_S7 12/27/2016 23:20:00 0.0229
2016_12_27_S7 12/27/2016 23:25:00 0.0198
2016_12_27_S7 12/27/2016 23:30:00 0.0078
2016_12_27_S7 12/27/2016 23:35:00 0.0006
2016_12_27_S7 12/27/2016 23:40:00 0.0016
2016_12_27_S7 12/27/2016 23:45:00 0.0
2016_12_27_S7 12/27/2016 23:50:00 0.0
2016_12_27_S7 12/27/2016 23:55:00 0.0
2016_12_27_S7 12/28/2016 00:00:00 0.0
2016_12_27_S7 12/28/2016 00:05:00 0.0
2016_12_27_S7 12/28/2016 00:10:00 0.0
2016_12_27_S7 12/28/2016 00:15:00 0.0
2016_12_27_S7 12/28/2016 00:20:00 0.0
2016_12_27_S7 12/28/2016 00:25:00 0.0
2016_12_27_S7 12/28/2016 00:30:00 0.0
2016_12_27_S7 12/28/2016 00:35:00 0.0
2016_12_27_S7 12/28/2016 00:40:00 0.0
2016_12_27_S7 12/28/2016 00:45:00 0.0
2016_12_27_S7 12/28/2016 00:50:00 0.0
2016_12_27_S7 12/28/2016 00:55:00 0.0
2016_12_27_S7 12/28/2016 01:00:00 0.0
2016_12_27_S7 12/28/2016 01:05:00 0.0
2016_12_27_S7 12/28/2016 01:10:00 0.0
2016_12_27_S7 12/28/2016 01:15:00 0.0
2016_12_27_S7 12/28/2016 01:20:00 0.0
2016_12_27_S7 12/28/2016 01:25:00 0.0
2016_12_27_S7 12/28/2016 01:30:00 0.0
2016_12_27_S7 12/28/2016 01:35:00 0.0
2016_12_27_S7 12/28/2016 01:40:00 0.0
2016_12_27_S7 12/28/2016 01:45:00 0.0
2016_12_27_S7 12/28/2016 01:50:00 0.0
2016_12_27_S7 12/28/2016 01:55:00 0.0
2016_12_27_S7 12/28/2016 02:00:00 0.0
2016_12_27_S7 12/28/2016 02:05:00 0.0
2016_12_27_S7 12/28/2016 02:10:00 0.0
2016_12_27_S7 12/28/2016 02:15:00 0.0
2016_12_27_S7 12/28/2016 02:20:00 0.0
2016_12_27_S7 12/28/2016 02:25:00 0.0
2016_12_27_S7 12/28/2016 02:30:00 0.0
2016_12_27_S7 12/28/2016 02:35:00 0.0
2016_12_27_S7 12/28/2016 02:40:00 0.0
2016_12_27_S7 12/28/2016 02:45:00 0.0
2016_12_27_S7 12/28/2016 02:50:00 0.0
2016_12_27_S7 12/28/2016 02:55:00 0.0
2016_12_27_S7 12/28/2016 03:00:00 0.0
2016_12_27_S7 12/28/2016 03:05:00 0.0
2016_12_27_S7 12/28/2016 03:10:00 0.0
2016_12_27_S7 12/28/2016 03:15:00 0.0
2016_12_27_S7 12/28/2016 03:20:00 0.0
2016_12_27_S7 12/28/2016 03:25:00 0.0
2016_12_27_S7 12/28/2016 03:30:00 0.0
2016_12_27_S7 12/28/2016 03:35:00 0.0
2016_12_27_S7 12/28/2016 03:40:00 0.0
2016_12_27_S7 12/28/2016 03:45:00 0.0
2016_12_27_S7 12/28/2016 03:50:00 0.0
2016_12_27_S7 12/28/2016 03:55:00 0.0
2016_12_27_S7 12/28/2016 04:00:00 0.0
2016_12_27_S7 12/28/2016 04:05:00 0.0
2016_12_27_S7 12/28/2016 04:10:00 0.0
2016_12_27_S7 12/28/2016 04:15:00 0.0
2016_12_27_S7 12/28/2016 04:20:00 0.0
2016_12_27_S7 12/28/2016 04:25:00 0.0
2016_12_27_S7 12/28/2016 04:30:00 0.0
2016_12_27_S7 12/28/2016 04:35:00 0.0
2016_12_27_S7 12/28/2016 04:40:00 0.0
2016_12_27_S7 12/28/2016 04:45:00 0.0
2016_12_27_S7 12/28/2016 04:50:00 0.0
2016_12_27_S7 12/28/2016 04:55:00 0.0
2016_12_27_S7 12/28/2016 05:00:00 0.0
2016_12_27_S7 12/28/2016 05:05:00 0.0
2016_12_27_S7 12/28/2016 05:10:00 0.0
2016_12_27_S7 12/28/2016 05:15:00 0.0
2016_12_27_S7 12/28/2016 05:20:00 0.0
2016_12_27_S7 12/28/2016 05:25:00 0.0
2016_12_27_S7 12/28/2016 05:30:00 0.0
2016_12_27_S7 12/28/2016 05:35:00 0.0
2016_12_27_S7 12/28/2016 05:40:00 0.0
2016_12_27_S7 12/28/2016 05:45:00 0.0
2016_12_27_S7 12/28/2016 05:50:00 0.0
2016_12_27_S7 12/28/2016 05:55:00 0.0
2016_12_27_S7 12/28/2016 06:00:00 0.0
2016_12_27_S7 12/28/2016 06:05:00 0.0
2016_12_27_S7 12/28/2016 06:10:00 0.0
2016_12_27_S7 12/28/2016 06:15:00 0.0
2016_12_27_S7 12/28/2016 06:20:00 0.0
2016_12_27_S7 12/28/2016 06:25:00 0.0
2016_12_27_S7 12/28/2016 06:30:00 0.0
2016_12_27_S7 12/28/2016 06:35:00 0.0
2016_12_27_S7 12/28/2016 06:40:00 0.0
2016_12_27_S7 12/28/2016 06:45:00 0.0
2016_12_27_S7 12/28/2016 06:50:00 0.0
2016_12_27_S7 12/28/2016 06:55:00 0.0
2016_12_27_S7 12/28/2016 07:00:00 0.0
2016_12_27_S7 12/28/2016 07:05:00 0.0
2016_12_27_S7 12/28/2016 07:10:00 0.0
2016_12_27_S7 12/28/2016 07:15:00 0.0
2016_12_27_S7 12/28/2016 07:20:00 0.0
2016_12_27_S7 12/28/2016 07:25:00 0.0
2016_12_27_S7 12/28/2016 07:30:00 0.0
2016_12_27_S7 12/28/2016 07:35:00 0.0
2016_12_27_S7 12/28/2016 07:40:00 0.0
2016_12_27_S7 12/28/2016 07:45:00 0.0
2016_12_27_S7 12/28/2016 07:50:00 0.0
2016_12_27_S7 12/28/2016 07:55:00 0.0
2016_12_27_S7 12/28/2016 08:00:00 0.0

2016_12_27_S8 12/26/2016 08:00:00 0.0
2016_12_27_S8 12/26/2016 08:05:00 0.0
2016_12_27_S8 12/26/2016 08:10:00 0.0
2016_12_27_S8 12/26/2016 08:15:00 0.0
2016_12_27_S8 12/26/2016 08:20:00 0.0
2016_12_27_S8 12/26/2016 08:25:00 0.0
2016_12_27_S8 12/26/2016 08:30:00 0.0
2016_12_27_S8 12/26/2016 08:35:00 0.0
2016_12_27_S8 12/26/2016 08:40:00 0.0
2016_12_27_S8 12/26/2016 08:45:00 0.0
2016_12_27_S8 12/26/2016 08:50:00 0.0
2016_12_27_S8 12/26/2016 08:55:00 0.0
2016_12_27_S8 12/26/2016 09:00:00 0.0
2016_12_27_S8 12/26/2016 09:05:00 0.0088
2016_12_27_S8 12/26/2016 09:10:00 0.0159
2016_12_27_S8 12/26/2016 09:15:00 0.0266
2016_12_27_S8 12/26/2016 09:20:00 0.0349
2016_12_27_S8 12/26/2016 09:25:00 0.0004
2016_12_27_S8 12/26/2016 09:30:00 0.0
2016_12_27_S8 12/26/2016 09:35:00 0.0
2016_12_27_S8 12/26/2016 09:40:00 0.0
2016_12_27_S8 12/26/2016 09:45:00 0.0
2016_12_27_S8 12/26/2016 09:50:00 0.0
2016_12_27_S8 12/26/2016 09:55:00 0.0
2016_12_27_S8 12/26/2016 10:00:00 0.0
2016_12_27_S8 12/26/2016 10:05:00 0.0
2016_12_27_S8 12/26/2016 10:10:00 0.0
2016_12_27_S8 12/26/2016 10:15:00 0.0
2016_12_27_S8 12/26/2016 10:20:00 0.0039
2016_12_27_S8 12/26/2016 10:25:00 0.0
2016_12_27_S8 12/26/2016 10:30:00 0.0
2016_12_27_S8 12/26/2016 10:35:00 0.0
2016_12_27_S8 12/26/2016 10:40:00 0.0
2016_12_27_S8 12/26/2016 10:45:00 0.0
2016_12_27_S8 12/26/2016 10:50:00 0.0
2016_12_27_S8 12/26/2016 10:55:00 0.0
2016_12_27_S8 12/26/2016 11:00:00 0.0
2016_12_27_S8 12/26/2016 11:05:00 0.0
2016_12_27_S8 12/26/2016 11:10:00 0.0
2016_12_27_S8 12/26/2016 11:15:00 0.0
2016_12_27_S8 12/26/2016 11:20:00 0.0
2016_12_27_S8 12/26/2016 11:25:00 0.0
2016_12_27_S8 12/26/2016 11:30:00 0.0
2016_12_27_S8 12/26/2016 11:35:00 0.0
2016_12_27_S8 12/26/2016 11:40:00 0.0
2016_12_27_S8 12/26/2016 11:45:00 0.0
2016_12_27_S8 12/26/2016 11:50:00 0.0
2016_12_27_S8 12/26/2016 11:55:00 0.0307
2016_12_27_S8 12/26/2016 12:00:00 0.0147
2016_12_27_S8 12/26/2016 12:05:00 0.1661
2016_12_27_S8 12/26/2016 12:10:00 0.0414
2016_12_27_S8 12/26/2016 12:15:00 0.0
2016_12_27_S8 12/26/2016 12:20:00 0.0
2016_12_27_S8 12/26/2016 12:25:00 0.0
2016_12_27_S8 12/26/2016 12:30:00 0.0
2016_12_27_S8 12/26/2016 12:35:00 0.0114
2016_12_27_S8 12/26/2016 12:40:00 0.0302
2016_12_27_S8 12/26/2016 12:45:00 0.0538
2016_12_27_S8 12/26/2016 12:50:00 0.0
2016_12_27_S8 12/26/2016 12:55:00 0.0
2016_12_27_S8 12/26/2016 13:00:00 0.0
2016_12_27_S8 12/26/2016 13:05:00 0.0
2016_12_27_S8 12/26/2016 13:10:00 0.0
2016_12_27_S8 12/26/2016 13:15:00 0.0
2016_12_27_S8 12/26/2016 13:20:00 0.0
2016_12_27_S8 12/26/2016 13:25:00 0.0
2016_12_27_S8 12/26/2016 13:30:00 0.0
2016_12_27_S8 12/26/2016 13:35:00 0.0
2016_12_27_S8 12/26/2016 13:40:00 0.0
2016_12_27_S8 12/26/2016 13:45:00 0.0
2016_12_27_S8 12/26/2016 13:50:00 0.0
2016_12_27_S8 12/26/2016 13:55:00 0.0
2016_12_27_S8 12/26/2016 14:00:00 0.0
2016_12_27_S8 12/26/2016 14:05:00 0.0
2016_12_27_S8 12/26/2016 14:10:00 0.0
2016_12_27_S8 12/26/2016 14:15:00 0.0
2016_12_27_S8 12/26/2016 14:20:00 0.0
2016_12_27_S8 12/26/2016 14:25:00 0.0
2016_12_27_S8 12/26/2016 14:30:00 0.0
2016_12_27_S8 12/26/2016 14:35:00 0.0
2016_12_27_S8 12/26/2016 14:40:00 0.0
2016_12_27_S8 12/26/2016 14:45:00 0.0
2016_12_27_S8 12/26/2016 14:50:00 0.0
2016_12_27_S8 12/26/2016 14:55:00 0.0
2016_12_27_S8 12/26/2016 15:00:00 0.0
2016_12_27_S8 12/26/2016 15:05:00 0.0
2016_12_27_S8 12/26/2016 15:10:00 0.0
2016_12_27_S8 12/26/2016 15:15:00 0.0
2016_12_27_S8 12/26/2016 15:20:00 0.0
2016_12_27_S8 12/26/2016 15:25:00 0.0
2016_12_27_S8 12/26/2016 15:30:00 0.0
2016_12_27_S8 12/26/2016 15:35:00 0.0
2016_12_27_S8 12/26/2016 15:40:00 0.0
2016_12_27_S8 12/26/2016 15:45:00 0.0
2016_12_27_S8 12/26/2016 15:50:00 0.0
2016_12_27_S8 12/26/2016 15:55:00 0.0
2016_12_27_S8 12/26/2016 16:00:00 0.0
2016_12_27_S8 12/26/2016 16:05:00 0.0
2016_12_27_S8 12/26/2016 16:10:00 0.0
2016_12_27_S8 12/26/2016 16:15:00 0.0
2016_12_27_S8 12/26/2016 16:20:00 0.0
2016_12_27_S8 12/26/2016 16:25:00 0.0
2016_12_27_S8 12/26/2016 16:30:00 0.0
2016_12_27_S8 12/26/2016 16:35:00 0.0
2016_12_27_S8 12/26/2016 16:40:00 0.0
2016_12_27_S8 12/26/2016 16:45:00 0.0
2016_12_27_S8 12/26/2016 16:50:00 0.0
2016_12_27_S8 12/26/2016 16:55:00 0.0
2016_12_27_S8 12/26/2016 17:00:00 0.0
2016_12_27_S8 12/26/2016 17:05:00 0.0
2016_12_27_S8 12/26/2016 17:10:00 0.0
2016_12_27_S8 12/26/2016 17:15:00 0.0
2016_12_27_S8 12/26/2016 17:20:00 0.0
2016_12_27_S8 12/26/2016 17:25:00 0.0
2016_12_27_S8 12/26/2016 17:30:00 0.0
2016_12_27_S8 12/26/2016 17:35:00 0.0
2016_12_27_S8 12/26/2016 17:40:00 0.0
2016_12_27_S8 12/26/2016 17:45:00 0.0
2016_12_27_S8 12/26/2016 17:50:00 0.0
2016_12_27_S8 12/26/2016 17:55:00 0.0
2016_12_27_S8 12/26/2016 18:00:00 0.0
2016_12_27_S8 12/26/2016 18:05:00 0.0
2016_12_27_S8 12/26/2016 18:10:00 0.0
2016_12_27_S8 12/26/2016 18:15:00 0.0
2016_12_27_S8 12/26/2016 18:20:00 0.0
2016_12_27_S8 12/26/2016 18:25:00 0.0
2016_12_27_S8 12/26/2016 18:30:00 0.0
2016_12_27_S8 12/26/2016 18:35:00 0.0
2016_12_27_S8 12/26/2016 18:40:00 0.0
2016_12_27_S8 12/26/2016 18:45:00 0.0
2016_12_27_S8 12/26/2016 18:50:00 0.0
2016_12_27_S8 12/26/2016 18:55:00 0.0
2016_12_27_S8 12/26/2016 19:00:00 0.0
2016_12_27_S8 12/26/2016 19:05:00 0.0
2016_12_27_S8 12/26/2016 19:10:00 0.0
2016_12_27_S8 12/26/2016 19:15:00 0.0
2016_12_27_S8 12/26/2016 19:20:00 0.0
2016_12_27_S8 12/26/2016 19:25:00 0.0
2016_12_27_S8 12/26/2016 19:30:00 0.0
2016_12_27_S8 12/26/2016 19:35:00 0.0
2016_12_27_S8 12/26/2016 19:40:00 0.0
2016_12_27_S8 12/26/2016 19:45:00 0.0
2016_12_27_S8 12/26/2016 19:50:00 0.0
2016_12_27_S8 12/26/2016 19:55:00 0.0
2016_12_27_S8 12/26/2016 20:00:00 0.0
2016_12_27_S8 12/26/2016 20:05:00 0.0
2016_12_27_S8 12/26/2016 20:10:00 0.0
2016_12_27_S8 12/26/2016 20:15:00 0.0
2016_12_27_S8 12/26/2016 20:20:00 0.0
2016_12_27_S8 12/26/2016 20:25:00 0.0
2016_12_27_S8 12/26/2016 20:30:00 0.0
2016_12_27_S8 12/26/2016 20:35:00 0.0
2016_12_27_S8 12/26/2016 20:40:00 0.0
2016_12_27_S8 12/26/2016 20:45:00 0.0
2016_12_27_S8 12/26/2016 20:50:00 0.0
2016_12_27_S8 12/26/2016 20:55:00 0.0
2016_12_27_S8 12/26/2016 21:00:00 0.0
2016_12_27_S8 12/26/2016 21:05:00 0.0
2016_12_27_S8 12/26/2016 21:10:00 0.0
2016_12_27_S8 12/26/2016 21:15:00 0.0
2016_12_27_S8 12/26/2016 21:20:00 0.0
2016_12_27_S8 12/26/2016 21:25:00 0.0
2016_12_27_S8 12/26/2016 21:30:00 0.0
2016_12_27_S8 12/26/2016 21:35:00 0.0
2016_12_27_S8 12/26/2016 21:40:00 0.0
2016_12_27_S8 12/26/2016 21:45:00 0.0
2016_12_27_S8 12/26/2016 21:50:00 0.0
2016_12_27_S8 12/26/2016 21:55:00 0.0
2016_12_27_S8 12/26/2016 22:00:00 0.0
2016_12_27_S8 12/26/2016 22:05:00 0.0
2016_12_27_S8 12/26/2016 22:10:00 0.0
2016_12_27_S8 12/26/2016 22:15:00 0.0
2016_12_27_S8 12/26/2016 22:20:00 0.0
2016_12_27_S8 12/26/2016 22:25:00 0.0
2016_12_27_S8 12/26/2016 22:30:00 0.0
2016_12_27_S8 12/26/2016 22:35:00 0.0
2016_12_27_S8 12/26/2016 22:40:00 0.0
2016_12_27_S8 12/26/2016 22:45:00 0.0
2016_12_27_S8 12/26/2016 22:50:00 0.0
2016_12_27_S8 12/26/2016 22:55:00 0.0
2016_12_27_S8 12/26/2016 23:00:00 0.0
2016_12_27_S8 12/26/2016 23:05:00 0.0
2016_12_27_S8 12/26/2016 23:10:00 0.0
2016_12_27_S8 12/26/2016 23:15:00 0.0
2016_12_27_S8 12/26/2016 23:20:00 0.0
2016_12_27_S8 12/26/2016 23:25:00 0.0
2016_12_27_S8 12/26/2016 23:30:00 0.0
2016_12_27_S8 12/26/2016 23:35:00 0.0
2016_12_27_S8 12/26/2016 23:40:00 0.0
2016_12_27_S8 12/26/2016 23:45:00 0.0
2016_12_27_S8 12/26/2016 23:50:00 0.0
2016_12_27_S8 12/26/2016 23:55:00 0.0
2016_12_27_S8 12/27/2016 00:00:00 0.0
2016_12_27_S8 12/27/2016 00:05:00 0.0
2016_12_27_S8 12/27/2016 00:10:00 0.0
2016_12_27_S8 12/27/2016 00:15:00 0.0
2016_12_27_S8 12/27/2016 00:20:00 0.0
2016_12_27_S8 12/27/2016 00:25:00 0.0
2016_12_27_S8 12/27/2016 00:30:00 0.0
2016_12_27_S8 12/27/2016 00:35:00 0.0
2016_12_27_S8 12/27/2016 00:40:00 0.0
2016_12_27_S8 12/27/2016 00:45:00 0.0
2016_12_27_S8 12/27/2016 00:50:00 0.0
2016_12_27_S8 12/27/2016 00:55:00 0.0
2016_12_27_S8 12/27/2016 01:00:00 0.0
2016_12_27_S8 12/27/2016 01:05:00 0.0
2016_12_27_S8 12/27/2016 01:10:00 0.0019
2016_12_27_S8 12/27/2016 01:15:00 0.0052
2016_12_27_S8 12/27/2016 01:20:00 0.0211
2016_12_27_S8 12/27/2016 01:25:00 0.1099
2016_12_27_S8 12/27/2016 01:30:00 0.1167
2016_12_27_S8 12/27/2016 01:35:00 0.5546
2016_12_27_S8 12/27/2016 01:40:00 0.8208
2016_12_27_S8 12/27/2016 01:45:00 1.6528
2016_12_27_S8 12/27/2016 01:50:00 0.8726
2016_12_27_S8 12/27/2016 01:55:00 0.5544
2016_12_27_S8 12/27/2016 02:00:00 0.0083
2016_12_27_S8 12/27/2016 02:05:00 0.0063
2016_12_27_S8 12/27/2016 02:10:00 0.037
2016_12_27_S8 12/27/2016 02:15:00 0.2137
2016_12_27_S8 12/27/2016 02:20:00 0.0693
2016_12_27_S8 12/27/2016 02:25:00 0.5177
2016_12_27_S8 12/27/2016 02:30:00 0.0795
2016_12_27_S8 12/27/2016 02:35:00 0.1528
2016_12_27_S8 12/27/2016 02:40:00 0.3564
2016_12_27_S8 12/27/2016 02:45:00 0.2491
2016_12_27_S8 12/27/2016 02:50:00 0.6762
2016_12_27_S8 12/27/2016 02:55:00 0.3394
2016_12_27_S8 12/27/2016 03:00:00 0.6699
2016_12_27_S8 12/27/2016 03:05:00 0.314
2016_12_27_S8 12/27/2016 03:10:00 0.2902
2016_12_27_S8 12/27/2016 03:15:00 0.8364
2016_12_27_S8 12/27/2016 03:20:00 1.097
2016_12_27_S8 12/27/2016 03:25:00 0.4098
2016_12_27_S8 12/27/2016 03:30:00 1.0221
2016_12_27_S8 12/27/2016 03:35:00 0.4844
2016_12_27_S8 12/27/2016 03:40:00 0.2868
2016_12_27_S8 12/27/2016 03:45:00 0.1463
2016_12_27_S8 12/27/2016 03:50:00 0.1635
2016_12_27_S8 12/27/2016 03:55:00 0.3904
2016_12_27_S8 12/27/2016 04:00:00 0.1538
2016_12_27_S8 12/27/2016 04:05:00 0.0854
2016_12_27_S8 12/27/2016 04:10:00 0.2391
2016_12_27_S8 12/27/2016 04:15:00 0.1158
2016_12_27_S8 12/27/2016 04:20:00 0.0318
2016_12_27_S8 12/27/2016 04:25:00 0.0536
2016_12_27_S8 12/27/2016 04:30:00 0.0348
2016_12_27_S8 12/27/2016 04:35:00 0.0487
2016_12_27_S8 12/27/2016 04:40:00 0.0414
2016_12_27_S8 12/27/2016 04:45:00 0.0486
2016_12_27_S8 12/27/2016 04:50:00 0.2179
2016_12_27_S8 12/27/2016 04:55:00 0.3756
2016_12_27_S8 12/27/2016 05:00:00 0.5021
2016_12_27_S8 12/27/2016 05:05:00 0.0888
2016_12_27_S8 12/27/2016 05:10:00 0.2841
2016_12_27_S8 12/27/2016 05:15:00 0.2262
2016_12_27_S8 12/27/2016 05:20:00 0.1182
2016_12_27_S8 12/27/2016 05:25:00 0.0046
2016_12_27_S8 12/27/2016 05:30:00 0.0
2016_12_27_S8 12/27/2016 05:35:00 0.0
2016_12_27_S8 12/27/2016 05:40:00 0.0
2016_12_27_S8 12/27/2016 05:45:00 0.0
2016_12_27_S8 12/27/2016 05:50:00 0.0
2016_12_27_S8 12/27/2016 05:55:00 0.0
2016_12_27_S8 12/27/2016 06:00:00 0.0
2016_12_27_S8 12/27/2016 06:05:00 0.0
2016_12_27_S8 12/27/2016 06:10:00 0.0
2016_12_27_S8 12/27/2016 06:15:00 0.0
2016_12_27_S8 12/27/2016 06:20:00 0.0
2016_12_27_S8 12/27/2016 06:25:00 0.0
2016_12_27_S8 12/27/2016 06:30:00 0.0
2016_12_27_S8 12/27/2016 06:35:00 0.0
2016_12_27_S8 12/27/2016 06:40:00 0.0098
2016_12_27_S8 12/27/2016 06:45:00 0.1365
2016_12_27_S8 12/27/2016 06:50:00 0.0027
2016_12_27_S8 12/27/2016 06:55:00 0.1363
2016_12_27_S8 12/27/2016 07:00:00 0.1404
2016_12_27_S8 12/27/2016 07:05:00 0.0613
2016_12_27_S8 12/27/2016 07:10:00 0.6101
2016_12_27_S8 12/27/2016 07:15:00 1.0234
2016_12_27_S8 12/27/2016 07:20:00 0.7153
2016_12_27_S8 12/27/2016 07:25:00 0.3381
2016_12_27_S8 12/27/2016 07:30:00 0.6244
2016_12_27_S8 12/27/2016 07:35:00 0.2483
2016_12_27_S8 12/27/2016 07:40:00 0.262
2016_12_27_S8 12/27/2016 07:45:00 0.3019
2016_12_27_S8 12/27/2016 07:50:00 0.8194
2016_12_27_S8 12/27/2016 07:55:00 0.9501
2016_12_27_S8 12/27/2016 08:00:00 0.4133
2016_12_27_S8 12/27/2016 08:05:00 0.5242
2016_12_27_S8 12/27/2016 08:10:00 0.9318
2016_12_27_S8 12/27/2016 08:15:00 0.44
2016_12_27_S8 12/27/2016 08:20:00 0.4459
2016_12_27_S8 12/27/2016 08:25:00 0.0998
2016_12_27_S8 12/27/2016 08:30:00 0.011
2016_12_27_S8 12/27/2016 08:35:00 0.2197
2016_12_27_S8 12/27/2016 08:40:00 0.6112
2016_12_27_S8 12/27/2016 08:45:00 1.0083
2016_12_27_S8 12/27/2016 08:50:00 0.8704
2016_12_27_S8 12/27/2016 08:55:00 0.4264
2016_12_27_S8 12/27/2016 09:00:00 1.9712
2016_12_27_S8 12/27/2016 09:05:00 0.1781
2016_12_27_S8 12/27/2016 09:10:00 0.2938
2016_12_27_S8 12/27/2016 09:15:00 0.9102
2016_12_27_S8 12/27/2016 09:20:00 0.7728
2016_12_27_S8 12/27/2016 09:25:00 0.3959
2016_12_27_S8 12/27/2016 09:30:00 0.2887
2016_12_27_S8 12/27/2016 09:35:00 0.2781
2016_12_27_S8 12/27/2016 09:40:00 0.4153
2016_12_27_S8 12/27/2016 09:45:00 0.3686
2016_12_27_S8 12/27/2016 09:50:00 0.0392
2016_12_27_S8 12/27/2016 09:55:00 0.0
2016_12_27_S8 12/27/2016 10:00:00 0.1296
2016_12_27_S8 12/27/2016 10:05:00 0.6277
2016_12_27_S8 12/27/2016 10:10:00 0.3397
2016_12_27_S8 12/27/2016 10:15:00 0.1462
2016_12_27_S8 12/27/2016 10:20:00 0.0523
2016_12_27_S8 12/27/2016 10:25:00 0.078
2016_12_27_S8 12/27/2016 10:30:00 0.0355
2016_12_27_S8 12/27/2016 10:35:00 0.1077
2016_12_27_S8 12/27/2016 10:40:00 0.0074
2016_12_27_S8 12/27/2016 10:45:00 1.2364
2016_12_27_S8 12/27/2016 10:50:00 0.341
2016_12_27_S8 12/27/2016 10:55:00 0.3529
2016_12_27_S8 12/27/2016 11:00:00 0.4933
2016_12_27_S8 12/27/2016 11:05:00 0.2411
2016_12_27_S8 12/27/2016 11:10:00 0.0674
2016_12_27_S8 12/27/2016 11:15:00 0.2309
2016_12_27_S8 12/27/2016 11:20:00 0.4932
2016_12_27_S8 12/27/2016 11:25:00 0.4934
2016_12_27_S8 12/27/2016 11:30:00 0.891
2016_12_27_S8 12/27/2016 11:35:00 0.7262
2016_12_27_S8 12/27/2016 11:40:00 0.7711
2016_12_27_S8 12/27/2016 11:45:00 0.8345
2016_12_27_S8 12/27/2016 11:50:00 1.744
2016_12_27_S8 12/27/2016 11:55:00 0.4949
2016_12_27_S8 12/27/2016 12:00:00 0.4212
2016_12_27_S8 12/27/2016 12:05:00 0.9848
2016_12_27_S8 12/27/2016 12:10:00 0.1518
2016_12_27_S8 12/27/2016 12:15:00 0.2813
2016_12_27_S8 12/27/2016 12:20:00 0.092
2016_12_27_S8 12/27/2016 12:25:00 0.4364
2016_12_27_S8 12/27/2016 12:30:00 0.1623
2016_12_27_S8 12/27/2016 12:35:00 0.0399
2016_12_27_S8 12/27/2016 12:40:00 0.0751
2016_12_27_S8 12/27/2016 12:45:00 0.0108
2016_12_27_S8 12/27/2016 12:50:00 0.004
2016_12_27_S8 12/27/2016 12:55:00 0.0037
2016_12_27_S8 12/27/2016 13:00:00 0.0998
2016_12_27_S8 12/27/2016 13:05:00 0.0053
2016_12_27_S8 12/27/2016 13:10:00 0.0
2016_12_27_S8 12/27/2016 13:15:00 0.0
2016_12_27_S8 12/27/2016 13:20:00 0.0
2016_12_27_S8 12/27/2016 13:25:00 0.0022
2016_12_27_S8 12/27/2016 13:30:00 0.1737
2016_12_27_S8 12/27/2016 13:35:00 0.1521
2016_12_27_S8 12/27/2016 13:40:00 0.306
2016_12_27_S8 12/27/2016 13:45:00 0.2368
2016_12_27_S8 12/27/2016 13:50:00 0.0691
2016_12_27_S8 12/27/2016 13:55:00 0.028
2016_12_27_S8 12/27/2016 14:00:00 0.085
2016_12_27_S8 12/27/2016 14:05:00 0.0462
2016_12_27_S8 12/27/2016 14:10:00 0.0078
2016_12_27_S8 12/27/2016 14:15:00 0.0048
2016_12_27_S8 12/27/2016 14:20:00 0.0205
2016_12_27_S8 12/27/2016 14:25:00 0.0286
2016_12_27_S8 12/27/2016 14:30:00 0.0017
2016_12_27_S8 12/27/2016 14:35:00 0.0
2016_12_27_S8 12/27/2016 14:40:00 0.0
2016_12_27_S8 12/27/2016 14:45:00 0.0
2016_12_27_S8 12/27/2016 14:50:00 0.0
2016_12_27_S8 12/27/2016 14:55:00 0.0
2016_12_27_S8 12/27/2016 15:00:00 0.0
2016_12_27_S8 12/27/2016 15:05:00 0.0
2016_12_27_S8 12/27/2016 15:10:00 0.0
2016_12_27_S8 12/27/2016 15:15:00 0.0
2016_12_27_S8 12/27/2016 15:20:00 0.001
2016_12_27_S8 12/27/2016 15:25:00 0.0004
2016_12_27_S8 12/27/2016 15:30:00 0.0
2016_12_27_S8 12/27/2016 15:35:00 0.0
2016_12_27_S8 12/27/2016 15:40:00 0.0
2016_12_27_S8 12/27/2016 15:45:00 0.0
2016_12_27_S8 12/27/2016 15:50:00 0.0
2016_12_27_S8 12/27/2016 15:55:00 0.0
2016_12_27_S8 12/27/2016 16:00:00 0.0686
2016_12_27_S8 12/27/2016 16:05:00 0.0199
2016_12_27_S8 12/27/2016 16:10:00 0.0
2016_12_27_S8 12/27/2016 16:15:00 0.0051
2016_12_27_S8 12/27/2016 16:20:00 0.0
2016_12_27_S8 12/27/2016 16:25:00 0.0
2016_12_27_S8 12/27/2016 16:30:00 0.0
2016_12_27_S8 12/27/2016 16:35:00 0.0004
2016_12_27_S8 12/27/2016 16:40:00 0.1094
2016_12_27_S8 12/27/2016 16:45:00 0.0415
2016_12_27_S8 12/27/2016 16:50:00 0.0
2016_12_27_S8 12/27/2016 16:55:00 0.0
2016_12_27_S8 12/27/2016 17:00:00 0.0
2016_12_27_S8 12/27/2016 17:05:00 0.0
2016_12_27_S8 12/27/2016 17:10:00 0.0
2016_12_27_S8 12/27/2016 17:15:00 0.0
2016_12_27_S8 12/27/2016 17:20:00 0.0
2016_12_27_S8 12/27/2016 17:25:00 0.0
2016_12_27_S8 12/27/2016 17:30:00 0.0
2016_12_27_S8 12/27/2016 17:35:00 0.0
2016_12_27_S8 12/27/2016 17:40:00 0.031
2016_12_27_S8 12/27/2016 17:45:00 0.1551
2016_12_27_S8 12/27/2016 17:50:00 0.0507
2016_12_27_S8 12/27/2016 17:55:00 0.0
2016_12_27_S8 12/27/2016 18:00:00 0.0
2016_12_27_S8 12/27/2016 18:05:00 0.0
2016_12_27_S8 12/27/2016 18:10:00 0.0
2016_12_27_S8 12/27/2016 18:15:00 0.0
2016_12_27_S8 12/27/2016 18:20:00 0.1721
2016_12_27_S8 12/27/2016 18:25:00 1.482
2016_12_27_S8 12/27/2016 18:30:00 0.0254
2016_12_27_S8 12/27/2016 18:35:00 0.0313
2016_12_27_S8 12/27/2016 18:40:00 0.0361
2016_12_27_S8 12/27/2016 18:45:00 0.0
2016_12_27_S8 12/27/2016 18:50:00 0.0
2016_12_27_S8 12/27/2016 18:55:00 0.0
2016_12_27_S8 12/27/2016 19:00:00 0.0
2016_12_27_S8 12/27/2016 19:05:00 0.0
2016_12_27_S8 12/27/2016 19:10:00 0.025
2016_12_27_S8 12/27/2016 19:15:00 0.0375
2016_12_27_S8 12/27/2016 19:20:00 0.0008
2016_12_27_S8 12/27/2016 19:25:00 0.0
2016_12_27_S8 12/27/2016 19:30:00 0.0081
2016_12_27_S8 12/27/2016 19:35:00 0.4051
2016_12_27_S8 12/27/2016 19:40:00 0.1238
2016_12_27_S8 12/27/2016 19:45:00 0.461
2016_12_27_S8 12/27/2016 19:50:00 2.4921
2016_12_27_S8 12/27/2016 19:55:00 0.8814
2016_12_27_S8 12/27/2016 20:00:00 0.0983
2016_12_27_S8 12/27/2016 20:05:00 0.0007
2016_12_27_S8 12/27/2016 20:10:00 0.0
2016_12_27_S8 12/27/2016 20:15:00 0.0
2016_12_27_S8 12/27/2016 20:20:00 0.001
2016_12_27_S8 12/27/2016 20:25:00 0.0006
2016_12_27_S8 12/27/2016 20:30:00 0.0068
2016_12_27_S8 12/27/2016 20:35:00 0.0017
2016_12_27_S8 12/27/2016 20:40:00 0.0
2016_12_27_S8 12/27/2016 20:45:00 0.0
2016_12_27_S8 12/27/2016 20:50:00 0.0
2016_12_27_S8 12/27/2016 20:55:00 0.0
2016_12_27_S8 12/27/2016 21:00:00 0.0
2016_12_27_S8 12/27/2016 21:05:00 0.0
2016_12_27_S8 12/27/2016 21:10:00 0.0
2016_12_27_S8 12/27/2016 21:15:00 0.0
2016_12_27_S8 12/27/2016 21:20:00 0.0
2016_12_27_S8 12/27/2016 21:25:00 0.0
2016_12_27_S8 12/27/2016 21:30:00 0.0
2016_12_27_S8 12/27/2016 21:35:00 0.0
2016_12_27_S8 12/27/2016 21:40:00 0.0
2016_12_27_S8 12/27/2016 21:45:00 0.0
2016_12_27_S8 12/27/2016 21:50:00 0.0
2016_12_27_S8 12/27/2016 21:55:00 0.0
2016_12_27_S8 12/27/2016 22:00:00 0.0
2016_12_27_S8 12/27/2016 22:05:00 0.0
2016_12_27_S8 12/27/2016 22:10:00 0.0
2016_12_27_S8 12/27/2016 22:15:00 0.0
2016_12_27_S8 12/27/2016 22:20:00 0.0
2016_12_27_S8 12/27/2016 22:25:00 0.0066
2016_12_27_S8 12/27/2016 22:30:00 0.083
2016_12_27_S8 12/27/2016 22:35:00 0.2532
2016_12_27_S8 12/27/2016 22:40:00 0.0013
2016_12_27_S8 12/27/2016 22:45:00 0.0
2016_12_27_S8 12/27/2016 22:50:00 0.0
2016_12_27_S8 12/27/2016 22:55:00 0.0062
2016_12_27_S8 12/27/2016 23:00:00 0.0025
2016_12_27_S8 12/27/2016 23:05:00 0.0331
2016_12_27_S8 12/27/2016 23:10:00 0.0076
2016_12_27_S8 12/27/2016 23:15:00 0.0021
2016_12_27_S8 12/27/2016 23:20:00 0.0059
2016_12_27_S8 12/27/2016 23:25:00 0.0049
2016_12_27_S8 12/27/2016 23:30:00 0.0006
2016_12_27_S8 12/27/2016 23:35:00 0.0
2016_12_27_S8 12/27/2016 23:40:00 0.0022
2016_12_27_S8 12/27/2016 23:45:00 0.0
2016_12_27_S8 12/27/2016 23:50:00 0.0
2016_12_27_S8 12/27/2016 23:55:00 0.0
2016_12_27_S8 12/28/2016 00:00:00 0.0
2016_12_27_S8 12/28/2016 00:05:00 0.0
2016_12_27_S8 12/28/2016 00:10:00 0.0
2016_12_27_S8 12/28/2016 00:15:00 0.0
2016_12_27_S8 12/28/2016 00:20:00 0.0
2016_12_27_S8 12/28/2016 00:25:00 0.0
2016_12_27_S8 12/28/2016 00:30:00 0.0
2016_12_27_S8 12/28/2016 00:35:00 0.0
2016_12_27_S8 12/28/2016 00:40:00 0.0
2016_12_27_S8 12/28/2016 00:45:00 0.0
2016_12_27_S8 12/28/2016 00:50:00 0.0
2016_12_27_S8 12/28/2016 00:55:00 0.0
2016_12_27_S8 12/28/2016 01:00:00 0.0
2016_12_27_S8 12/28/2016 01:05:00 0.0
2016_12_27_S8 12/28/2016 01:10:00 0.0
2016_12_27_S8 12/28/2016 01:15:00 0.0
2016_12_27_S8 12/28/2016 01:20:00 0.0
2016_12_27_S8 12/28/2016 01:25:00 0.0
2016_12_27_S8 12/28/2016 01:30:00 0.0
2016_12_27_S8 12/28/2016 01:35:00 0.0
2016_12_27_S8 12/28/2016 01:40:00 0.0
2016_12_27_S8 12/28/2016 01:45:00 0.0
2016_12_27_S8 12/28/2016 01:50:00 0.0
2016_12_27_S8 12/28/2016 01:55:00 0.0
2016_12_27_S8 12/28/2016 02:00:00 0.0
2016_12_27_S8 12/28/2016 02:05:00 0.0
2016_12_27_S8 12/28/2016 02:10:00 0.0
2016_12_27_S8 12/28/2016 02:15:00 0.0
2016_12_27_S8 12/28/2016 02:20:00 0.0
2016_12_27_S8 12/28/2016 02:25:00 0.0
2016_12_27_S8 12/28/2016 02:30:00 0.0
2016_12_27_S8 12/28/2016 02:35:00 0.0
2016_12_27_S8 12/28/2016 02:40:00 0.0
2016_12_27_S8 12/28/2016 02:45:00 0.0
2016_12_27_S8 12/28/2016 02:50:00 0.0
2016_12_27_S8 12/28/2016 02:55:00 0.0
2016_12_27_S8 12/28/2016 03:00:00 0.0
2016_12_27_S8 12/28/2016 03:05:00 0.0
2016_12_27_S8 12/28/2016 03:10:00 0.0
2016_12_27_S8 12/28/2016 03:15:00 0.0
2016_12_27_S8 12/28/2016 03:20:00 0.0
2016_12_27_S8 12/28/2016 03:25:00 0.0
2016_12_27_S8 12/28/2016 03:30:00 0.0
2016_12_27_S8 12/28/2016 03:35:00 0.0
2016_12_27_S8 12/28/2016 03:40:00 0.0
2016_12_27_S8 12/28/2016 03:45:00 0.0
2016_12_27_S8 12/28/2016 03:50:00 0.0
2016_12_27_S8 12/28/2016 03:55:00 0.0
2016_12_27_S8 12/28/2016 04:00:00 0.0
2016_12_27_S8 12/28/2016 04:05:00 0.0
2016_12_27_S8 12/28/2016 04:10:00 0.0
2016_12_27_S8 12/28/2016 04:15:00 0.0
2016_12_27_S8 12/28/2016 04:20:00 0.0
2016_12_27_S8 12/28/2016 04:25:00 0.0
2016_12_27_S8 12/28/2016 04:30:00 0.0
2016_12_27_S8 12/28/2016 04:35:00 0.0
2016_12_27_S8 12/28/2016 04:40:00 0.0
2016_12_27_S8 12/28/2016 04:45:00 0.0
2016_12_27_S8 12/28/2016 04:50:00 0.0
2016_12_27_S8 12/28/2016 04:55:00 0.0
2016_12_27_S8 12/28/2016 05:00:00 0.0
2016_12_27_S8 12/28/2016 05:05:00 0.0
2016_12_27_S8 12/28/2016 05:10:00 0.0
2016_12_27_S8 12/28/2016 05:15:00 0.0
2016_12_27_S8 12/28/2016 05:20:00 0.0
2016_12_27_S8 12/28/2016 05:25:00 0.0
2016_12_27_S8 12/28/2016 05:30:00 0.0
2016_12_27_S8 12/28/2016 05:35:00 0.0
2016_12_27_S8 12/28/2016 05:40:00 0.0
2016_12_27_S8 12/28/2016 05:45:00 0.0
2016_12_27_S8 12/28/2016 05:50:00 0.0
2016_12_27_S8 12/28/2016 05:55:00 0.0
2016_12_27_S8 12/28/2016 06:00:00 0.0
2016_12_27_S8 12/28/2016 06:05:00 0.0
2016_12_27_S8 12/28/2016 06:10:00 0.0
2016_12_27_S8 12/28/2016 06:15:00 0.0
2016_12_27_S8 12/28/2016 06:20:00 0.0
2016_12_27_S8 12/28/2016 06:25:00 0.0
2016_12_27_S8 12/28/2016 06:30:00 0.0
2016_12_27_S8 12/28/2016 06:35:00 0.0
2016_12_27_S8 12/28/2016 06:40:00 0.0
2016_12_27_S8 12/28/2016 06:45:00 0.0
2016_12_27_S8 12/28/2016 06:50:00 0.0
2016_12_27_S8 12/28/2016 06:55:00 0.0
2016_12_27_S8 12/28/2016 07:00:00 0.0
2016_12_27_S8 12/28/2016 07:05:00 0.0
2016_12_27_S8 12/28/2016 07:10:00 0.0
2016_12_27_S8 12/28/2016 07:15:00 0.0
2016_12_27_S8 12/28/2016 07:20:00 0.0
2016_12_27_S8 12/28/2016 07:25:00 0.0
2016_12_27_S8 12/28/2016 07:30:00 0.0
2016_12_27_S8 12/28/2016 07:35:00 0.0
2016_12_27_S8 12/28/2016 07:40:00 0.0
2016_12_27_S8 12/28/2016 07:45:00 0.0
2016_12_27_S8 12/28/2016 07:50:00 0.0
2016_12_27_S8 12/28/2016 07:55:00 0.0
2016_12_27_S8 12/28/2016 08:00:00 0.0

2016_12_27_S9 12/26/2016 08:00:00 0.0
2016_12_27_S9 12/26/2016 08:05:00 0.0
2016_12_27_S9 12/26/2016 08:10:00 0.0
2016_12_27_S9 12/26/2016 08:15:00 0.0
2016_12_27_S9 12/26/2016 08:20:00 0.0
2016_12_27_S9 12/26/2016 08:25:00 0.0
2016_12_27_S9 12/26/2016 08:30:00 0.0
2016_12_27_S9 12/26/2016 08:35:00 0.0
2016_12_27_S9 12/26/2016 08:40:00 0.0
2016_12_27_S9 12/26/2016 08:45:00 0.0
2016_12_27_S9 12/26/2016 08:50:00 0.0
2016_12_27_S9 12/26/2016 08:55:00 0.0
2016_12_27_S9 12/26/2016 09:00:00 0.0
2016_12_27_S9 12/26/2016 09:05:00 0.0089
2016_12_27_S9 12/26/2016 09:10:00 0.0417
2016_12_27_S9 12/26/2016 09:15:00 0.0452
2016_12_27_S9 12/26/2016 09:20:00 0.0292
2016_12_27_S9 12/26/2016 09:25:00 0.0
2016_12_27_S9 12/26/2016 09:30:00 0.0
2016_12_27_S9 12/26/2016 09:35:00 0.0
2016_12_27_S9 12/26/2016 09:40:00 0.0
2016_12_27_S9 12/26/2016 09:45:00 0.0
2016_12_27_S9 12/26/2016 09:50:00 0.0
2016_12_27_S9 12/26/2016 09:55:00 0.0
2016_12_27_S9 12/26/2016 10:00:00 0.0
2016_12_27_S9 12/26/2016 10:05:00 0.0
2016_12_27_S9 12/26/2016 10:10:00 0.0
2016_12_27_S9 12/26/2016 10:15:00 0.0
2016_12_27_S9 12/26/2016 10:20:00 0.0002
2016_12_27_S9 12/26/2016 10:25:00 0.0
2016_12_27_S9 12/26/2016 10:30:00 0.0
2016_12_27_S9 12/26/2016 10:35:00 0.0
2016_12_27_S9 12/26/2016 10:40:00 0.0
2016_12_27_S9 12/26/2016 10:45:00 0.0
2016_12_27_S9 12/26/2016 10:50:00 0.0
2016_12_27_S9 12/26/2016 10:55:00 0.0
2016_12_27_S9 12/26/2016 11:00:00 0.0
2016_12_27_S9 12/26/2016 11:05:00 0.0
2016_12_27_S9 12/26/2016 11:10:00 0.0
2016_12_27_S9 12/26/2016 11:15:00 0.0
2016_12_27_S9 12/26/2016 11:20:00 0.0
2016_12_27_S9 12/26/2016 11:25:00 0.0
2016_12_27_S9 12/26/2016 11:30:00 0.0
2016_12_27_S9 12/26/2016 11:35:00 0.0
2016_12_27_S9 12/26/2016 11:40:00 0.0
2016_12_27_S9 12/26/2016 11:45:00 0.0
2016_12_27_S9 12/26/2016 11:50:00 0.0002
2016_12_27_S9 12/26/2016 11:55:00 0.0301
2016_12_27_S9 12/26/2016 12:00:00 0.0122
2016_12_27_S9 12/26/2016 12:05:00 0.1862
2016_12_27_S9 12/26/2016 12:10:00 0.0596
2016_12_27_S9 12/26/2016 12:15:00 0.0
2016_12_27_S9 12/26/2016 12:20:00 0.0
2016_12_27_S9 12/26/2016 12:25:00 0.0
2016_12_27_S9 12/26/2016 12:30:00 0.0
2016_12_27_S9 12/26/2016 12:35:00 0.0173
2016_12_27_S9 12/26/2016 12:40:00 0.0146
2016_12_27_S9 12/26/2016 12:45:00 0.0227
2016_12_27_S9 12/26/2016 12:50:00 0.0
2016_12_27_S9 12/26/2016 12:55:00 0.0
2016_12_27_S9 12/26/2016 13:00:00 0.0
2016_12_27_S9 12/26/2016 13:05:00 0.0
2016_12_27_S9 12/26/2016 13:10:00 0.0
2016_12_27_S9 12/26/2016 13:15:00 0.0
2016_12_27_S9 12/26/2016 13:20:00 0.0
2016_12_27_S9 12/26/2016 13:25:00 0.0
2016_12_27_S9 12/26/2016 13:30:00 0.0
2016_12_27_S9 12/26/2016 13:35:00 0.0
2016_12_27_S9 12/26/2016 13:40:00 0.0
2016_12_27_S9 12/26/2016 13:45:00 0.0
2016_12_27_S9 12/26/2016 13:50:00 0.0
2016_12_27_S9 12/26/2016 13:55:00 0.0
2016_12_27_S9 12/26/2016 14:00:00 0.0
2016_12_27_S9 12/26/2016 14:05:00 0.0
2016_12_27_S9 12/26/2016 14:10:00 0.0
2016_12_27_S9 12/26/2016 14:15:00 0.0
2016_12_27_S9 12/26/2016 14:20:00 0.0
2016_12_27_S9 12/26/2016 14:25:00 0.0
2016_12_27_S9 12/26/2016 14:30:00 0.0
2016_12_27_S9 12/26/2016 14:35:00 0.0
2016_12_27_S9 12/26/2016 14:40:00 0.0
2016_12_27_S9 12/26/2016 14:45:00 0.0
2016_12_27_S9 12/26/2016 14:50:00 0.0
2016_12_27_S9 12/26/2016 14:55:00 0.0
2016_12_27_S9 12/26/2016 15:00:00 0.0
2016_12_27_S9 12/26/2016 15:05:00 0.0
2016_12_27_S9 12/26/2016 15:10:00 0.0
2016_12_27_S9 12/26/2016 15:15:00 0.0
2016_12_27_S9 12/26/2016 15:20:00 0.0
2016_12_27_S9 12/26/2016 15:25:00 0.0
2016_12_27_S9 12/26/2016 15:30:00 0.0
2016_12_27_S9 12/26/2016 15:35:00 0.0
2016_12_27_S9 12/26/2016 15:40:00 0.0
2016_12_27_S9 12/26/2016 15:45:00 0.0
2016_12_27_S9 12/26/2016 15:50:00 0.0
2016_12_27_S9 12/26/2016 15:55:00 0.0
2016_12_27_S9 12/26/2016 16:00:00 0.0
2016_12_27_S9 12/26/2016 16:05:00 0.0
2016_12_27_S9 12/26/2016 16:10:00 0.0
2016_12_27_S9 12/26/2016 16:15:00 0.0
2016_12_27_S9 12/26/2016 16:20:00 0.0
2016_12_27_S9 12/26/2016 16:25:00 0.0
2016_12_27_S9 12/26/2016 16:30:00 0.0
2016_12_27_S9 12/26/2016 16:35:00 0.0
2016_12_27_S9 12/26/2016 16:40:00 0.0
2016_12_27_S9 12/26/2016 16:45:00 0.0
2016_12_27_S9 12/26/2016 16:50:00 0.0
2016_12_27_S9 12/26/2016 16:55:00 0.0
2016_12_27_S9 12/26/2016 17:00:00 0.0
2016_12_27_S9 12/26/2016 17:05:00 0.0
2016_12_27_S9 12/26/2016 17:10:00 0.0
2016_12_27_S9 12/26/2016 17:15:00 0.0
2016_12_27_S9 12/26/2016 17:20:00 0.0
2016_12_27_S9 12/26/2016 17:25:00 0.0
2016_12_27_S9 12/26/2016 17:30:00 0.0
2016_12_27_S9 12/26/2016 17:35:00 0.0
2016_12_27_S9 12/26/2016 17:40:00 0.0
2016_12_27_S9 12/26/2016 17:45:00 0.0
2016_12_27_S9 12/26/2016 17:50:00 0.0
2016_12_27_S9 12/26/2016 17:55:00 0.0
2016_12_27_S9 12/26/2016 18:00:00 0.0
2016_12_27_S9 12/26/2016 18:05:00 0.0
2016_12_27_S9 12/26/2016 18:10:00 0.0
2016_12_27_S9 12/26/2016 18:15:00 0.0
2016_12_27_S9 12/26/2016 18:20:00 0.0
2016_12_27_S9 12/26/2016 18:25:00 0.0
2016_12_27_S9 12/26/2016 18:30:00 0.0
2016_12_27_S9 12/26/2016 18:35:00 0.0
2016_12_27_S9 12/26/2016 18:40:00 0.0
2016_12_27_S9 12/26/2016 18:45:00 0.0
2016_12_27_S9 12/26/2016 18:50:00 0.0
2016_12_27_S9 12/26/2016 18:55:00 0.0
2016_12_27_S9 12/26/2016 19:00:00 0.0
2016_12_27_S9 12/26/2016 19:05:00 0.0
2016_12_27_S9 12/26/2016 19:10:00 0.0
2016_12_27_S9 12/26/2016 19:15:00 0.0
2016_12_27_S9 12/26/2016 19:20:00 0.0
2016_12_27_S9 12/26/2016 19:25:00 0.0
2016_12_27_S9 12/26/2016 19:30:00 0.0
2016_12_27_S9 12/26/2016 19:35:00 0.0
2016_12_27_S9 12/26/2016 19:40:00 0.0
2016_12_27_S9 12/26/2016 19:45:00 0.0
2016_12_27_S9 12/26/2016 19:50:00 0.0
2016_12_27_S9 12/26/2016 19:55:00 0.0
2016_12_27_S9 12/26/2016 20:00:00 0.0
2016_12_27_S9 12/26/2016 20:05:00 0.0
2016_12_27_S9 12/26/2016 20:10:00 0.0
2016_12_27_S9 12/26/2016 20:15:00 0.0
2016_12_27_S9 12/26/2016 20:20:00 0.0
2016_12_27_S9 12/26/2016 20:25:00 0.0
2016_12_27_S9 12/26/2016 20:30:00 0.0
2016_12_27_S9 12/26/2016 20:35:00 0.0
2016_12_27_S9 12/26/2016 20:40:00 0.0
2016_12_27_S9 12/26/2016 20:45:00 0.0
2016_12_27_S9 12/26/2016 20:50:00 0.0
2016_12_27_S9 12/26/2016 20:55:00 0.0
2016_12_27_S9 12/26/2016 21:00:00 0.0
2016_12_27_S9 12/26/2016 21:05:00 0.0
2016_12_27_S9 12/26/2016 21:10:00 0.0
2016_12_27_S9 12/26/2016 21:15:00 0.0
2016_12_27_S9 12/26/2016 21:20:00 0.0
2016_12_27_S9 12/26/2016 21:25:00 0.0
2016_12_27_S9 12/26/2016 21:30:00 0.0
2016_12_27_S9 12/26/2016 21:35:00 0.0
2016_12_27_S9 12/26/2016 21:40:00 0.0
2016_12_27_S9 12/26/2016 21:45:00 0.0
2016_12_27_S9 12/26/2016 21:50:00 0.0
2016_12_27_S9 12/26/2016 21:55:00 0.0
2016_12_27_S9 12/26/2016 22:00:00 0.0
2016_12_27_S9 12/26/2016 22:05:00 0.0
2016_12_27_S9 12/26/2016 22:10:00 0.0
2016_12_27_S9 12/26/2016 22:15:00 0.0
2016_12_27_S9 12/26/2016 22:20:00 0.0
2016_12_27_S9 12/26/2016 22:25:00 0.0
2016_12_27_S9 12/26/2016 22:30:00 0.0
2016_12_27_S9 12/26/2016 22:35:00 0.0
2016_12_27_S9 12/26/2016 22:40:00 0.0
2016_12_27_S9 12/26/2016 22:45:00 0.0
2016_12_27_S9 12/26/2016 22:50:00 0.0
2016_12_27_S9 12/26/2016 22:55:00 0.0
2016_12_27_S9 12/26/2016 23:00:00 0.0
2016_12_27_S9 12/26/2016 23:05:00 0.0
2016_12_27_S9 12/26/2016 23:10:00 0.0
2016_12_27_S9 12/26/2016 23:15:00 0.0
2016_12_27_S9 12/26/2016 23:20:00 0.0
2016_12_27_S9 12/26/2016 23:25:00 0.0
2016_12_27_S9 12/26/2016 23:30:00 0.0
2016_12_27_S9 12/26/2016 23:35:00 0.0
2016_12_27_S9 12/26/2016 23:40:00 0.0
2016_12_27_S9 12/26/2016 23:45:00 0.0
2016_12_27_S9 12/26/2016 23:50:00 0.0
2016_12_27_S9 12/26/2016 23:55:00 0.0
2016_12_27_S9 12/27/2016 00:00:00 0.0
2016_12_27_S9 12/27/2016 00:05:00 0.0
2016_12_27_S9 12/27/2016 00:10:00 0.0
2016_12_27_S9 12/27/2016 00:15:00 0.0
2016_12_27_S9 12/27/2016 00:20:00 0.0
2016_12_27_S9 12/27/2016 00:25:00 0.0
2016_12_27_S9 12/27/2016 00:30:00 0.0
2016_12_27_S9 12/27/2016 00:35:00 0.0
2016_12_27_S9 12/27/2016 00:40:00 0.0
2016_12_27_S9 12/27/2016 00:45:00 0.0
2016_12_27_S9 12/27/2016 00:50:00 0.0
2016_12_27_S9 12/27/2016 00:55:00 0.0
2016_12_27_S9 12/27/2016 01:00:00 0.0
2016_12_27_S9 12/27/2016 01:05:00 0.0
2016_12_27_S9 12/27/2016 01:10:00 0.0048
2016_12_27_S9 12/27/2016 01:15:00 0.001
2016_12_27_S9 12/27/2016 01:20:00 0.0203
2016_12_27_S9 12/27/2016 01:25:00 0.122
2016_12_27_S9 12/27/2016 01:30:00 0.162
2016_12_27_S9 12/27/2016 01:35:00 0.5609
2016_12_27_S9 12/27/2016 01:40:00 0.8914
2016_12_27_S9 12/27/2016 01:45:00 1.9347
2016_12_27_S9 12/27/2016 01:50:00 0.751
2016_12_27_S9 12/27/2016 01:55:00 0.3593
2016_12_27_S9 12/27/2016 02:00:00 0.0007
2016_12_27_S9 12/27/2016 02:05:00 0.0118
2016_12_27_S9 12/27/2016 02:10:00 0.0506
2016_12_27_S9 12/27/2016 02:15:00 0.2567
2016_12_27_S9 12/27/2016 02:20:00 0.0815
2016_12_27_S9 12/27/2016 02:25:00 0.4133
2016_12_27_S9 12/27/2016 02:30:00 0.077
2016_12_27_S9 12/27/2016 02:35:00 0.1914
2016_12_27_S9 12/27/2016 02:40:00 0.4197
2016_12_27_S9 12/27/2016 02:45:00 0.1819
2016_12_27_S9 12/27/2016 02:50:00 0.4714
2016_12_27_S9 12/27/2016 02:55:00 0.3131
2016_12_27_S9 12/27/2016 03:00:00 0.5725
2016_12_27_S9 12/27/2016 03:05:00 0.2251
2016_12_27_S9 12/27/2016 03:10:00 0.2575
2016_12_27_S9 12/27/2016 03:15:00 0.7126
2016_12_27_S9 12/27/2016 03:20:00 1.0449
2016_12_27_S9 12/27/2016 03:25:00 0.3898
2016_12_27_S9 12/27/2016 03:30:00 0.9764
2016_12_27_S9 12/27/2016 03:35:00 0.5653
2016_12_27_S9 12/27/2016 03:40:00 0.2705
2016_12_27_S9 12/27/2016 03:45:00 0.1063
2016_12_27_S9 12/27/2016 03:50:00 0.1847
2016_12_27_S9 12/27/2016 03:55:00 0.3281
2016_12_27_S9 12/27/2016 04:00:00 0.1422
2016_12_27_S9 12/27/2016 04:05:00 0.0802
2016_12_27_S9 12/27/2016 04:10:00 0.2322
2016_12_27_S9 12/27/2016 04:15:00 0.0974
2016_12_27_S9 12/27/2016 04:20:00 0.0266
2016_12_27_S9 12/27/2016 04:25:00 0.0884
2016_12_27_S9 12/27/2016 04:30:00 0.0446
2016_12_27_S9 12/27/2016 04:35:00 0.0575
2016_12_27_S9 12/27/2016 04:40:00 0.0402
2016_12_27_S9 12/27/2016 04:45:00 0.0508
2016_12_27_S9 12/27/2016 04:50:00 0.2344
2016_12_27_S9 12/27/2016 04:55:00 0.3865
2016_12_27_S9 12/27/2016 05:00:00 0.492
2016_12_27_S9 12/27/2016 05:05:00 0.0978
2016_12_27_S9 12/27/2016 05:10:00 0.1906
2016_12_27_S9 12/27/2016 05:15:00 0.2934
2016_12_27_S9 12/27/2016 05:20:00 0.2216
2016_12_27_S9 12/27/2016 05:25:00 0.0029
2016_12_27_S9 12/27/2016 05:30:00 0.0
2016_12_27_S9 12/27/2016 05:35:00 0.0
2016_12_27_S9 12/27/2016 05:40:00 0.0
2016_12_27_S9 12/27/2016 05:45:00 0.0
2016_12_27_S9 12/27/2016 05:50:00 0.0
2016_12_27_S9 12/27/2016 05:55:00 0.0
2016_12_27_S9 12/27/2016 06:00:00 0.0
2016_12_27_S9 12/27/2016 06:05:00 0.0
2016_12_27_S9 12/27/2016 06:10:00 0.0
2016_12_27_S9 12/27/2016 06:15:00 0.0
2016_12_27_S9 12/27/2016 06:20:00 0.0
2016_12_27_S9 12/27/2016 06:25:00 0.0
2016_12_27_S9 12/27/2016 06:30:00 0.0
2016_12_27_S9 12/27/2016 06:35:00 0.0
2016_12_27_S9 12/27/2016 06:40:00 0.0119
2016_12_27_S9 12/27/2016 06:45:00 0.0694
2016_12_27_S9 12/27/2016 06:50:00 0.0085
2016_12_27_S9 12/27/2016 06:55:00 0.2252
2016_12_27_S9 12/27/2016 07:00:00 0.1143
2016_12_27_S9 12/27/2016 07:05:00 0.0554
2016_12_27_S9 12/27/2016 07:10:00 0.5683
2016_12_27_S9 12/27/2016 07:15:00 1.1285
2016_12_27_S9 12/27/2016 07:20:00 0.8754
2016_12_27_S9 12/27/2016 07:25:00 0.3935
2016_12_27_S9 12/27/2016 07:30:00 0.4496
2016_12_27_S9 12/27/2016 07:35:00 0.1683
2016_12_27_S9 12/27/2016 07:40:00 0.2371
2016_12_27_S9 12/27/2016 07:45:00 0.4614
2016_12_27_S9 12/27/2016 07:50:00 0.9132
2016_12_27_S9 12/27/2016 07:55:00 1.0316
2016_12_27_S9 12/27/2016 08:00:00 0.3709
2016_12_27_S9 12/27/2016 08:05:00 0.544
2016_12_27_S9 12/27/2016 08:10:00 0.8861
2016_12_27_S9 12/27/2016 08:15:00 0.495
2016_12_27_S9 12/27/2016 08:20:00 0.4632
2016_12_27_S9 12/27/2016 08:25:00 0.0478
2016_12_27_S9 12/27/2016 08:30:00 0.0092
2016_12_27_S9 12/27/2016 08:35:00 0.1388
2016_12_27_S9 12/27/2016 08:40:00 0.7588
2016_12_27_S9 12/27/2016 08:45:00 1.0662
2016_12_27_S9 12/27/2016 08:50:00 0.986
2016_12_27_S9 12/27/2016 08:55:00 0.3223
2016_12_27_S9 12/27/2016 09:00:00 2.3487
2016_12_27_S9 12/27/2016 09:05:00 0.1876
2016_12_27_S9 12/27/2016 09:10:00 0.2074
2016_12_27_S9 12/27/2016 09:15:00 1.0455
2016_12_27_S9 12/27/2016 09:20:00 1.2442
2016_12_27_S9 12/27/2016 09:25:00 0.3951
2016_12_27_S9 12/27/2016 09:30:00 0.3133
2016_12_27_S9 12/27/2016 09:35:00 0.4134
2016_12_27_S9 12/27/2016 09:40:00 0.4119
2016_12_27_S9 12/27/2016 09:45:00 0.3403
2016_12_27_S9 12/27/2016 09:50:00 0.0199
2016_12_27_S9 12/27/2016 09:55:00 0.0
2016_12_27_S9 12/27/2016 10:00:00 0.0938
2016_12_27_S9 12/27/2016 10:05:00 0.787
2016_12_27_S9 12/27/2016 10:10:00 0.2999
2016_12_27_S9 12/27/2016 10:15:00 0.1343
2016_12_27_S9 12/27/2016 10:20:00 0.0509
2016_12_27_S9 12/27/2016 10:25:00 0.0871
2016_12_27_S9 12/27/2016 10:30:00 0.0181
2016_12_27_S9 12/27/2016 10:35:00 0.1753
2016_12_27_S9 12/27/2016 10:40:00 0.0015
2016_12_27_S9 12/27/2016 10:45:00 1.3691
2016_12_27_S9 12/27/2016 10:50:00 0.3967
2016_12_27_S9 12/27/2016 10:55:00 0.1673
2016_12_27_S9 12/27/2016 11:00:00 0.489
2016_12_27_S9 12/27/2016 11:05:00 0.2335
2016_12_27_S9 12/27/2016 11:10:00 0.0709
2016_12_27_S9 12/27/2016 11:15:00 0.183
2016_12_27_S9 12/27/2016 11:20:00 0.5434
2016_12_27_S9 12/27/2016 11:25:00 0.488
2016_12_27_S9 12/27/2016 11:30:00 1.0419
2016_12_27_S9 12/27/2016 11:35:00 0.6416
2016_12_27_S9 12/27/2016 11:40:00 1.2581
2016_12_27_S9 12/27/2016 11:45:00 0.8144
2016_12_27_S9 12/27/2016 11:50:00 1.7252
2016_12_27_S9 12/27/2016 11:55:00 0.5478
2016_12_27_S9 12/27/2016 12:00:00 0.3751
2016_12_27_S9 12/27/2016 12:05:00 0.8991
2016_12_27_S9 12/27/2016 12:10:00 0.2207
2016_12_27_S9 12/27/2016 12:15:00 0.2656
2016_12_27_S9 12/27/2016 12:20:00 0.1032
2016_12_27_S9 12/27/2016 12:25:00 0.598
2016_12_27_S9 12/27/2016 12:30:00 0.1233
2016_12_27_S9 12/27/2016 12:35:00 0.0375
2016_12_27_S9 12/27/2016 12:40:00 0.0783
2016_12_27_S9 12/27/2016 12:45:00 0.0101
2016_12_27_S9 12/27/2016 12:50:00 0.0077
2016_12_27_S9 12/27/2016 12:55:00 0.0053
2016_12_27_S9 12/27/2016 13:00:00 0.1206
2016_12_27_S9 12/27/2016 13:05:00 0.0029
2016_12_27_S9 12/27/2016 13:10:00 0.0
2016_12_27_S9 12/27/2016 13:15:00 0.0
2016_12_27_S9 12/27/2016 13:20:00 0.0
2016_12_27_S9 12/27/2016 13:25:00 0.007
2016_12_27_S9 12/27/2016 13:30:00 0.2873
2016_12_27_S9 12/27/2016 13:35:00 0.1372
2016_12_27_S9 12/27/2016 13:40:00 0.3976
2016_12_27_S9 12/27/2016 13:45:00 0.2371
2016_12_27_S9 12/27/2016 13:50:00 0.0722
2016_12_27_S9 12/27/2016 13:55:00 0.0635
2016_12_27_S9 12/27/2016 14:00:00 0.0645
2016_12_27_S9 12/27/2016 14:05:00 0.0399
2016_12_27_S9 12/27/2016 14:10:00 0.0003
2016_12_27_S9 12/27/2016 14:15:00 0.0053
2016_12_27_S9 12/27/2016 14:20:00 0.0321
2016_12_27_S9 12/27/2016 14:25:00 0.0273
2016_12_27_S9 12/27/2016 14:30:00 0.0001
2016_12_27_S9 12/27/2016 14:35:00 0.0
2016_12_27_S9 12/27/2016 14:40:00 0.0
2016_12_27_S9 12/27/2016 14:45:00 0.0
2016_12_27_S9 12/27/2016 14:50:00 0.0
2016_12_27_S9 12/27/2016 14:55:00 0.0
2016_12_27_S9 12/27/2016 15:00:00 0.0
2016_12_27_S9 12/27/2016 15:05:00 0.0
2016_12_27_S9 12/27/2016 15:10:00 0.0
2016_12_27_S9 12/27/2016 15:15:00 0.0
2016_12_27_S9 12/27/2016 15:20:00 0.0006
2016_12_27_S9 12/27/2016 15:25:00 0.0
2016_12_27_S9 12/27/2016 15:30:00 0.0
2016_12_27_S9 12/27/2016 15:35:00 0.0
2016_12_27_S9 12/27/2016 15:40:00 0.0
2016_12_27_S9 12/27/2016 15:45:00 0.0
2016_12_27_S9 12/27/2016 15:50:00 0.0
2016_12_27_S9 12/27/2016 15:55:00 0.0
2016_12_27_S9 12/27/2016 16:00:00 0.0711
2016_12_27_S9 12/27/2016 16:05:00 0.0193
2016_12_27_S9 12/27/2016 16:10:00 0.0
2016_12_27_S9 12/27/2016 16:15:00 0.0056
2016_12_27_S9 12/27/2016 16:20:00 0.0
2016_12_27_S9 12/27/2016 16:25:00 0.0
2016_12_27_S9 12/27/2016 16:30:00 0.0
2016_12_27_S9 12/27/2016 16:35:00 0.0004
2016_12_27_S9 12/27/2016 16:40:00 0.0809
2016_12_27_S9 12/27/2016 16:45:00 0.0652
2016_12_27_S9 12/27/2016 16:50:00 0.0
2016_12_27_S9 12/27/2016 16:55:00 0.0
2016_12_27_S9 12/27/2016 17:00:00 0.0
2016_12_27_S9 12/27/2016 17:05:00 0.0
2016_12_27_S9 12/27/2016 17:10:00 0.0
2016_12_27_S9 12/27/2016 17:15:00 0.0
2016_12_27_S9 12/27/2016 17:20:00 0.0
2016_12_27_S9 12/27/2016 17:25:00 0.0
2016_12_27_S9 12/27/2016 17:30:00 0.0
2016_12_27_S9 12/27/2016 17:35:00 0.0
2016_12_27_S9 12/27/2016 17:40:00 0.0279
2016_12_27_S9 12/27/2016 17:45:00 0.1505
2016_12_27_S9 12/27/2016 17:50:00 0.0179
2016_12_27_S9 12/27/2016 17:55:00 0.0
2016_12_27_S9 12/27/2016 18:00:00 0.0
2016_12_27_S9 12/27/2016 18:05:00 0.0
2016_12_27_S9 12/27/2016 18:10:00 0.0
2016_12_27_S9 12/27/2016 18:15:00 0.0
2016_12_27_S9 12/27/2016 18:20:00 0.6318
2016_12_27_S9 12/27/2016 18:25:00 0.8395
2016_12_27_S9 12/27/2016 18:30:00 0.0204
2016_12_27_S9 12/27/2016 18:35:00 0.0547
2016_12_27_S9 12/27/2016 18:40:00 0.0265
2016_12_27_S9 12/27/2016 18:45:00 0.0
2016_12_27_S9 12/27/2016 18:50:00 0.0
2016_12_27_S9 12/27/2016 18:55:00 0.0
2016_12_27_S9 12/27/2016 19:00:00 0.0
2016_12_27_S9 12/27/2016 19:05:00 0.0
2016_12_27_S9 12/27/2016 19:10:00 0.0409
2016_12_27_S9 12/27/2016 19:15:00 0.0121
2016_12_27_S9 12/27/2016 19:20:00 0.0
2016_12_27_S9 12/27/2016 19:25:00 0.0
2016_12_27_S9 12/27/2016 19:30:00 0.0085
2016_12_27_S9 12/27/2016 19:35:00 0.1539
2016_12_27_S9 12/27/2016 19:40:00 0.1258
2016_12_27_S9 12/27/2016 19:45:00 0.1649
2016_12_27_S9 12/27/2016 19:50:00 1.0265
2016_12_27_S9 12/27/2016 19:55:00 0.4722
2016_12_27_S9 12/27/2016 20:00:00 0.0619
2016_12_27_S9 12/27/2016 20:05:00 0.0
2016_12_27_S9 12/27/2016 20:10:00 0.0
2016_12_27_S9 12/27/2016 20:15:00 0.0
2016_12_27_S9 12/27/2016 20:20:00 0.0009
2016_12_27_S9 12/27/2016 20:25:00 0.0079
2016_12_27_S9 12/27/2016 20:30:00 0.0134
2016_12_27_S9 12/27/2016 20:35:00 0.0068
2016_12_27_S9 12/27/2016 20:40:00 0.0
2016_12_27_S9 12/27/2016 20:45:00 0.0
2016_12_27_S9 12/27/2016 20:50:00 0.0
2016_12_27_S9 12/27/2016 20:55:00 0.0
2016_12_27_S9 12/27/2016 21:00:00 0.0
2016_12_27_S9 12/27/2016 21:05:00 0.0
2016_12_27_S9 12/27/2016 21:10:00 0.0
2016_12_27_S9 12/27/2016 21:15:00 0.0
2016_12_27_S9 12/27/2016 21:20:00 0.0
2016_12_27_S9 12/27/2016 21:25:00 0.0
2016_12_27_S9 12/27/2016 21:30:00 0.0
2016_12_27_S9 12/27/2016 21:35:00 0.0
2016_12_27_S9 12/27/2016 21:40:00 0.0
2016_12_27_S9 12/27/2016 21:45:00 0.0
2016_12_27_S9 12/27/2016 21:50:00 0.0
2016_12_27_S9 12/27/2016 21:55:00 0.0
2016_12_27_S9 12/27/2016 22:00:00 0.0
2016_12_27_S9 12/27/2016 22:05:00 0.0
2016_12_27_S9 12/27/2016 22:10:00 0.0
2016_12_27_S9 12/27/2016 22:15:00 0.0
2016_12_27_S9 12/27/2016 22:20:00 0.0
2016_12_27_S9 12/27/2016 22:25:00 0.0151
2016_12_27_S9 12/27/2016 22:30:00 0.1333
2016_12_27_S9 12/27/2016 22:35:00 0.2235
2016_12_27_S9 12/27/2016 22:40:00 0.0
2016_12_27_S9 12/27/2016 22:45:00 0.0
2016_12_27_S9 12/27/2016 22:50:00 0.0029
2016_12_27_S9 12/27/2016 22:55:00 0.0033
2016_12_27_S9 12/27/2016 23:00:00 0.0058
2016_12_27_S9 12/27/2016 23:05:00 0.047
2016_12_27_S9 12/27/2016 23:10:00 0.0079
2016_12_27_S9 12/27/2016 23:15:00 0.0018
2016_12_27_S9 12/27/2016 23:20:00 0.001
2016_12_27_S9 12/27/2016 23:25:00 0.0046
2016_12_27_S9 12/27/2016 23:30:00 0.0
2016_12_27_S9 12/27/2016 23:35:00 0.0001
2016_12_27_S9 12/27/2016 23:40:00 0.0003
2016_12_27_S9 12/27/2016 23:45:00 0.0
2016_12_27_S9 12/27/2016 23:50:00 0.0
2016_12_27_S9 12/27/2016 23:55:00 0.0
2016_12_27_S9 12/28/2016 00:00:00 0.0
2016_12_27_S9 12/28/2016 00:05:00 0.0
2016_12_27_S9 12/28/2016 00:10:00 0.0
2016_12_27_S9 12/28/2016 00:15:00 0.0
2016_12_27_S9 12/28/2016 00:20:00 0.0
2016_12_27_S9 12/28/2016 00:25:00 0.0
2016_12_27_S9 12/28/2016 00:30:00 0.0
2016_12_27_S9 12/28/2016 00:35:00 0.0
2016_12_27_S9 12/28/2016 00:40:00 0.0
2016_12_27_S9 12/28/2016 00:45:00 0.0
2016_12_27_S9 12/28/2016 00:50:00 0.0
2016_12_27_S9 12/28/2016 00:55:00 0.0
2016_12_27_S9 12/28/2016 01:00:00 0.0
2016_12_27_S9 12/28/2016 01:05:00 0.0
2016_12_27_S9 12/28/2016 01:10:00 0.0
2016_12_27_S9 12/28/2016 01:15:00 0.0
2016_12_27_S9 12/28/2016 01:20:00 0.0
2016_12_27_S9 12/28/2016 01:25:00 0.0
2016_12_27_S9 12/28/2016 01:30:00 0.0
2016_12_27_S9 12/28/2016 01:35:00 0.0
2016_12_27_S9 12/28/2016 01:40:00 0.0
2016_12_27_S9 12/28/2016 01:45:00 0.0
2016_12_27_S9 12/28/2016 01:50:00 0.0
2016_12_27_S9 12/28/2016 01:55:00 0.0
2016_12_27_S9 12/28/2016 02:00:00 0.0
2016_12_27_S9 12/28/2016 02:05:00 0.0
2016_12_27_S9 12/28/2016 02:10:00 0.0
2016_12_27_S9 12/28/2016 02:15:00 0.0
2016_12_27_S9 12/28/2016 02:20:00 0.0
2016_12_27_S9 12/28/2016 02:25:00 0.0
2016_12_27_S9 12/28/2016 02:30:00 0.0
2016_12_27_S9 12/28/2016 02:35:00 0.0
2016_12_27_S9 12/28/2016 02:40:00 0.0
2016_12_27_S9 12/28/2016 02:45:00 0.0
2016_12_27_S9 12/28/2016 02:50:00 0.0
2016_12_27_S9 12/28/2016 02:55:00 0.0
2016_12_27_S9 12/28/2016 03:00:00 0.0
2016_12_27_S9 12/28/2016 03:05:00 0.0
2016_12_27_S9 12/28/2016 03:10:00 0.0
2016_12_27_S9 12/28/2016 03:15:00 0.0
2016_12_27_S9 12/28/2016 03:20:00 0.0
2016_12_27_S9 12/28/2016 03:25:00 0.0
2016_12_27_S9 12/28/2016 03:30:00 0.0
2016_12_27_S9 12/28/2016 03:35:00 0.0
2016_12_27_S9 12/28/2016 03:40:00 0.0
2016_12_27_S9 12/28/2016 03:45:00 0.0
2016_12_27_S9 12/28/2016 03:50:00 0.0
2016_12_27_S9 12/28/2016 03:55:00 0.0
2016_12_27_S9 12/28/2016 04:00:00 0.0
2016_12_27_S9 12/28/2016 04:05:00 0.0
2016_12_27_S9 12/28/2016 04:10:00 0.0
2016_12_27_S9 12/28/2016 04:15:00 0.0
2016_12_27_S9 12/28/2016 04:20:00 0.0
2016_12_27_S9 12/28/2016 04:25:00 0.0
2016_12_27_S9 12/28/2016 04:30:00 0.0
2016_12_27_S9 12/28/2016 04:35:00 0.0
2016_12_27_S9 12/28/2016 04:40:00 0.0
2016_12_27_S9 12/28/2016 04:45:00 0.0
2016_12_27_S9 12/28/2016 04:50:00 0.0
2016_12_27_S9 12/28/2016 04:55:00 0.0
2016_12_27_S9 12/28/2016 05:00:00 0.0
2016_12_27_S9 12/28/2016 05:05:00 0.0
2016_12_27_S9 12/28/2016 05:10:00 0.0
2016_12_27_S9 12/28/2016 05:15:00 0.0
2016_12_27_S9 12/28/2016 05:20:00 0.0
2016_12_27_S9 12/28/2016 05:25:00 0.0
2016_12_27_S9 12/28/2016 05:30:00 0.0
2016_12_27_S9 12/28/2016 05:35:00 0.0
2016_12_27_S9 12/28/2016 05:40:00 0.0
2016_12_27_S9 12/28/2016 05:45:00 0.0
2016_12_27_S9 12/28/2016 05:50:00 0.0
2016_12_27_S9 12/28/2016 05:55:00 0.0
2016_12_27_S9 12/28/2016 06:00:00 0.0
2016_12_27_S9 12/28/2016 06:05:00 0.0
2016_12_27_S9 12/28/2016 06:10:00 0.0
2016_12_27_S9 12/28/2016 06:15:00 0.0
2016_12_27_S9 12/28/2016 06:20:00 0.0
2016_12_27_S9 12/28/2016 06:25:00 0.0
2016_12_27_S9 12/28/2016 06:30:00 0.0
2016_12_27_S9 12/28/2016 06:35:00 0.0
2016_12_27_S9 12/28/2016 06:40:00 0.0
2016_12_27_S9 12/28/2016 06:45:00 0.0
2016_12_27_S9 12/28/2016 06:50:00 0.0
2016_12_27_S9 12/28/2016 06:55:00 0.0
2016_12_27_S9 12/28/2016 07:00:00 0.0
2016_12_27_S9 12/28/2016 07:05:00 0.0
2016_12_27_S9 12/28/2016 07:10:00 0.0
2016_12_27_S9 12/28/2016 07:15:00 0.0
2016_12_27_S9 12/28/2016 07:20:00 0.0
2016_12_27_S9 12/28/2016 07:25:00 0.0
2016_12_27_S9 12/28/2016 07:30:00 0.0
2016_12_27_S9 12/28/2016 07:35:00 0.0
2016_12_27_S9 12/28/2016 07:40:00 0.0
2016_12_27_S9 12/28/2016 07:45:00 0.0
2016_12_27_S9 12/28/2016 07:50:00 0.0
2016_12_27_S9 12/28/2016 07:55:00 0.0
2016_12_27_S9 12/28/2016 08:00:00 0.0

2016_12_27_S10 12/26/2016 08:00:00 0.0
2016_12_27_S10 12/26/2016 08:05:00 0.0
2016_12_27_S10 12/26/2016 08:10:00 0.0
2016_12_27_S10 12/26/2016 08:15:00 0.0
2016_12_27_S10 12/26/2016 08:20:00 0.0
2016_12_27_S10 12/26/2016 08:25:00 0.0
2016_12_27_S10 12/26/2016 08:30:00 0.0
2016_12_27_S10 12/26/2016 08:35:00 0.0
2016_12_27_S10 12/26/2016 08:40:00 0.0
2016_12_27_S10 12/26/2016 08:45:00 0.0
2016_12_27_S10 12/26/2016 08:50:00 0.0
2016_12_27_S10 12/26/2016 08:55:00 0.0
2016_12_27_S10 12/26/2016 09:00:00 0.0
2016_12_27_S10 12/26/2016 09:05:00 0.007
2016_12_27_S10 12/26/2016 09:10:00 0.0471
2016_12_27_S10 12/26/2016 09:15:00 0.0602
2016_12_27_S10 12/26/2016 09:20:00 0.0103
2016_12_27_S10 12/26/2016 09:25:00 0.0
2016_12_27_S10 12/26/2016 09:30:00 0.0
2016_12_27_S10 12/26/2016 09:35:00 0.0
2016_12_27_S10 12/26/2016 09:40:00 0.0
2016_12_27_S10 12/26/2016 09:45:00 0.0
2016_12_27_S10 12/26/2016 09:50:00 0.0
2016_12_27_S10 12/26/2016 09:55:00 0.0
2016_12_27_S10 12/26/2016 10:00:00 0.0
2016_12_27_S10 12/26/2016 10:05:00 0.0
2016_12_27_S10 12/26/2016 10:10:00 0.0
2016_12_27_S10 12/26/2016 10:15:00 0.0
2016_12_27_S10 12/26/2016 10:20:00 0.0
2016_12_27_S10 12/26/2016 10:25:00 0.0
2016_12_27_S10 12/26/2016 10:30:00 0.0
2016_12_27_S10 12/26/2016 10:35:00 0.0
2016_12_27_S10 12/26/2016 10:40:00 0.0
2016_12_27_S10 12/26/2016 10:45:00 0.0
2016_12_27_S10 12/26/2016 10:50:00 0.0007
2016_12_27_S10 12/26/2016 10:55:00 0.0005
2016_12_27_S10 12/26/2016 11:00:00 0.0
2016_12_27_S10 12/26/2016 11:05:00 0.0
2016_12_27_S10 12/26/2016 11:10:00 0.0
2016_12_27_S10 12/26/2016 11:15:00 0.0
2016_12_27_S10 12/26/2016 11:20:00 0.0
2016_12_27_S10 12/26/2016 11:25:00 0.0
2016_12_27_S10 12/26/2016 11:30:00 0.0
2016_12_27_S10 12/26/2016 11:35:00 0.0
2016_12_27_S10 12/26/2016 11:40:00 0.0
2016_12_27_S10 12/26/2016 11:45:00 0.0
2016_12_27_S10 12/26/2016 11:50:00 0.0038
2016_12_27_S10 12/26/2016 11:55:00 0.0034
2016_12_27_S10 12/26/2016 12:00:00 0.0404
2016_12_27_S10 12/26/2016 12:05:00 0.1348
2016_12_27_S10 12/26/2016 12:10:00 0.0252
2016_12_27_S10 12/26/2016 12:15:00 0.0
2016_12_27_S10 12/26/2016 12:20:00 0.0
2016_12_27_S10 12/26/2016 12:25:00 0.0
2016_12_27_S10 12/26/2016 12:30:00 0.0007
2016_12_27_S10 12/26/2016 12:35:00 0.0198
2016_12_27_S10 12/26/2016 12:40:00 0.0246
2016_12_27_S10 12/26/2016 12:45:00 0.0074
2016_12_27_S10 12/26/2016 12:50:00 0.0
2016_12_27_S10 12/26/2016 12:55:00 0.0
2016_12_27_S10 12/26/2016 13:00:00 0.0
2016_12_27_S10 12/26/2016 13:05:00 0.0
2016_12_27_S10 12/26/2016 13:10:00 0.0
2016_12_27_S10 12/26/2016 13:15:00 0.0
2016_12_27_S10 12/26/2016 13:20:00 0.0
2016_12_27_S10 12/26/2016 13:25:00 0.0
2016_12_27_S10 12/26/2016 13:30:00 0.0
2016_12_27_S10 12/26/2016 13:35:00 0.0
2016_12_27_S10 12/26/2016 13:40:00 0.0
2016_12_27_S10 12/26/2016 13:45:00 0.0
2016_12_27_S10 12/26/2016 13:50:00 0.0
2016_12_27_S10 12/26/2016 13:55:00 0.0
2016_12_27_S10 12/26/2016 14:00:00 0.0
2016_12_27_S10 12/26/2016 14:05:00 0.0
2016_12_27_S10 12/26/2016 14:10:00 0.0
2016_12_27_S10 12/26/2016 14:15:00 0.0
2016_12_27_S10 12/26/2016 14:20:00 0.0
2016_12_27_S10 12/26/2016 14:25:00 0.0
2016_12_27_S10 12/26/2016 14:30:00 0.0
2016_12_27_S10 12/26/2016 14:35:00 0.0
2016_12_27_S10 12/26/2016 14:40:00 0.0
2016_12_27_S10 12/26/2016 14:45:00 0.0
2016_12_27_S10 12/26/2016 14:50:00 0.0
2016_12_27_S10 12/26/2016 14:55:00 0.0
2016_12_27_S10 12/26/2016 15:00:00 0.0
2016_12_27_S10 12/26/2016 15:05:00 0.0
2016_12_27_S10 12/26/2016 15:10:00 0.0
2016_12_27_S10 12/26/2016 15:15:00 0.0
2016_12_27_S10 12/26/2016 15:20:00 0.0
2016_12_27_S10 12/26/2016 15:25:00 0.0
2016_12_27_S10 12/26/2016 15:30:00 0.0
2016_12_27_S10 12/26/2016 15:35:00 0.0
2016_12_27_S10 12/26/2016 15:40:00 0.0
2016_12_27_S10 12/26/2016 15:45:00 0.0
2016_12_27_S10 12/26/2016 15:50:00 0.0
2016_12_27_S10 12/26/2016 15:55:00 0.0
2016_12_27_S10 12/26/2016 16:00:00 0.0
2016_12_27_S10 12/26/2016 16:05:00 0.0
2016_12_27_S10 12/26/2016 16:10:00 0.0
2016_12_27_S10 12/26/2016 16:15:00 0.0
2016_12_27_S10 12/26/2016 16:20:00 0.0
2016_12_27_S10 12/26/2016 16:25:00 0.0
2016_12_27_S10 12/26/2016 16:30:00 0.0
2016_12_27_S10 12/26/2016 16:35:00 0.0
2016_12_27_S10 12/26/2016 16:40:00 0.0
2016_12_27_S10 12/26/2016 16:45:00 0.0
2016_12_27_S10 12/26/2016 16:50:00 0.0
2016_12_27_S10 12/26/2016 16:55:00 0.0
2016_12_27_S10 12/26/2016 17:00:00 0.0
2016_12_27_S10 12/26/2016 17:05:00 0.0
2016_12_27_S10 12/26/2016 17:10:00 0.0
2016_12_27_S10 12/26/2016 17:15:00 0.0
2016_12_27_S10 12/26/2016 17:20:00 0.0
2016_12_27_S10 12/26/2016 17:25:00 0.0
2016_12_27_S10 12/26/2016 17:30:00 0.0
2016_12_27_S10 12/26/2016 17:35:00 0.0
2016_12_27_S10 12/26/2016 17:40:00 0.0
2016_12_27_S10 12/26/2016 17:45:00 0.0
2016_12_27_S10 12/26/2016 17:50:00 0.0
2016_12_27_S10 12/26/2016 17:55:00 0.0
2016_12_27_S10 12/26/2016 18:00:00 0.0
2016_12_27_S10 12/26/2016 18:05:00 0.0
2016_12_27_S10 12/26/2016 18:10:00 0.0
2016_12_27_S10 12/26/2016 18:15:00 0.0
2016_12_27_S10 12/26/2016 18:20:00 0.0
2016_12_27_S10 12/26/2016 18:25:00 0.0
2016_12_27_S10 12/26/2016 18:30:00 0.0
2016_12_27_S10 12/26/2016 18:35:00 0.0
2016_12_27_S10 12/26/2016 18:40:00 0.0
2016_12_27_S10 12/26/2016 18:45:00 0.0
2016_12_27_S10 12/26/2016 18:50:00 0.0
2016_12_27_S10 12/26/2016 18:55:00 0.0
2016_12_27_S10 12/26/2016 19:00:00 0.0
2016_12_27_S10 12/26/2016 19:05:00 0.0
2016_12_27_S10 12/26/2016 19:10:00 0.0
2016_12_27_S10 12/26/2016 19:15:00 0.0
2016_12_27_S10 12/26/2016 19:20:00 0.0
2016_12_27_S10 12/26/2016 19:25:00 0.0
2016_12_27_S10 12/26/2016 19:30:00 0.0
2016_12_27_S10 12/26/2016 19:35:00 0.0
2016_12_27_S10 12/26/2016 19:40:00 0.0
2016_12_27_S10 12/26/2016 19:45:00 0.0
2016_12_27_S10 12/26/2016 19:50:00 0.0
2016_12_27_S10 12/26/2016 19:55:00 0.0
2016_12_27_S10 12/26/2016 20:00:00 0.0
2016_12_27_S10 12/26/2016 20:05:00 0.0
2016_12_27_S10 12/26/2016 20:10:00 0.0
2016_12_27_S10 12/26/2016 20:15:00 0.0
2016_12_27_S10 12/26/2016 20:20:00 0.0
2016_12_27_S10 12/26/2016 20:25:00 0.0
2016_12_27_S10 12/26/2016 20:30:00 0.0
2016_12_27_S10 12/26/2016 20:35:00 0.0
2016_12_27_S10 12/26/2016 20:40:00 0.0
2016_12_27_S10 12/26/2016 20:45:00 0.0
2016_12_27_S10 12/26/2016 20:50:00 0.0
2016_12_27_S10 12/26/2016 20:55:00 0.0
2016_12_27_S10 12/26/2016 21:00:00 0.0
2016_12_27_S10 12/26/2016 21:05:00 0.0
2016_12_27_S10 12/26/2016 21:10:00 0.0
2016_12_27_S10 12/26/2016 21:15:00 0.0
2016_12_27_S10 12/26/2016 21:20:00 0.0
2016_12_27_S10 12/26/2016 21:25:00 0.0
2016_12_27_S10 12/26/2016 21:30:00 0.0
2016_12_27_S10 12/26/2016 21:35:00 0.0
2016_12_27_S10 12/26/2016 21:40:00 0.0
2016_12_27_S10 12/26/2016 21:45:00 0.0
2016_12_27_S10 12/26/2016 21:50:00 0.0
2016_12_27_S10 12/26/2016 21:55:00 0.0
2016_12_27_S10 12/26/2016 22:00:00 0.0
2016_12_27_S10 12/26/2016 22:05:00 0.0
2016_12_27_S10 12/26/2016 22:10:00 0.0
2016_12_27_S10 12/26/2016 22:15:00 0.0
2016_12_27_S10 12/26/2016 22:20:00 0.0
2016_12_27_S10 12/26/2016 22:25:00 0.0
2016_12_27_S10 12/26/2016 22:30:00 0.0
2016_12_27_S10 12/26/2016 22:35:00 0.0
2016_12_27_S10 12/26/2016 22:40:00 0.0
2016_12_27_S10 12/26/2016 22:45:00 0.0
2016_12_27_S10 12/26/2016 22:50:00 0.0
2016_12_27_S10 12/26/2016 22:55:00 0.0
2016_12_27_S10 12/26/2016 23:00:00 0.0
2016_12_27_S10 12/26/2016 23:05:00 0.0
2016_12_27_S10 12/26/2016 23:10:00 0.0
2016_12_27_S10 12/26/2016 23:15:00 0.0
2016_12_27_S10 12/26/2016 23:20:00 0.0
2016_12_27_S10 12/26/2016 23:25:00 0.0
2016_12_27_S10 12/26/2016 23:30:00 0.0
2016_12_27_S10 12/26/2016 23:35:00 0.0
2016_12_27_S10 12/26/2016 23:40:00 0.0
2016_12_27_S10 12/26/2016 23:45:00 0.0
2016_12_27_S10 12/26/2016 23:50:00 0.0
2016_12_27_S10 12/26/2016 23:55:00 0.0
2016_12_27_S10 12/27/2016 00:00:00 0.0
2016_12_27_S10 12/27/2016 00:05:00 0.0
2016_12_27_S10 12/27/2016 00:10:00 0.0
2016_12_27_S10 12/27/2016 00:15:00 0.0
2016_12_27_S10 12/27/2016 00:20:00 0.0
2016_12_27_S10 12/27/2016 00:25:00 0.0
2016_12_27_S10 12/27/2016 00:30:00 0.0
2016_12_27_S10 12/27/2016 00:35:00 0.0
2016_12_27_S10 12/27/2016 00:40:00 0.0
2016_12_27_S10 12/27/2016 00:45:00 0.0
2016_12_27_S10 12/27/2016 00:50:00 0.0
2016_12_27_S10 12/27/2016 00:55:00 0.0
2016_12_27_S10 12/27/2016 01:00:00 0.0
2016_12_27_S10 12/27/2016 01:05:00 0.0
2016_12_27_S10 12/27/2016 01:10:00 0.0123
2016_12_27_S10 12/27/2016 01:15:00 0.0
2016_12_27_S10 12/27/2016 01:20:00 0.0144
2016_12_27_S10 12/27/2016 01:25:00 0.1128
2016_12_27_S10 12/27/2016 01:30:00 0.3345
2016_12_27_S10 12/27/2016 01:35:00 0.3312
2016_12_27_S10 12/27/2016 01:40:00 0.707
2016_12_27_S10 12/27/2016 01:45:00 2.8053
2016_12_27_S10 12/27/2016 01:50:00 0.4964
2016_12_27_S10 12/27/2016 01:55:00 0.1898
2016_12_27_S10 12/27/2016 02:00:00 0.0043
2016_12_27_S10 12/27/2016 02:05:00 0.0118
2016_12_27_S10 12/27/2016 02:10:00 0.0851
2016_12_27_S10 12/27/2016 02:15:00 0.2404
2016_12_27_S10 12/27/2016 02:20:00 0.0726
2016_12_27_S10 12/27/2016 02:25:00 0.3153
2016_12_27_S10 12/27/2016 02:30:00 0.079
2016_12_27_S10 12/27/2016 02:35:00 0.1856
2016_12_27_S10 12/27/2016 02:40:00 0.3331
2016_12_27_S10 12/27/2016 02:45:00 0.1672
2016_12_27_S10 12/27/2016 02:50:00 0.3655
2016_12_27_S10 12/27/2016 02:55:00 0.3173
2016_12_27_S10 12/27/2016 03:00:00 0.5669
2016_12_27_S10 12/27/2016 03:05:00 0.3031
2016_12_27_S10 12/27/2016 03:10:00 0.3511
2016_12_27_S10 12/27/2016 03:15:00 0.6896
2016_12_27_S10 12/27/2016 03:20:00 0.6469
2016_12_27_S10 12/27/2016 03:25:00 0.3384
2016_12_27_S10 12/27/2016 03:30:00 1.1767
2016_12_27_S10 12/27/2016 03:35:00 0.5479
2016_12_27_S10 12/27/2016 03:40:00 0.2319
2016_12_27_S10 12/27/2016 03:45:00 0.1167
2016_12_27_S10 12/27/2016 03:50:00 0.1988
2016_12_27_S10 12/27/2016 03:55:00 0.368
2016_12_27_S10 12/27/2016 04:00:00 0.1162
2016_12_27_S10 12/27/2016 04:05:00 0.0755
2016_12_27_S10 12/27/2016 04:10:00 0.2341
2016_12_27_S10 12/27/2016 04:15:00 0.0989
2016_12_27_S10 12/27/2016 04:20:00 0.0251
2016_12_27_S10 12/27/2016 04:25:00 0.2777
2016_12_27_S10 12/27/2016 04:30:00 0.0452
2016_12_27_S10 12/27/2016 04:35:00 0.046
2016_12_27_S10 12/27/2016 04:40:00 0.0348
2016_12_27_S10 12/27/2016 04:45:00 0.0643
2016_12_27_S10 12/27/2016 04:50:00 0.2572
2016_12_27_S10 12/27/2016 04:55:00 0.4424
2016_12_27_S10 12/27/2016 05:00:00 0.4703
2016_12_27_S10 12/27/2016 05:05:00 0.0894
2016_12_27_S10 12/27/2016 05:10:00 0.2116
2016_12_27_S10 12/27/2016 05:15:00 0.2482
2016_12_27_S10 12/27/2016 05:20:00 0.2513
2016_12_27_S10 12/27/2016 05:25:00 0.0054
2016_12_27_S10 12/27/2016 05:30:00 0.0
2016_12_27_S10 12/27/2016 05:35:00 0.0
2016_12_27_S10 12/27/2016 05:40:00 0.0
2016_12_27_S10 12/27/2016 05:45:00 0.0
2016_12_27_S10 12/27/2016 05:50:00 0.0
2016_12_27_S10 12/27/2016 05:55:00 0.0
2016_12_27_S10 12/27/2016 06:00:00 0.0
2016_12_27_S10 12/27/2016 06:05:00 0.0
2016_12_27_S10 12/27/2016 06:10:00 0.0
2016_12_27_S10 12/27/2016 06:15:00 0.0
2016_12_27_S10 12/27/2016 06:20:00 0.0
2016_12_27_S10 12/27/2016 06:25:00 0.0
2016_12_27_S10 12/27/2016 06:30:00 0.0
2016_12_27_S10 12/27/2016 06:35:00 0.0
2016_12_27_S10 12/27/2016 06:40:00 0.0134
2016_12_27_S10 12/27/2016 06:45:00 0.0147
2016_12_27_S10 12/27/2016 06:50:00 0.0172
2016_12_27_S10 12/27/2016 06:55:00 0.1769
2016_12_27_S10 12/27/2016 07:00:00 0.0863
2016_12_27_S10 12/27/2016 07:05:00 0.0558
2016_12_27_S10 12/27/2016 07:10:00 0.5801
2016_12_27_S10 12/27/2016 07:15:00 1.4716
2016_12_27_S10 12/27/2016 07:20:00 1.2261
2016_12_27_S10 12/27/2016 07:25:00 0.4709
2016_12_27_S10 12/27/2016 07:30:00 0.2968
2016_12_27_S10 12/27/2016 07:35:00 0.1421
2016_12_27_S10 12/27/2016 07:40:00 0.1579
2016_12_27_S10 12/27/2016 07:45:00 0.3744
2016_12_27_S10 12/27/2016 07:50:00 0.8944
2016_12_27_S10 12/27/2016 07:55:00 0.9813
2016_12_27_S10 12/27/2016 08:00:00 0.5257
2016_12_27_S10 12/27/2016 08:05:00 0.717
2016_12_27_S10 12/27/2016 08:10:00 0.7273
2016_12_27_S10 12/27/2016 08:15:00 0.4971
2016_12_27_S10 12/27/2016 08:20:00 0.8122
2016_12_27_S10 12/27/2016 08:25:00 0.0153
2016_12_27_S10 12/27/2016 08:30:00 0.0102
2016_12_27_S10 12/27/2016 08:35:00 0.0553
2016_12_27_S10 12/27/2016 08:40:00 0.8499
2016_12_27_S10 12/27/2016 08:45:00 0.9139
2016_12_27_S10 12/27/2016 08:50:00 0.6025
2016_12_27_S10 12/27/2016 08:55:00 0.2696
2016_12_27_S10 12/27/2016 09:00:00 1.7919
2016_12_27_S10 12/27/2016 09:05:00 0.1868
2016_12_27_S10 12/27/2016 09:10:00 0.1486
2016_12_27_S10 12/27/2016 09:15:00 1.5937
2016_12_27_S10 12/27/2016 09:20:00 1.6518
2016_12_27_S10 12/27/2016 09:25:00 0.6411
2016_12_27_S10 12/27/2016 09:30:00 0.2724
2016_12_27_S10 12/27/2016 09:35:00 0.5725
2016_12_27_S10 12/27/2016 09:40:00 0.4274
2016_12_27_S10 12/27/2016 09:45:00 0.5509
2016_12_27_S10 12/27/2016 09:50:00 0.0072
2016_12_27_S10 12/27/2016 09:55:00 0.0008
2016_12_27_S10 12/27/2016 10:00:00 0.0962
2016_12_27_S10 12/27/2016 10:05:00 0.8513
2016_12_27_S10 12/27/2016 10:10:00 0.2694
2016_12_27_S10 12/27/2016 10:15:00 0.136
2016_12_27_S10 12/27/2016 10:20:00 0.0404
2016_12_27_S10 12/27/2016 10:25:00 0.0643
2016_12_27_S10 12/27/2016 10:30:00 0.006
2016_12_27_S10 12/27/2016 10:35:00 0.1545
2016_12_27_S10 12/27/2016 10:40:00 0.0
2016_12_27_S10 12/27/2016 10:45:00 1.5671
2016_12_27_S10 12/27/2016 10:50:00 0.4675
2016_12_27_S10 12/27/2016 10:55:00 0.2218
2016_12_27_S10 12/27/2016 11:00:00 0.3607
2016_12_27_S10 12/27/2016 11:05:00 0.1837
2016_12_27_S10 12/27/2016 11:10:00 0.0708
2016_12_27_S10 12/27/2016 11:15:00 0.147
2016_12_27_S10 12/27/2016 11:20:00 0.4908
2016_12_27_S10 12/27/2016 11:25:00 0.445
2016_12_27_S10 12/27/2016 11:30:00 1.0761
2016_12_27_S10 12/27/2016 11:35:00 0.5605
2016_12_27_S10 12/27/2016 11:40:00 1.1569
2016_12_27_S10 12/27/2016 11:45:00 0.9214
2016_12_27_S10 12/27/2016 11:50:00 2.0307
2016_12_27_S10 12/27/2016 11:55:00 0.5476
2016_12_27_S10 12/27/2016 12:00:00 0.2794
2016_12_27_S10 12/27/2016 12:05:00 0.8138
2016_12_27_S10 12/27/2016 12:10:00 0.2299
2016_12_27_S10 12/27/2016 12:15:00 0.2198
2016_12_27_S10 12/27/2016 12:20:00 0.1637
2016_12_27_S10 12/27/2016 12:25:00 0.4789
2016_12_27_S10 12/27/2016 12:30:00 0.0869
2016_12_27_S10 12/27/2016 12:35:00 0.0393
2016_12_27_S10 12/27/2016 12:40:00 0.0491
2016_12_27_S10 12/27/2016 12:45:00 0.0111
2016_12_27_S10 12/27/2016 12:50:00 0.011
2016_12_27_S10 12/27/2016 12:55:00 0.0052
2016_12_27_S10 12/27/2016 13:00:00 0.0602
2016_12_27_S10 12/27/2016 13:05:00 0.0001
2016_12_27_S10 12/27/2016 13:10:00 0.0
2016_12_27_S10 12/27/2016 13:15:00 0.0
2016_12_27_S10 12/27/2016 13:20:00 0.0
2016_12_27_S10 12/27/2016 13:25:00 0.0088
2016_12_27_S10 12/27/2016 13:30:00 0.3539
2016_12_27_S10 12/27/2016 13:35:00 0.157
2016_12_27_S10 12/27/2016 13:40:00 0.4906
2016_12_27_S10 12/27/2016 13:45:00 0.1773
2016_12_27_S10 12/27/2016 13:50:00 0.0784
2016_12_27_S10 12/27/2016 13:55:00 0.1033
2016_12_27_S10 12/27/2016 14:00:00 0.079
2016_12_27_S10 12/27/2016 14:05:00 0.0378
2016_12_27_S10 12/27/2016 14:10:00 0.0006
2016_12_27_S10 12/27/2016 14:15:00 0.0029
2016_12_27_S10 12/27/2016 14:20:00 0.0267
2016_12_27_S10 12/27/2016 14:25:00 0.0183
2016_12_27_S10 12/27/2016 14:30:00 0.0001
2016_12_27_S10 12/27/2016 14:35:00 0.0
2016_12_27_S10 12/27/2016 14:40:00 0.0
2016_12_27_S10 12/27/2016 14:45:00 0.0
2016_12_27_S10 12/27/2016 14:50:00 0.0
2016_12_27_S10 12/27/2016 14:55:00 0.0
2016_12_27_S10 12/27/2016 15:00:00 0.0
2016_12_27_S10 12/27/2016 15:05:00 0.0
2016_12_27_S10 12/27/2016 15:10:00 0.0
2016_12_27_S10 12/27/2016 15:15:00 0.0
2016_12_27_S10 12/27/2016 15:20:00 0.0032
2016_12_27_S10 12/27/2016 15:25:00 0.0
2016_12_27_S10 12/27/2016 15:30:00 0.0
2016_12_27_S10 12/27/2016 15:35:00 0.0
2016_12_27_S10 12/27/2016 15:40:00 0.0
2016_12_27_S10 12/27/2016 15:45:00 0.0
2016_12_27_S10 12/27/2016 15:50:00 0.0
2016_12_27_S10 12/27/2016 15:55:00 0.0
2016_12_27_S10 12/27/2016 16:00:00 0.043
2016_12_27_S10 12/27/2016 16:05:00 0.0073
2016_12_27_S10 12/27/2016 16:10:00 0.0
2016_12_27_S10 12/27/2016 16:15:00 0.0068
2016_12_27_S10 12/27/2016 16:20:00 0.0
2016_12_27_S10 12/27/2016 16:25:00 0.0
2016_12_27_S10 12/27/2016 16:30:00 0.0
2016_12_27_S10 12/27/2016 16:35:00 0.0007
2016_12_27_S10 12/27/2016 16:40:00 0.0429
2016_12_27_S10 12/27/2016 16:45:00 0.0761
2016_12_27_S10 12/27/2016 16:50:00 0.0
2016_12_27_S10 12/27/2016 16:55:00 0.0
2016_12_27_S10 12/27/2016 17:00:00 0.0
2016_12_27_S10 12/27/2016 17:05:00 0.0
2016_12_27_S10 12/27/2016 17:10:00 0.0
2016_12_27_S10 12/27/2016 17:15:00 0.0
2016_12_27_S10 12/27/2016 17:20:00 0.0
2016_12_27_S10 12/27/2016 17:25:00 0.0
2016_12_27_S10 12/27/2016 17:30:00 0.0
2016_12_27_S10 12/27/2016 17:35:00 0.0
2016_12_27_S10 12/27/2016 17:40:00 0.0531
2016_12_27_S10 12/27/2016 17:45:00 0.1984
2016_12_27_S10 12/27/2016 17:50:00 0.0176
2016_12_27_S10 12/27/2016 17:55:00 0.0
2016_12_27_S10 12/27/2016 18:00:00 0.0
2016_12_27_S10 12/27/2016 18:05:00 0.0
2016_12_27_S10 12/27/2016 18:10:00 0.0
2016_12_27_S10 12/27/2016 18:15:00 0.0
2016_12_27_S10 12/27/2016 18:20:00 0.3828
2016_12_27_S10 12/27/2016 18:25:00 0.5325
2016_12_27_S10 12/27/2016 18:30:00 0.0167
2016_12_27_S10 12/27/2016 18:35:00 0.1051
2016_12_27_S10 12/27/2016 18:40:00 0.0078
2016_12_27_S10 12/27/2016 18:45:00 0.0
2016_12_27_S10 12/27/2016 18:50:00 0.0
2016_12_27_S10 12/27/2016 18:55:00 0.0
2016_12_27_S10 12/27/2016 19:00:00 0.0
2016_12_27_S10 12/27/2016 19:05:00 0.0
2016_12_27_S10 12/27/2016 19:10:00 0.0091
2016_12_27_S10 12/27/2016 19:15:00 0.0007
2016_12_27_S10 12/27/2016 19:20:00 0.0
2016_12_27_S10 12/27/2016 19:25:00 0.0
2016_12_27_S10 12/27/2016 19:30:00 0.0017
2016_12_27_S10 12/27/2016 19:35:00 0.0928
2016_12_27_S10 12/27/2016 19:40:00 0.0689
2016_12_27_S10 12/27/2016 19:45:00 0.2786
2016_12_27_S10 12/27/2016 19:50:00 0.1768
2016_12_27_S10 12/27/2016 19:55:00 0.1556
2016_12_27_S10 12/27/2016 20:00:00 0.0187
2016_12_27_S10 12/27/2016 20:05:00 0.0
2016_12_27_S10 12/27/2016 20:10:00 0.0
2016_12_27_S10 12/27/2016 20:15:00 0.0
2016_12_27_S10 12/27/2016 20:20:00 0.0016
2016_12_27_S10 12/27/2016 20:25:00 0.0259
2016_12_27_S10 12/27/2016 20:30:00 0.014
2016_12_27_S10 12/27/2016 20:35:00 0.0091
2016_12_27_S10 12/27/2016 20:40:00 0.0
2016_12_27_S10 12/27/2016 20:45:00 0.0
2016_12_27_S10 12/27/2016 20:50:00 0.0
2016_12_27_S10 12/27/2016 20:55:00 0.0
2016_12_27_S10 12/27/2016 21:00:00 0.0
2016_12_27_S10 12/27/2016 21:05:00 0.0
2016_12_27_S10 12/27/2016 21:10:00 0.0
2016_12_27_S10 12/27/2016 21:15:00 0.0
2016_12_27_S10 12/27/2016 21:20:00 0.0
2016_12_27_S10 12/27/2016 21:25:00 0.0
2016_12_27_S10 12/27/2016 21:30:00 0.0
2016_12_27_S10 12/27/2016 21:35:00 0.0
2016_12_27_S10 12/27/2016 21:40:00 0.0
2016_12_27_S10 12/27/2016 21:45:00 0.0
2016_12_27_S10 12/27/2016 21:50:00 0.0
2016_12_27_S10 12/27/2016 21:55:00 0.0
2016_12_27_S10 12/27/2016 22:00:00 0.0
2016_12_27_S10 12/27/2016 22:05:00 0.0
2016_12_27_S10 12/27/2016 22:10:00 0.0
2016_12_27_S10 12/27/2016 22:15:00 0.0
2016_12_27_S10 12/27/2016 22:20:00 0.0
2016_12_27_S10 12/27/2016 22:25:00 0.0081
2016_12_27_S10 12/27/2016 22:30:00 0.1666
2016_12_27_S10 12/27/2016 22:35:00 0.1618
2016_12_27_S10 12/27/2016 22:40:00 0.0
2016_12_27_S10 12/27/2016 22:45:00 0.0
2016_12_27_S10 12/27/2016 22:50:00 0.0169
2016_12_27_S10 12/27/2016 22:55:00 0.0006
2016_12_27_S10 12/27/2016 23:00:00 0.0087
2016_12_27_S10 12/27/2016 23:05:00 0.0632
2016_12_27_S10 12/27/2016 23:10:00 0.0004
2016_12_27_S10 12/27/2016 23:15:00 0.0003
2016_12_27_S10 12/27/2016 23:20:00 0.0
2016_12_27_S10 12/27/2016 23:25:00 0.0003
2016_12_27_S10 12/27/2016 23:30:00 0.0
2016_12_27_S10 12/27/2016 23:35:00 0.0027
2016_12_27_S10 12/27/2016 23:40:00 0.0024
2016_12_27_S10 12/27/2016 23:45:00 0.0
2016_12_27_S10 12/27/2016 23:50:00 0.0
2016_12_27_S10 12/27/2016 23:55:00 0.0
2016_12_27_S10 12/28/2016 00:00:00 0.0
2016_12_27_S10 12/28/2016 00:05:00 0.0
2016_12_27_S10 12/28/2016 00:10:00 0.0
2016_12_27_S10 12/28/2016 00:15:00 0.0
2016_12_27_S10 12/28/2016 00:20:00 0.0
2016_12_27_S10 12/28/2016 00:25:00 0.0
2016_12_27_S10 12/28/2016 00:30:00 0.0
2016_12_27_S10 12/28/2016 00:35:00 0.0
2016_12_27_S10 12/28/2016 00:40:00 0.0
2016_12_27_S10 12/28/2016 00:45:00 0.0
2016_12_27_S10 12/28/2016 00:50:00 0.0
2016_12_27_S10 12/28/2016 00:55:00 0.0
2016_12_27_S10 12/28/2016 01:00:00 0.0
2016_12_27_S10 12/28/2016 01:05:00 0.0
2016_12_27_S10 12/28/2016 01:10:00 0.0
2016_12_27_S10 12/28/2016 01:15:00 0.0
2016_12_27_S10 12/28/2016 01:20:00 0.0
2016_12_27_S10 12/28/2016 01:25:00 0.0
2016_12_27_S10 12/28/2016 01:30:00 0.0
2016_12_27_S10 12/28/2016 01:35:00 0.0
2016_12_27_S10 12/28/2016 01:40:00 0.0
2016_12_27_S10 12/28/2016 01:45:00 0.0
2016_12_27_S10 12/28/2016 01:50:00 0.0
2016_12_27_S10 12/28/2016 01:55:00 0.0
2016_12_27_S10 12/28/2016 02:00:00 0.0
2016_12_27_S10 12/28/2016 02:05:00 0.0
2016_12_27_S10 12/28/2016 02:10:00 0.0
2016_12_27_S10 12/28/2016 02:15:00 0.0
2016_12_27_S10 12/28/2016 02:20:00 0.0
2016_12_27_S10 12/28/2016 02:25:00 0.0
2016_12_27_S10 12/28/2016 02:30:00 0.0
2016_12_27_S10 12/28/2016 02:35:00 0.0
2016_12_27_S10 12/28/2016 02:40:00 0.0
2016_12_27_S10 12/28/2016 02:45:00 0.0
2016_12_27_S10 12/28/2016 02:50:00 0.0
2016_12_27_S10 12/28/2016 02:55:00 0.0
2016_12_27_S10 12/28/2016 03:00:00 0.0
2016_12_27_S10 12/28/2016 03:05:00 0.0
2016_12_27_S10 12/28/2016 03:10:00 0.0
2016_12_27_S10 12/28/2016 03:15:00 0.0
2016_12_27_S10 12/28/2016 03:20:00 0.0
2016_12_27_S10 12/28/2016 03:25:00 0.0
2016_12_27_S10 12/28/2016 03:30:00 0.0
2016_12_27_S10 12/28/2016 03:35:00 0.0
2016_12_27_S10 12/28/2016 03:40:00 0.0
2016_12_27_S10 12/28/2016 03:45:00 0.0
2016_12_27_S10 12/28/2016 03:50:00 0.0
2016_12_27_S10 12/28/2016 03:55:00 0.0
2016_12_27_S10 12/28/2016 04:00:00 0.0
2016_12_27_S10 12/28/2016 04:05:00 0.0
2016_12_27_S10 12/28/2016 04:10:00 0.0
2016_12_27_S10 12/28/2016 04:15:00 0.0
2016_12_27_S10 12/28/2016 04:20:00 0.0
2016_12_27_S10 12/28/2016 04:25:00 0.0
2016_12_27_S10 12/28/2016 04:30:00 0.0
2016_12_27_S10 12/28/2016 04:35:00 0.0
2016_12_27_S10 12/28/2016 04:40:00 0.0
2016_12_27_S10 12/28/2016 04:45:00 0.0
2016_12_27_S10 12/28/2016 04:50:00 0.0
2016_12_27_S10 12/28/2016 04:55:00 0.0
2016_12_27_S10 12/28/2016 05:00:00 0.0
2016_12_27_S10 12/28/2016 05:05:00 0.0
2016_12_27_S10 12/28/2016 05:10:00 0.0
2016_12_27_S10 12/28/2016 05:15:00 0.0
2016_12_27_S10 12/28/2016 05:20:00 0.0
2016_12_27_S10 12/28/2016 05:25:00 0.0
2016_12_27_S10 12/28/2016 05:30:00 0.0
2016_12_27_S10 12/28/2016 05:35:00 0.0
2016_12_27_S10 12/28/2016 05:40:00 0.0
2016_12_27_S10 12/28/2016 05:45:00 0.0
2016_12_27_S10 12/28/2016 05:50:00 0.0
2016_12_27_S10 12/28/2016 05:55:00 0.0
2016_12_27_S10 12/28/2016 06:00:00 0.0
2016_12_27_S10 12/28/2016 06:05:00 0.0
2016_12_27_S10 12/28/2016 06:10:00 0.0
2016_12_27_S10 12/28/2016 06:15:00 0.0
2016_12_27_S10 12/28/2016 06:20:00 0.0
2016_12_27_S10 12/28/2016 06:25:00 0.0
2016_12_27_S10 12/28/2016 06:30:00 0.0
2016_12_27_S10 12/28/2016 06:35:00 0.0
2016_12_27_S10 12/28/2016 06:40:00 0.0
2016_12_27_S10 12/28/2016 06:45:00 0.0
2016_12_27_S10 12/28/2016 06:50:00 0.0
2016_12_27_S10 12/28/2016 06:55:00 0.0
2016_12_27_S10 12/28/2016 07:00:00 0.0
2016_12_27_S10 12/28/2016 07:05:00 0.0
2016_12_27_S10 12/28/2016 07:10:00 0.0
2016_12_27_S10 12/28/2016 07:15:00 0.0
2016_12_27_S10 12/28/2016 07:20:00 0.0
2016_12_27_S10 12/28/2016 07:25:00 0.0
2016_12_27_S10 12/28/2016 07:30:00 0.0
2016_12_27_S10 12/28/2016 07:35:00 0.0
2016_12_27_S10 12/28/2016 07:40:00 0.0
2016_12_27_S10 12/28/2016 07:45:00 0.0
2016_12_27_S10 12/28/2016 07:50:00 0.0
2016_12_27_S10 12/28/2016 07:55:00 0.0
2016_12_27_S10 12/28/2016 08:00:00 0.0

2016_12_27_S11 12/26/2016 08:00:00 0.0
2016_12_27_S11 12/26/2016 08:05:00 0.0
2016_12_27_S11 12/26/2016 08:10:00 0.0
2016_12_27_S11 12/26/2016 08:15:00 0.0
2016_12_27_S11 12/26/2016 08:20:00 0.0
2016_12_27_S11 12/26/2016 08:25:00 0.0
2016_12_27_S11 12/26/2016 08:30:00 0.0
2016_12_27_S11 12/26/2016 08:35:00 0.0
2016_12_27_S11 12/26/2016 08:40:00 0.0
2016_12_27_S11 12/26/2016 08:45:00 0.0
2016_12_27_S11 12/26/2016 08:50:00 0.0
2016_12_27_S11 12/26/2016 08:55:00 0.0
2016_12_27_S11 12/26/2016 09:00:00 0.0
2016_12_27_S11 12/26/2016 09:05:00 0.0105
2016_12_27_S11 12/26/2016 09:10:00 0.0289
2016_12_27_S11 12/26/2016 09:15:00 0.0746
2016_12_27_S11 12/26/2016 09:20:00 0.0066
2016_12_27_S11 12/26/2016 09:25:00 0.0
2016_12_27_S11 12/26/2016 09:30:00 0.0
2016_12_27_S11 12/26/2016 09:35:00 0.0
2016_12_27_S11 12/26/2016 09:40:00 0.0
2016_12_27_S11 12/26/2016 09:45:00 0.0
2016_12_27_S11 12/26/2016 09:50:00 0.0
2016_12_27_S11 12/26/2016 09:55:00 0.0
2016_12_27_S11 12/26/2016 10:00:00 0.0
2016_12_27_S11 12/26/2016 10:05:00 0.0
2016_12_27_S11 12/26/2016 10:10:00 0.0
2016_12_27_S11 12/26/2016 10:15:00 0.0
2016_12_27_S11 12/26/2016 10:20:00 0.0
2016_12_27_S11 12/26/2016 10:25:00 0.0
2016_12_27_S11 12/26/2016 10:30:00 0.0
2016_12_27_S11 12/26/2016 10:35:00 0.0
2016_12_27_S11 12/26/2016 10:40:00 0.0
2016_12_27_S11 12/26/2016 10:45:00 0.0
2016_12_27_S11 12/26/2016 10:50:00 0.0107
2016_12_27_S11 12/26/2016 10:55:00 0.0051
2016_12_27_S11 12/26/2016 11:00:00 0.0
2016_12_27_S11 12/26/2016 11:05:00 0.0
2016_12_27_S11 12/26/2016 11:10:00 0.0
2016_12_27_S11 12/26/2016 11:15:00 0.0
2016_12_27_S11 12/26/2016 11:20:00 0.0
2016_12_27_S11 12/26/2016 11:25:00 0.0
2016_12_27_S11 12/26/2016 11:30:00 0.0
2016_12_27_S11 12/26/2016 11:35:00 0.0
2016_12_27_S11 12/26/2016 11:40:00 0.0
2016_12_27_S11 12/26/2016 11:45:00 0.0
2016_12_27_S11 12/26/2016 11:50:00 0.0078
2016_12_27_S11 12/26/2016 11:55:00 0.0048
2016_12_27_S11 12/26/2016 12:00:00 0.0391
2016_12_27_S11 12/26/2016 12:05:00 0.131
2016_12_27_S11 12/26/2016 12:10:00 0.0237
2016_12_27_S11 12/26/2016 12:15:00 0.0
2016_12_27_S11 12/26/2016 12:20:00 0.0
2016_12_27_S11 12/26/2016 12:25:00 0.0
2016_12_27_S11 12/26/2016 12:30:00 0.0
2016_12_27_S11 12/26/2016 12:35:00 0.0103
2016_12_27_S11 12/26/2016 12:40:00 0.0076
2016_12_27_S11 12/26/2016 12:45:00 0.0023
2016_12_27_S11 12/26/2016 12:50:00 0.0
2016_12_27_S11 12/26/2016 12:55:00 0.0
2016_12_27_S11 12/26/2016 13:00:00 0.0
2016_12_27_S11 12/26/2016 13:05:00 0.0
2016_12_27_S11 12/26/2016 13:10:00 0.0
2016_12_27_S11 12/26/2016 13:15:00 0.0
2016_12_27_S11 12/26/2016 13:20:00 0.0
2016_12_27_S11 12/26/2016 13:25:00 0.0
2016_12_27_S11 12/26/2016 13:30:00 0.0
2016_12_27_S11 12/26/2016 13:35:00 0.0
2016_12_27_S11 12/26/2016 13:40:00 0.0
2016_12_27_S11 12/26/2016 13:45:00 0.0
2016_12_27_S11 12/26/2016 13:50:00 0.0
2016_12_27_S11 12/26/2016 13:55:00 0.0
2016_12_27_S11 12/26/2016 14:00:00 0.0
2016_12_27_S11 12/26/2016 14:05:00 0.0
2016_12_27_S11 12/26/2016 14:10:00 0.0
2016_12_27_S11 12/26/2016 14:15:00 0.0
2016_12_27_S11 12/26/2016 14:20:00 0.0
2016_12_27_S11 12/26/2016 14:25:00 0.0
2016_12_27_S11 12/26/2016 14:30:00 0.0
2016_12_27_S11 12/26/2016 14:35:00 0.0
2016_12_27_S11 12/26/2016 14:40:00 0.0
2016_12_27_S11 12/26/2016 14:45:00 0.0
2016_12_27_S11 12/26/2016 14:50:00 0.0
2016_12_27_S11 12/26/2016 14:55:00 0.0
2016_12_27_S11 12/26/2016 15:00:00 0.0
2016_12_27_S11 12/26/2016 15:05:00 0.0
2016_12_27_S11 12/26/2016 15:10:00 0.0
2016_12_27_S11 12/26/2016 15:15:00 0.0
2016_12_27_S11 12/26/2016 15:20:00 0.0
2016_12_27_S11 12/26/2016 15:25:00 0.0
2016_12_27_S11 12/26/2016 15:30:00 0.0
2016_12_27_S11 12/26/2016 15:35:00 0.0
2016_12_27_S11 12/26/2016 15:40:00 0.0
2016_12_27_S11 12/26/2016 15:45:00 0.0
2016_12_27_S11 12/26/2016 15:50:00 0.0
2016_12_27_S11 12/26/2016 15:55:00 0.0
2016_12_27_S11 12/26/2016 16:00:00 0.0
2016_12_27_S11 12/26/2016 16:05:00 0.0
2016_12_27_S11 12/26/2016 16:10:00 0.0
2016_12_27_S11 12/26/2016 16:15:00 0.0
2016_12_27_S11 12/26/2016 16:20:00 0.0
2016_12_27_S11 12/26/2016 16:25:00 0.0
2016_12_27_S11 12/26/2016 16:30:00 0.0
2016_12_27_S11 12/26/2016 16:35:00 0.0
2016_12_27_S11 12/26/2016 16:40:00 0.0
2016_12_27_S11 12/26/2016 16:45:00 0.0
2016_12_27_S11 12/26/2016 16:50:00 0.0
2016_12_27_S11 12/26/2016 16:55:00 0.0
2016_12_27_S11 12/26/2016 17:00:00 0.0
2016_12_27_S11 12/26/2016 17:05:00 0.0
2016_12_27_S11 12/26/2016 17:10:00 0.0
2016_12_27_S11 12/26/2016 17:15:00 0.0
2016_12_27_S11 12/26/2016 17:20:00 0.0
2016_12_27_S11 12/26/2016 17:25:00 0.0
2016_12_27_S11 12/26/2016 17:30:00 0.0
2016_12_27_S11 12/26/2016 17:35:00 0.0
2016_12_27_S11 12/26/2016 17:40:00 0.0
2016_12_27_S11 12/26/2016 17:45:00 0.0
2016_12_27_S11 12/26/2016 17:50:00 0.0
2016_12_27_S11 12/26/2016 17:55:00 0.0
2016_12_27_S11 12/26/2016 18:00:00 0.0
2016_12_27_S11 12/26/2016 18:05:00 0.0
2016_12_27_S11 12/26/2016 18:10:00 0.0
2016_12_27_S11 12/26/2016 18:15:00 0.0
2016_12_27_S11 12/26/2016 18:20:00 0.0
2016_12_27_S11 12/26/2016 18:25:00 0.0
2016_12_27_S11 12/26/2016 18:30:00 0.0
2016_12_27_S11 12/26/2016 18:35:00 0.0
2016_12_27_S11 12/26/2016 18:40:00 0.0
2016_12_27_S11 12/26/2016 18:45:00 0.0
2016_12_27_S11 12/26/2016 18:50:00 0.0
2016_12_27_S11 12/26/2016 18:55:00 0.0
2016_12_27_S11 12/26/2016 19:00:00 0.0
2016_12_27_S11 12/26/2016 19:05:00 0.0
2016_12_27_S11 12/26/2016 19:10:00 0.0
2016_12_27_S11 12/26/2016 19:15:00 0.0
2016_12_27_S11 12/26/2016 19:20:00 0.0
2016_12_27_S11 12/26/2016 19:25:00 0.0
2016_12_27_S11 12/26/2016 19:30:00 0.0
2016_12_27_S11 12/26/2016 19:35:00 0.0
2016_12_27_S11 12/26/2016 19:40:00 0.0
2016_12_27_S11 12/26/2016 19:45:00 0.0
2016_12_27_S11 12/26/2016 19:50:00 0.0
2016_12_27_S11 12/26/2016 19:55:00 0.0
2016_12_27_S11 12/26/2016 20:00:00 0.0
2016_12_27_S11 12/26/2016 20:05:00 0.0
2016_12_27_S11 12/26/2016 20:10:00 0.0
2016_12_27_S11 12/26/2016 20:15:00 0.0
2016_12_27_S11 12/26/2016 20:20:00 0.0
2016_12_27_S11 12/26/2016 20:25:00 0.0
2016_12_27_S11 12/26/2016 20:30:00 0.0
2016_12_27_S11 12/26/2016 20:35:00 0.0
2016_12_27_S11 12/26/2016 20:40:00 0.0
2016_12_27_S11 12/26/2016 20:45:00 0.0
2016_12_27_S11 12/26/2016 20:50:00 0.0
2016_12_27_S11 12/26/2016 20:55:00 0.0
2016_12_27_S11 12/26/2016 21:00:00 0.0
2016_12_27_S11 12/26/2016 21:05:00 0.0
2016_12_27_S11 12/26/2016 21:10:00 0.0
2016_12_27_S11 12/26/2016 21:15:00 0.0
2016_12_27_S11 12/26/2016 21:20:00 0.0
2016_12_27_S11 12/26/2016 21:25:00 0.0
2016_12_27_S11 12/26/2016 21:30:00 0.0
2016_12_27_S11 12/26/2016 21:35:00 0.0
2016_12_27_S11 12/26/2016 21:40:00 0.0
2016_12_27_S11 12/26/2016 21:45:00 0.0
2016_12_27_S11 12/26/2016 21:50:00 0.0
2016_12_27_S11 12/26/2016 21:55:00 0.0
2016_12_27_S11 12/26/2016 22:00:00 0.0
2016_12_27_S11 12/26/2016 22:05:00 0.0
2016_12_27_S11 12/26/2016 22:10:00 0.0
2016_12_27_S11 12/26/2016 22:15:00 0.0
2016_12_27_S11 12/26/2016 22:20:00 0.0
2016_12_27_S11 12/26/2016 22:25:00 0.0
2016_12_27_S11 12/26/2016 22:30:00 0.0
2016_12_27_S11 12/26/2016 22:35:00 0.0
2016_12_27_S11 12/26/2016 22:40:00 0.0
2016_12_27_S11 12/26/2016 22:45:00 0.0
2016_12_27_S11 12/26/2016 22:50:00 0.0
2016_12_27_S11 12/26/2016 22:55:00 0.0
2016_12_27_S11 12/26/2016 23:00:00 0.0
2016_12_27_S11 12/26/2016 23:05:00 0.0
2016_12_27_S11 12/26/2016 23:10:00 0.0
2016_12_27_S11 12/26/2016 23:15:00 0.0
2016_12_27_S11 12/26/2016 23:20:00 0.0
2016_12_27_S11 12/26/2016 23:25:00 0.0
2016_12_27_S11 12/26/2016 23:30:00 0.0
2016_12_27_S11 12/26/2016 23:35:00 0.0
2016_12_27_S11 12/26/2016 23:40:00 0.0
2016_12_27_S11 12/26/2016 23:45:00 0.0
2016_12_27_S11 12/26/2016 23:50:00 0.0
2016_12_27_S11 12/26/2016 23:55:00 0.0
2016_12_27_S11 12/27/2016 00:00:00 0.0
2016_12_27_S11 12/27/2016 00:05:00 0.0
2016_12_27_S11 12/27/2016 00:10:00 0.0
2016_12_27_S11 12/27/2016 00:15:00 0.0
2016_12_27_S11 12/27/2016 00:20:00 0.0
2016_12_27_S11 12/27/2016 00:25:00 0.0
2016_12_27_S11 12/27/2016 00:30:00 0.0
2016_12_27_S11 12/27/2016 00:35:00 0.0
2016_12_27_S11 12/27/2016 00:40:00 0.0
2016_12_27_S11 12/27/2016 00:45:00 0.0
2016_12_27_S11 12/27/2016 00:50:00 0.0
2016_12_27_S11 12/27/2016 00:55:00 0.0
2016_12_27_S11 12/27/2016 01:00:00 0.0008
2016_12_27_S11 12/27/2016 01:05:00 0.0
2016_12_27_S11 12/27/2016 01:10:00 0.0067
2016_12_27_S11 12/27/2016 01:15:00 0.0018
2016_12_27_S11 12/27/2016 01:20:00 0.0114
2016_12_27_S11 12/27/2016 01:25:00 0.0765
2016_12_27_S11 12/27/2016 01:30:00 0.3084
2016_12_27_S11 12/27/2016 01:35:00 0.4694
2016_12_27_S11 12/27/2016 01:40:00 0.3316
2016_12_27_S11 12/27/2016 01:45:00 0.6936
2016_12_27_S11 12/27/2016 01:50:00 0.5397
2016_12_27_S11 12/27/2016 01:55:00 0.2877
2016_12_27_S11 12/27/2016 02:00:00 0.004
2016_12_27_S11 12/27/2016 02:05:00 0.0252
2016_12_27_S11 12/27/2016 02:10:00 0.0704
2016_12_27_S11 12/27/2016 02:15:00 0.1851
2016_12_27_S11 12/27/2016 02:20:00 0.0637
2016_12_27_S11 12/27/2016 02:25:00 0.2512
2016_12_27_S11 12/27/2016 02:30:00 0.0876
2016_12_27_S11 12/27/2016 02:35:00 0.1516
2016_12_27_S11 12/27/2016 02:40:00 0.305
2016_12_27_S11 12/27/2016 02:45:00 0.1999
2016_12_27_S11 12/27/2016 02:50:00 0.3045
2016_12_27_S11 12/27/2016 02:55:00 0.3809
2016_12_27_S11 12/27/2016 03:00:00 0.4683
2016_12_27_S11 12/27/2016 03:05:00 0.3811
2016_12_27_S11 12/27/2016 03:10:00 0.4784
2016_12_27_S11 12/27/2016 03:15:00 1.0081
2016_12_27_S11 12/27/2016 03:20:00 0.6506
2016_12_27_S11 12/27/2016 03:25:00 0.4071
2016_12_27_S11 12/27/2016 03:30:00 1.1912
2016_12_27_S11 12/27/2016 03:35:00 0.4811
2016_12_27_S11 12/27/2016 03:40:00 0.2935
2016_12_27_S11 12/27/2016 03:45:00 0.2843
2016_12_27_S11 12/27/2016 03:50:00 0.288
2016_12_27_S11 12/27/2016 03:55:00 0.3717
2016_12_27_S11 12/27/2016 04:00:00 0.1473
2016_12_27_S11 12/27/2016 04:05:00 0.0716
2016_12_27_S11 12/27/2016 04:10:00 0.2328
2016_12_27_S11 12/27/2016 04:15:00 0.1061
2016_12_27_S11 12/27/2016 04:20:00 0.0293
2016_12_27_S11 12/27/2016 04:25:00 0.2215
2016_12_27_S11 12/27/2016 04:30:00 0.0526
2016_12_27_S11 12/27/2016 04:35:00 0.0477
2016_12_27_S11 12/27/2016 04:40:00 0.0294
2016_12_27_S11 12/27/2016 04:45:00 0.0654
2016_12_27_S11 12/27/2016 04:50:00 0.3197
2016_12_27_S11 12/27/2016 04:55:00 0.5592
2016_12_27_S11 12/27/2016 05:00:00 0.4414
2016_12_27_S11 12/27/2016 05:05:00 0.0933
2016_12_27_S11 12/27/2016 05:10:00 0.2124
2016_12_27_S11 12/27/2016 05:15:00 0.3727
2016_12_27_S11 12/27/2016 05:20:00 0.2388
2016_12_27_S11 12/27/2016 05:25:00 0.0543
2016_12_27_S11 12/27/2016 05:30:00 0.0
2016_12_27_S11 12/27/2016 05:35:00 0.0
2016_12_27_S11 12/27/2016 05:40:00 0.0
2016_12_27_S11 12/27/2016 05:45:00 0.0
2016_12_27_S11 12/27/2016 05:50:00 0.0
2016_12_27_S11 12/27/2016 05:55:00 0.0
2016_12_27_S11 12/27/2016 06:00:00 0.0
2016_12_27_S11 12/27/2016 06:05:00 0.0
2016_12_27_S11 12/27/2016 06:10:00 0.0
2016_12_27_S11 12/27/2016 06:15:00 0.0
2016_12_27_S11 12/27/2016 06:20:00 0.0
2016_12_27_S11 12/27/2016 06:25:00 0.0
2016_12_27_S11 12/27/2016 06:30:00 0.0
2016_12_27_S11 12/27/2016 06:35:00 0.0
2016_12_27_S11 12/27/2016 06:40:00 0.0214
2016_12_27_S11 12/27/2016 06:45:00 0.0102
2016_12_27_S11 12/27/2016 06:50:00 0.0102
2016_12_27_S11 12/27/2016 06:55:00 0.0886
2016_12_27_S11 12/27/2016 07:00:00 0.0673
2016_12_27_S11 12/27/2016 07:05:00 0.0291
2016_12_27_S11 12/27/2016 07:10:00 0.3849
2016_12_27_S11 12/27/2016 07:15:00 1.5235
2016_12_27_S11 12/27/2016 07:20:00 0.9422
2016_12_27_S11 12/27/2016 07:25:00 0.4996
2016_12_27_S11 12/27/2016 07:30:00 0.2452
2016_12_27_S11 12/27/2016 07:35:00 0.0896
2016_12_27_S11 12/27/2016 07:40:00 0.1295
2016_12_27_S11 12/27/2016 07:45:00 0.1704
2016_12_27_S11 12/27/2016 07:50:00 0.6523
2016_12_27_S11 12/27/2016 07:55:00 0.6526
2016_12_27_S11 12/27/2016 08:00:00 0.9968
2016_12_27_S11 12/27/2016 08:05:00 0.9402
2016_12_27_S11 12/27/2016 08:10:00 0.7531
2016_12_27_S11 12/27/2016 08:15:00 0.526
2016_12_27_S11 12/27/2016 08:20:00 0.9145
2016_12_27_S11 12/27/2016 08:25:00 0.0194
2016_12_27_S11 12/27/2016 08:30:00 0.0462
2016_12_27_S11 12/27/2016 08:35:00 0.1133
2016_12_27_S11 12/27/2016 08:40:00 0.7684
2016_12_27_S11 12/27/2016 08:45:00 0.5392
2016_12_27_S11 12/27/2016 08:50:00 0.3017
2016_12_27_S11 12/27/2016 08:55:00 0.13
2016_12_27_S11 12/27/2016 09:00:00 1.78
2016_12_27_S11 12/27/2016 09:05:00 0.3178
2016_12_27_S11 12/27/2016 09:10:00 0.1123
2016_12_27_S11 12/27/2016 09:15:00 1.5621
2016_12_27_S11 12/27/2016 09:20:00 0.7911
2016_12_27_S11 12/27/2016 09:25:00 0.7445
2016_12_27_S11 12/27/2016 09:30:00 0.282
2016_12_27_S11 12/27/2016 09:35:00 0.5244
2016_12_27_S11 12/27/2016 09:40:00 0.4938
2016_12_27_S11 12/27/2016 09:45:00 0.4152
2016_12_27_S11 12/27/2016 09:50:00 0.009
2016_12_27_S11 12/27/2016 09:55:00 0.0081
2016_12_27_S11 12/27/2016 10:00:00 0.1723
2016_12_27_S11 12/27/2016 10:05:00 0.6509
2016_12_27_S11 12/27/2016 10:10:00 0.1481
2016_12_27_S11 12/27/2016 10:15:00 0.1733
2016_12_27_S11 12/27/2016 10:20:00 0.0456
2016_12_27_S11 12/27/2016 10:25:00 0.069
2016_12_27_S11 12/27/2016 10:30:00 0.0092
2016_12_27_S11 12/27/2016 10:35:00 0.0879
2016_12_27_S11 12/27/2016 10:40:00 0.0
2016_12_27_S11 12/27/2016 10:45:00 0.8201
2016_12_27_S11 12/27/2016 10:50:00 0.7445
2016_12_27_S11 12/27/2016 10:55:00 0.2577
2016_12_27_S11 12/27/2016 11:00:00 0.473
2016_12_27_S11 12/27/2016 11:05:00 0.182
2016_12_27_S11 12/27/2016 11:10:00 0.0678
2016_12_27_S11 12/27/2016 11:15:00 0.1667
2016_12_27_S11 12/27/2016 11:20:00 0.526
2016_12_27_S11 12/27/2016 11:25:00 0.4671
2016_12_27_S11 12/27/2016 11:30:00 1.1166
2016_12_27_S11 12/27/2016 11:35:00 0.7278
2016_12_27_S11 12/27/2016 11:40:00 0.9436
2016_12_27_S11 12/27/2016 11:45:00 0.631
2016_12_27_S11 12/27/2016 11:50:00 1.7475
2016_12_27_S11 12/27/2016 11:55:00 0.5157
2016_12_27_S11 12/27/2016 12:00:00 0.3196
2016_12_27_S11 12/27/2016 12:05:00 0.7448
2016_12_27_S11 12/27/2016 12:10:00 0.1793
2016_12_27_S11 12/27/2016 12:15:00 0.4582
2016_12_27_S11 12/27/2016 12:20:00 0.1584
2016_12_27_S11 12/27/2016 12:25:00 0.601
2016_12_27_S11 12/27/2016 12:30:00 0.1034
2016_12_27_S11 12/27/2016 12:35:00 0.0563
2016_12_27_S11 12/27/2016 12:40:00 0.049
2016_12_27_S11 12/27/2016 12:45:00 0.0081
2016_12_27_S11 12/27/2016 12:50:00 0.0092
2016_12_27_S11 12/27/2016 12:55:00 0.006
2016_12_27_S11 12/27/2016 13:00:00 0.0571
2016_12_27_S11 12/27/2016 13:05:00 0.0018
2016_12_27_S11 12/27/2016 13:10:00 0.0
2016_12_27_S11 12/27/2016 13:15:00 0.0
2016_12_27_S11 12/27/2016 13:20:00 0.0
2016_12_27_S11 12/27/2016 13:25:00 0.0228
2016_12_27_S11 12/27/2016 13:30:00 0.3086
2016_12_27_S11 12/27/2016 13:35:00 0.1786
2016_12_27_S11 12/27/2016 13:40:00 0.3081
2016_12_27_S11 12/27/2016 13:45:00 0.2005
2016_12_27_S11 12/27/2016 13:50:00 0.1707
2016_12_27_S11 12/27/2016 13:55:00 0.1172
2016_12_27_S11 12/27/2016 14:00:00 0.1418
2016_12_27_S11 12/27/2016 14:05:00 0.0648
2016_12_27_S11 12/27/2016 14:10:00 0.0071
2016_12_27_S11 12/27/2016 14:15:00 0.0009
2016_12_27_S11 12/27/2016 14:20:00 0.0273
2016_12_27_S11 12/27/2016 14:25:00 0.0243
2016_12_27_S11 12/27/2016 14:30:00 0.0016
2016_12_27_S11 12/27/2016 14:35:00 0.0
2016_12_27_S11 12/27/2016 14:40:00 0.0
2016_12_27_S11 12/27/2016 14:45:00 0.0
2016_12_27_S11 12/27/2016 14:50:00 0.0
2016_12_27_S11 12/27/2016 14:55:00 0.0
2016_12_27_S11 12/27/2016 15:00:00 0.0
2016_12_27_S11 12/27/2016 15:05:00 0.0
2016_12_27_S11 12/27/2016 15:10:00 0.0009
2016_12_27_S11 12/27/2016 15:15:00 0.0
2016_12_27_S11 12/27/2016 15:20:00 0.0127
2016_12_27_S11 12/27/2016 15:25:00 0.0
2016_12_27_S11 12/27/2016 15:30:00 0.0
2016_12_27_S11 12/27/2016 15:35:00 0.0
2016_12_27_S11 12/27/2016 15:40:00 0.0
2016_12_27_S11 12/27/2016 15:45:00 0.0
2016_12_27_S11 12/27/2016 15:50:00 0.0
2016_12_27_S11 12/27/2016 15:55:00 0.0
2016_12_27_S11 12/27/2016 16:00:00 0.0179
2016_12_27_S11 12/27/2016 16:05:00 0.0047
2016_12_27_S11 12/27/2016 16:10:00 0.0
2016_12_27_S11 12/27/2016 16:15:00 0.0051
2016_12_27_S11 12/27/2016 16:20:00 0.0
2016_12_27_S11 12/27/2016 16:25:00 0.0
2016_12_27_S11 12/27/2016 16:30:00 0.0
2016_12_27_S11 12/27/2016 16:35:00 0.0
2016_12_27_S11 12/27/2016 16:40:00 0.0741
2016_12_27_S11 12/27/2016 16:45:00 0.1586
2016_12_27_S11 12/27/2016 16:50:00 0.0
2016_12_27_S11 12/27/2016 16:55:00 0.0
2016_12_27_S11 12/27/2016 17:00:00 0.0
2016_12_27_S11 12/27/2016 17:05:00 0.0
2016_12_27_S11 12/27/2016 17:10:00 0.0
2016_12_27_S11 12/27/2016 17:15:00 0.0
2016_12_27_S11 12/27/2016 17:20:00 0.0
2016_12_27_S11 12/27/2016 17:25:00 0.0
2016_12_27_S11 12/27/2016 17:30:00 0.0
2016_12_27_S11 12/27/2016 17:35:00 0.0
2016_12_27_S11 12/27/2016 17:40:00 0.0472
2016_12_27_S11 12/27/2016 17:45:00 0.2682
2016_12_27_S11 12/27/2016 17:50:00 0.0199
2016_12_27_S11 12/27/2016 17:55:00 0.0
2016_12_27_S11 12/27/2016 18:00:00 0.0
2016_12_27_S11 12/27/2016 18:05:00 0.0
2016_12_27_S11 12/27/2016 18:10:00 0.0
2016_12_27_S11 12/27/2016 18:15:00 0.0
2016_12_27_S11 12/27/2016 18:20:00 0.0227
2016_12_27_S11 12/27/2016 18:25:00 0.6913
2016_12_27_S11 12/27/2016 18:30:00 0.0234
2016_12_27_S11 12/27/2016 18:35:00 0.0688
2016_12_27_S11 12/27/2016 18:40:00 0.0022
2016_12_27_S11 12/27/2016 18:45:00 0.0
2016_12_27_S11 12/27/2016 18:50:00 0.0
2016_12_27_S11 12/27/2016 18:55:00 0.0
2016_12_27_S11 12/27/2016 19:00:00 0.0
2016_12_27_S11 12/27/2016 19:05:00 0.0
2016_12_27_S11 12/27/2016 19:10:00 0.0001
2016_12_27_S11 12/27/2016 19:15:00 0.0
2016_12_27_S11 12/27/2016 19:20:00 0.0
2016_12_27_S11 12/27/2016 19:25:00 0.0
2016_12_27_S11 12/27/2016 19:30:00 0.0
2016_12_27_S11 12/27/2016 19:35:00 0.0764
2016_12_27_S11 12/27/2016 19:40:00 0.0324
2016_12_27_S11 12/27/2016 19:45:00 0.0872
2016_12_27_S11 12/27/2016 19:50:00 0.1005
2016_12_27_S11 12/27/2016 19:55:00 0.6775
2016_12_27_S11 12/27/2016 20:00:00 0.014
2016_12_27_S11 12/27/2016 20:05:00 0.0
2016_12_27_S11 12/27/2016 20:10:00 0.0
2016_12_27_S11 12/27/2016 20:15:00 0.0
2016_12_27_S11 12/27/2016 20:20:00 0.0077
2016_12_27_S11 12/27/2016 20:25:00 0.035
2016_12_27_S11 12/27/2016 20:30:00 0.0237
2016_12_27_S11 12/27/2016 20:35:00 0.0222
2016_12_27_S11 12/27/2016 20:40:00 0.0
2016_12_27_S11 12/27/2016 20:45:00 0.0
2016_12_27_S11 12/27/2016 20:50:00 0.0
2016_12_27_S11 12/27/2016 20:55:00 0.0
2016_12_27_S11 12/27/2016 21:00:00 0.0
2016_12_27_S11 12/27/2016 21:05:00 0.0
2016_12_27_S11 12/27/2016 21:10:00 0.0
2016_12_27_S11 12/27/2016 21:15:00 0.0
2016_12_27_S11 12/27/2016 21:20:00 0.0
2016_12_27_S11 12/27/2016 21:25:00 0.0
2016_12_27_S11 12/27/2016 21:30:00 0.0
2016_12_27_S11 12/27/2016 21:35:00 0.0
2016_12_27_S11 12/27/2016 21:40:00 0.0
2016_12_27_S11 12/27/2016 21:45:00 0.0
2016_12_27_S11 12/27/2016 21:50:00 0.0
2016_12_27_S11 12/27/2016 21:55:00 0.0
2016_12_27_S11 12/27/2016 22:00:00 0.0
2016_12_27_S11 12/27/2016 22:05:00 0.0
2016_12_27_S11 12/27/2016 22:10:00 0.0
2016_12_27_S11 12/27/2016 22:15:00 0.0
2016_12_27_S11 12/27/2016 22:20:00 0.0
2016_12_27_S11 12/27/2016 22:25:00 0.0001
2016_12_27_S11 12/27/2016 22:30:00 0.0497
2016_12_27_S11 12/27/2016 22:35:00 0.082
2016_12_27_S11 12/27/2016 22:40:00 0.0
2016_12_27_S11 12/27/2016 22:45:00 0.0
2016_12_27_S11 12/27/2016 22:50:00 0.0266
2016_12_27_S11 12/27/2016 22:55:00 0.0052
2016_12_27_S11 12/27/2016 23:00:00 0.0207
2016_12_27_S11 12/27/2016 23:05:00 0.0497
2016_12_27_S11 12/27/2016 23:10:00 0.002
2016_12_27_S11 12/27/2016 23:15:00 0.0
2016_12_27_S11 12/27/2016 23:20:00 0.001
2016_12_27_S11 12/27/2016 23:25:00 0.0
2016_12_27_S11 12/27/2016 23:30:00 0.0
2016_12_27_S11 12/27/2016 23:35:00 0.0001
2016_12_27_S11 12/27/2016 23:40:00 0.0007
2016_12_27_S11 12/27/2016 23:45:00 0.0
2016_12_27_S11 12/27/2016 23:50:00 0.0
2016_12_27_S11 12/27/2016 23:55:00 0.0
2016_12_27_S11 12/28/2016 00:00:00 0.0
2016_12_27_S11 12/28/2016 00:05:00 0.0
2016_12_27_S11 12/28/2016 00:10:00 0.0
2016_12_27_S11 12/28/2016 00:15:00 0.0
2016_12_27_S11 12/28/2016 00:20:00 0.0
2016_12_27_S11 12/28/2016 00:25:00 0.0
2016_12_27_S11 12/28/2016 00:30:00 0.0
2016_12_27_S11 12/28/2016 00:35:00 0.0
2016_12_27_S11 12/28/2016 00:40:00 0.0
2016_12_27_S11 12/28/2016 00:45:00 0.0
2016_12_27_S11 12/28/2016 00:50:00 0.0
2016_12_27_S11 12/28/2016 00:55:00 0.0
2016_12_27_S11 12/28/2016 01:00:00 0.0
2016_12_27_S11 12/28/2016 01:05:00 0.0
2016_12_27_S11 12/28/2016 01:10:00 0.0
2016_12_27_S11 12/28/2016 01:15:00 0.0
2016_12_27_S11 12/28/2016 01:20:00 0.0
2016_12_27_S11 12/28/2016 01:25:00 0.0
2016_12_27_S11 12/28/2016 01:30:00 0.0
2016_12_27_S11 12/28/2016 01:35:00 0.0
2016_12_27_S11 12/28/2016 01:40:00 0.0
2016_12_27_S11 12/28/2016 01:45:00 0.0
2016_12_27_S11 12/28/2016 01:50:00 0.0
2016_12_27_S11 12/28/2016 01:55:00 0.0
2016_12_27_S11 12/28/2016 02:00:00 0.0
2016_12_27_S11 12/28/2016 02:05:00 0.0
2016_12_27_S11 12/28/2016 02:10:00 0.0
2016_12_27_S11 12/28/2016 02:15:00 0.0
2016_12_27_S11 12/28/2016 02:20:00 0.0
2016_12_27_S11 12/28/2016 02:25:00 0.0
2016_12_27_S11 12/28/2016 02:30:00 0.0
2016_12_27_S11 12/28/2016 02:35:00 0.0
2016_12_27_S11 12/28/2016 02:40:00 0.0
2016_12_27_S11 12/28/2016 02:45:00 0.0
2016_12_27_S11 12/28/2016 02:50:00 0.0
2016_12_27_S11 12/28/2016 02:55:00 0.0
2016_12_27_S11 12/28/2016 03:00:00 0.0
2016_12_27_S11 12/28/2016 03:05:00 0.0
2016_12_27_S11 12/28/2016 03:10:00 0.0
2016_12_27_S11 12/28/2016 03:15:00 0.0
2016_12_27_S11 12/28/2016 03:20:00 0.0
2016_12_27_S11 12/28/2016 03:25:00 0.0
2016_12_27_S11 12/28/2016 03:30:00 0.0
2016_12_27_S11 12/28/2016 03:35:00 0.0
2016_12_27_S11 12/28/2016 03:40:00 0.0
2016_12_27_S11 12/28/2016 03:45:00 0.0
2016_12_27_S11 12/28/2016 03:50:00 0.0
2016_12_27_S11 12/28/2016 03:55:00 0.0
2016_12_27_S11 12/28/2016 04:00:00 0.0
2016_12_27_S11 12/28/2016 04:05:00 0.0
2016_12_27_S11 12/28/2016 04:10:00 0.0
2016_12_27_S11 12/28/2016 04:15:00 0.0
2016_12_27_S11 12/28/2016 04:20:00 0.0
2016_12_27_S11 12/28/2016 04:25:00 0.0
2016_12_27_S11 12/28/2016 04:30:00 0.0
2016_12_27_S11 12/28/2016 04:35:00 0.0
2016_12_27_S11 12/28/2016 04:40:00 0.0
2016_12_27_S11 12/28/2016 04:45:00 0.0
2016_12_27_S11 12/28/2016 04:50:00 0.0
2016_12_27_S11 12/28/2016 04:55:00 0.0
2016_12_27_S11 12/28/2016 05:00:00 0.0
2016_12_27_S11 12/28/2016 05:05:00 0.0
2016_12_27_S11 12/28/2016 05:10:00 0.0
2016_12_27_S11 12/28/2016 05:15:00 0.0
2016_12_27_S11 12/28/2016 05:20:00 0.0
2016_12_27_S11 12/28/2016 05:25:00 0.0
2016_12_27_S11 12/28/2016 05:30:00 0.0
2016_12_27_S11 12/28/2016 05:35:00 0.0
2016_12_27_S11 12/28/2016 05:40:00 0.0
2016_12_27_S11 12/28/2016 05:45:00 0.0
2016_12_27_S11 12/28/2016 05:50:00 0.0
2016_12_27_S11 12/28/2016 05:55:00 0.0
2016_12_27_S11 12/28/2016 06:00:00 0.0
2016_12_27_S11 12/28/2016 06:05:00 0.0
2016_12_27_S11 12/28/2016 06:10:00 0.0
2016_12_27_S11 12/28/2016 06:15:00 0.0
2016_12_27_S11 12/28/2016 06:20:00 0.0
2016_12_27_S11 12/28/2016 06:25:00 0.0
2016_12_27_S11 12/28/2016 06:30:00 0.0
2016_12_27_S11 12/28/2016 06:35:00 0.0
2016_12_27_S11 12/28/2016 06:40:00 0.0
2016_12_27_S11 12/28/2016 06:45:00 0.0
2016_12_27_S11 12/28/2016 06:50:00 0.0
2016_12_27_S11 12/28/2016 06:55:00 0.0
2016_12_27_S11 12/28/2016 07:00:00 0.0
2016_12_27_S11 12/28/2016 07:05:00 0.0
2016_12_27_S11 12/28/2016 07:10:00 0.0
2016_12_27_S11 12/28/2016 07:15:00 0.0
2016_12_27_S11 12/28/2016 07:20:00 0.0
2016_12_27_S11 12/28/2016 07:25:00 0.0
2016_12_27_S11 12/28/2016 07:30:00 0.0
2016_12_27_S11 12/28/2016 07:35:00 0.0
2016_12_27_S11 12/28/2016 07:40:00 0.0
2016_12_27_S11 12/28/2016 07:45:00 0.0
2016_12_27_S11 12/28/2016 07:50:00 0.0
2016_12_27_S11 12/28/2016 07:55:00 0.0
2016_12_27_S11 12/28/2016 08:00:00 0.0

2016_12_27_S12 12/26/2016 08:00:00 0.0
2016_12_27_S12 12/26/2016 08:05:00 0.0
2016_12_27_S12 12/26/2016 08:10:00 0.0
2016_12_27_S12 12/26/2016 08:15:00 0.0
2016_12_27_S12 12/26/2016 08:20:00 0.0
2016_12_27_S12 12/26/2016 08:25:00 0.0
2016_12_27_S12 12/26/2016 08:30:00 0.0
2016_12_27_S12 12/26/2016 08:35:00 0.0
2016_12_27_S12 12/26/2016 08:40:00 0.0
2016_12_27_S12 12/26/2016 08:45:00 0.0
2016_12_27_S12 12/26/2016 08:50:00 0.0
2016_12_27_S12 12/26/2016 08:55:00 0.0
2016_12_27_S12 12/26/2016 09:00:00 0.0
2016_12_27_S12 12/26/2016 09:05:00 0.0177
2016_12_27_S12 12/26/2016 09:10:00 0.021
2016_12_27_S12 12/26/2016 09:15:00 0.0509
2016_12_27_S12 12/26/2016 09:20:00 0.0
2016_12_27_S12 12/26/2016 09:25:00 0.0
2016_12_27_S12 12/26/2016 09:30:00 0.0
2016_12_27_S12 12/26/2016 09:35:00 0.0
2016_12_27_S12 12/26/2016 09:40:00 0.0
2016_12_27_S12 12/26/2016 09:45:00 0.0
2016_12_27_S12 12/26/2016 09:50:00 0.0
2016_12_27_S12 12/26/2016 09:55:00 0.0
2016_12_27_S12 12/26/2016 10:00:00 0.0
2016_12_27_S12 12/26/2016 10:05:00 0.0
2016_12_27_S12 12/26/2016 10:10:00 0.0
2016_12_27_S12 12/26/2016 10:15:00 0.0
2016_12_27_S12 12/26/2016 10:20:00 0.0
2016_12_27_S12 12/26/2016 10:25:00 0.0
2016_12_27_S12 12/26/2016 10:30:00 0.0
2016_12_27_S12 12/26/2016 10:35:00 0.0
2016_12_27_S12 12/26/2016 10:40:00 0.0
2016_12_27_S12 12/26/2016 10:45:00 0.0
2016_12_27_S12 12/26/2016 10:50:00 0.048
2016_12_27_S12 12/26/2016 10:55:00 0.0093
2016_12_27_S12 12/26/2016 11:00:00 0.0
2016_12_27_S12 12/26/2016 11:05:00 0.0
2016_12_27_S12 12/26/2016 11:10:00 0.0
2016_12_27_S12 12/26/2016 11:15:00 0.0
2016_12_27_S12 12/26/2016 11:20:00 0.0
2016_12_27_S12 12/26/2016 11:25:00 0.0
2016_12_27_S12 12/26/2016 11:30:00 0.0
2016_12_27_S12 12/26/2016 11:35:00 0.0
2016_12_27_S12 12/26/2016 11:40:00 0.0
2016_12_27_S12 12/26/2016 11:45:00 0.0079
2016_12_27_S12 12/26/2016 11:50:00 0.011
2016_12_27_S12 12/26/2016 11:55:00 0.0204
2016_12_27_S12 12/26/2016 12:00:00 0.0615
2016_12_27_S12 12/26/2016 12:05:00 0.1591
2016_12_27_S12 12/26/2016 12:10:00 0.0088
2016_12_27_S12 12/26/2016 12:15:00 0.0
2016_12_27_S12 12/26/2016 12:20:00 0.0
2016_12_27_S12 12/26/2016 12:25:00 0.0
2016_12_27_S12 12/26/2016 12:30:00 0.0
2016_12_27_S12 12/26/2016 12:35:00 0.0
2016_12_27_S12 12/26/2016 12:40:00 0.0045
2016_12_27_S12 12/26/2016 12:45:00 0.0
2016_12_27_S12 12/26/2016 12:50:00 0.0
2016_12_27_S12 12/26/2016 12:55:00 0.0
2016_12_27_S12 12/26/2016 13:00:00 0.0
2016_12_27_S12 12/26/2016 13:05:00 0.0
2016_12_27_S12 12/26/2016 13:10:00 0.0
2016_12_27_S12 12/26/2016 13:15:00 0.0
2016_12_27_S12 12/26/2016 13:20:00 0.0
2016_12_27_S12 12/26/2016 13:25:00 0.0
2016_12_27_S12 12/26/2016 13:30:00 0.0
2016_12_27_S12 12/26/2016 13:35:00 0.0
2016_12_27_S12 12/26/2016 13:40:00 0.0
2016_12_27_S12 12/26/2016 13:45:00 0.0
2016_12_27_S12 12/26/2016 13:50:00 0.0
2016_12_27_S12 12/26/2016 13:55:00 0.0
2016_12_27_S12 12/26/2016 14:00:00 0.0
2016_12_27_S12 12/26/2016 14:05:00 0.0
2016_12_27_S12 12/26/2016 14:10:00 0.0
2016_12_27_S12 12/26/2016 14:15:00 0.0
2016_12_27_S12 12/26/2016 14:20:00 0.0
2016_12_27_S12 12/26/2016 14:25:00 0.0
2016_12_27_S12 12/26/2016 14:30:00 0.0
2016_12_27_S12 12/26/2016 14:35:00 0.0
2016_12_27_S12 12/26/2016 14:40:00 0.0
2016_12_27_S12 12/26/2016 14:45:00 0.0
2016_12_27_S12 12/26/2016 14:50:00 0.0
2016_12_27_S12 12/26/2016 14:55:00 0.0
2016_12_27_S12 12/26/2016 15:00:00 0.0
2016_12_27_S12 12/26/2016 15:05:00 0.0
2016_12_27_S12 12/26/2016 15:10:00 0.0
2016_12_27_S12 12/26/2016 15:15:00 0.0
2016_12_27_S12 12/26/2016 15:20:00 0.0
2016_12_27_S12 12/26/2016 15:25:00 0.0
2016_12_27_S12 12/26/2016 15:30:00 0.0
2016_12_27_S12 12/26/2016 15:35:00 0.0
2016_12_27_S12 12/26/2016 15:40:00 0.0
2016_12_27_S12 12/26/2016 15:45:00 0.0
2016_12_27_S12 12/26/2016 15:50:00 0.0
2016_12_27_S12 12/26/2016 15:55:00 0.0
2016_12_27_S12 12/26/2016 16:00:00 0.0
2016_12_27_S12 12/26/2016 16:05:00 0.0
2016_12_27_S12 12/26/2016 16:10:00 0.0
2016_12_27_S12 12/26/2016 16:15:00 0.0
2016_12_27_S12 12/26/2016 16:20:00 0.0
2016_12_27_S12 12/26/2016 16:25:00 0.0
2016_12_27_S12 12/26/2016 16:30:00 0.0
2016_12_27_S12 12/26/2016 16:35:00 0.0
2016_12_27_S12 12/26/2016 16:40:00 0.0
2016_12_27_S12 12/26/2016 16:45:00 0.0
2016_12_27_S12 12/26/2016 16:50:00 0.0
2016_12_27_S12 12/26/2016 16:55:00 0.0
2016_12_27_S12 12/26/2016 17:00:00 0.0
2016_12_27_S12 12/26/2016 17:05:00 0.0
2016_12_27_S12 12/26/2016 17:10:00 0.0
2016_12_27_S12 12/26/2016 17:15:00 0.0
2016_12_27_S12 12/26/2016 17:20:00 0.0
2016_12_27_S12 12/26/2016 17:25:00 0.0
2016_12_27_S12 12/26/2016 17:30:00 0.0
2016_12_27_S12 12/26/2016 17:35:00 0.0
2016_12_27_S12 12/26/2016 17:40:00 0.0
2016_12_27_S12 12/26/2016 17:45:00 0.0
2016_12_27_S12 12/26/2016 17:50:00 0.0
2016_12_27_S12 12/26/2016 17:55:00 0.0
2016_12_27_S12 12/26/2016 18:00:00 0.0
2016_12_27_S12 12/26/2016 18:05:00 0.0
2016_12_27_S12 12/26/2016 18:10:00 0.0
2016_12_27_S12 12/26/2016 18:15:00 0.0
2016_12_27_S12 12/26/2016 18:20:00 0.0
2016_12_27_S12 12/26/2016 18:25:00 0.0
2016_12_27_S12 12/26/2016 18:30:00 0.0
2016_12_27_S12 12/26/2016 18:35:00 0.0
2016_12_27_S12 12/26/2016 18:40:00 0.0
2016_12_27_S12 12/26/2016 18:45:00 0.0
2016_12_27_S12 12/26/2016 18:50:00 0.0
2016_12_27_S12 12/26/2016 18:55:00 0.0
2016_12_27_S12 12/26/2016 19:00:00 0.0
2016_12_27_S12 12/26/2016 19:05:00 0.0
2016_12_27_S12 12/26/2016 19:10:00 0.0
2016_12_27_S12 12/26/2016 19:15:00 0.0
2016_12_27_S12 12/26/2016 19:20:00 0.0
2016_12_27_S12 12/26/2016 19:25:00 0.0
2016_12_27_S12 12/26/2016 19:30:00 0.0
2016_12_27_S12 12/26/2016 19:35:00 0.0
2016_12_27_S12 12/26/2016 19:40:00 0.0
2016_12_27_S12 12/26/2016 19:45:00 0.0
2016_12_27_S12 12/26/2016 19:50:00 0.0
2016_12_27_S12 12/26/2016 19:55:00 0.0
2016_12_27_S12 12/26/2016 20:00:00 0.0
2016_12_27_S12 12/26/2016 20:05:00 0.0
2016_12_27_S12 12/26/2016 20:10:00 0.0
2016_12_27_S12 12/26/2016 20:15:00 0.0
2016_12_27_S12 12/26/2016 20:20:00 0.0
2016_12_27_S12 12/26/2016 20:25:00 0.0
2016_12_27_S12 12/26/2016 20:30:00 0.0
2016_12_27_S12 12/26/2016 20:35:00 0.0
2016_12_27_S12 12/26/2016 20:40:00 0.0
2016_12_27_S12 12/26/2016 20:45:00 0.0
2016_12_27_S12 12/26/2016 20:50:00 0.0
2016_12_27_S12 12/26/2016 20:55:00 0.0
2016_12_27_S12 12/26/2016 21:00:00 0.0
2016_12_27_S12 12/26/2016 21:05:00 0.0
2016_12_27_S12 12/26/2016 21:10:00 0.0
2016_12_27_S12 12/26/2016 21:15:00 0.0
2016_12_27_S12 12/26/2016 21:20:00 0.0
2016_12_27_S12 12/26/2016 21:25:00 0.0
2016_12_27_S12 12/26/2016 21:30:00 0.0
2016_12_27_S12 12/26/2016 21:35:00 0.0
2016_12_27_S12 12/26/2016 21:40:00 0.0
2016_12_27_S12 12/26/2016 21:45:00 0.0
2016_12_27_S12 12/26/2016 21:50:00 0.0
2016_12_27_S12 12/26/2016 21:55:00 0.0
2016_12_27_S12 12/26/2016 22:00:00 0.0
2016_12_27_S12 12/26/2016 22:05:00 0.0
2016_12_27_S12 12/26/2016 22:10:00 0.0
2016_12_27_S12 12/26/2016 22:15:00 0.0
2016_12_27_S12 12/26/2016 22:20:00 0.0
2016_12_27_S12 12/26/2016 22:25:00 0.0
2016_12_27_S12 12/26/2016 22:30:00 0.0
2016_12_27_S12 12/26/2016 22:35:00 0.0
2016_12_27_S12 12/26/2016 22:40:00 0.0
2016_12_27_S12 12/26/2016 22:45:00 0.0
2016_12_27_S12 12/26/2016 22:50:00 0.0
2016_12_27_S12 12/26/2016 22:55:00 0.0
2016_12_27_S12 12/26/2016 23:00:00 0.0
2016_12_27_S12 12/26/2016 23:05:00 0.0
2016_12_27_S12 12/26/2016 23:10:00 0.0
2016_12_27_S12 12/26/2016 23:15:00 0.0
2016_12_27_S12 12/26/2016 23:20:00 0.0
2016_12_27_S12 12/26/2016 23:25:00 0.0
2016_12_27_S12 12/26/2016 23:30:00 0.0
2016_12_27_S12 12/26/2016 23:35:00 0.0
2016_12_27_S12 12/26/2016 23:40:00 0.0
2016_12_27_S12 12/26/2016 23:45:00 0.0
2016_12_27_S12 12/26/2016 23:50:00 0.0
2016_12_27_S12 12/26/2016 23:55:00 0.0
2016_12_27_S12 12/27/2016 00:00:00 0.0
2016_12_27_S12 12/27/2016 00:05:00 0.0
2016_12_27_S12 12/27/2016 00:10:00 0.0
2016_12_27_S12 12/27/2016 00:15:00 0.0
2016_12_27_S12 12/27/2016 00:20:00 0.0
2016_12_27_S12 12/27/2016 00:25:00 0.0
2016_12_27_S12 12/27/2016 00:30:00 0.0
2016_12_27_S12 12/27/2016 00:35:00 0.0
2016_12_27_S12 12/27/2016 00:40:00 0.0
2016_12_27_S12 12/27/2016 00:45:00 0.0
2016_12_27_S12 12/27/2016 00:50:00 0.0
2016_12_27_S12 12/27/2016 00:55:00 0.0
2016_12_27_S12 12/27/2016 01:00:00 0.0003
2016_12_27_S12 12/27/2016 01:05:00 0.0
2016_12_27_S12 12/27/2016 01:10:00 0.0126
2016_12_27_S12 12/27/2016 01:15:00 0.0036
2016_12_27_S12 12/27/2016 01:20:00 0.0058
2016_12_27_S12 12/27/2016 01:25:00 0.0277
2016_12_27_S12 12/27/2016 01:30:00 0.2823
2016_12_27_S12 12/27/2016 01:35:00 0.4393
2016_12_27_S12 12/27/2016 01:40:00 0.3232
2016_12_27_S12 12/27/2016 01:45:00 0.1908
2016_12_27_S12 12/27/2016 01:50:00 0.6326
2016_12_27_S12 12/27/2016 01:55:00 0.1152
2016_12_27_S12 12/27/2016 02:00:00 0.0076
2016_12_27_S12 12/27/2016 02:05:00 0.0408
2016_12_27_S12 12/27/2016 02:10:00 0.0827
2016_12_27_S12 12/27/2016 02:15:00 0.1742
2016_12_27_S12 12/27/2016 02:20:00 0.0698
2016_12_27_S12 12/27/2016 02:25:00 0.1794
2016_12_27_S12 12/27/2016 02:30:00 0.0947
2016_12_27_S12 12/27/2016 02:35:00 0.1089
2016_12_27_S12 12/27/2016 02:40:00 0.2548
2016_12_27_S12 12/27/2016 02:45:00 0.2143
2016_12_27_S12 12/27/2016 02:50:00 0.2771
2016_12_27_S12 12/27/2016 02:55:00 0.3645
2016_12_27_S12 12/27/2016 03:00:00 0.4473
2016_12_27_S12 12/27/2016 03:05:00 0.4327
2016_12_27_S12 12/27/2016 03:10:00 0.3762
2016_12_27_S12 12/27/2016 03:15:00 1.2204
2016_12_27_S12 12/27/2016 03:20:00 0.4999
2016_12_27_S12 12/27/2016 03:25:00 0.5959
2016_12_27_S12 12/27/2016 03:30:00 1.5776
2016_12_27_S12 12/27/2016 03:35:00 0.5442
2016_12_27_S12 12/27/2016 03:40:00 0.31
2016_12_27_S12 12/27/2016 03:45:00 0.3802
2016_12_27_S12 12/27/2016 03:50:00 0.4058
2016_12_27_S12 12/27/2016 03:55:00 0.3597
2016_12_27_S12 12/27/2016 04:00:00 0.1708
2016_12_27_S12 12/27/2016 04:05:00 0.0767
2016_12_27_S12 12/27/2016 04:10:00 0.1586
2016_12_27_S12 12/27/2016 04:15:00 0.1111
2016_12_27_S12 12/27/2016 04:20:00 0.0295
2016_12_27_S12 12/27/2016 04:25:00 0.1328
2016_12_27_S12 12/27/2016 04:30:00 0.0439
2016_12_27_S12 12/27/2016 04:35:00 0.0366
2016_12_27_S12 12/27/2016 04:40:00 0.0232
2016_12_27_S12 12/27/2016 04:45:00 0.0785
2016_12_27_S12 12/27/2016 04:50:00 0.3046
2016_12_27_S12 12/27/2016 04:55:00 0.4837
2016_12_27_S12 12/27/2016 05:00:00 0.4227
2016_12_27_S12 12/27/2016 05:05:00 0.0932
2016_12_27_S12 12/27/2016 05:10:00 0.2049
2016_12_27_S12 12/27/2016 05:15:00 0.3772
2016_12_27_S12 12/27/2016 05:20:00 0.1612
2016_12_27_S12 12/27/2016 05:25:00 0.0771
2016_12_27_S12 12/27/2016 05:30:00 0.0
2016_12_27_S12 12/27/2016 05:35:00 0.0
2016_12_27_S12 12/27/2016 05:40:00 0.0
2016_12_27_S12 12/27/2016 05:45:00 0.0
2016_12_27_S12 12/27/2016 05:50:00 0.0
2016_12_27_S12 12/27/2016 05:55:00 0.0
2016_12_27_S12 12/27/2016 06:00:00 0.0
2016_12_27_S12 12/27/2016 06:05:00 0.0
2016_12_27_S12 12/27/2016 06:10:00 0.0
2016_12_27_S12 12/27/2016 06:15:00 0.0
2016_12_27_S12 12/27/2016 06:20:00 0.0
2016_12_27_S12 12/27/2016 06:25:00 0.0
2016_12_27_S12 12/27/2016 06:30:00 0.0
2016_12_27_S12 12/27/2016 06:35:00 0.0
2016_12_27_S12 12/27/2016 06:40:00 0.0334
2016_12_27_S12 12/27/2016 06:45:00 0.0009
2016_12_27_S12 12/27/2016 06:50:00 0.0206
2016_12_27_S12 12/27/2016 06:55:00 0.0411
2016_12_27_S12 12/27/2016 07:00:00 0.0578
2016_12_27_S12 12/27/2016 07:05:00 0.0285
2016_12_27_S12 12/27/2016 07:10:00 0.2501
2016_12_27_S12 12/27/2016 07:15:00 1.0593
2016_12_27_S12 12/27/2016 07:20:00 1.0698
2016_12_27_S12 12/27/2016 07:25:00 0.4359
2016_12_27_S12 12/27/2016 07:30:00 0.1762
2016_12_27_S12 12/27/2016 07:35:00 0.0769
2016_12_27_S12 12/27/2016 07:40:00 0.0471
2016_12_27_S12 12/27/2016 07:45:00 0.0427
2016_12_27_S12 12/27/2016 07:50:00 0.8345
2016_12_27_S12 12/27/2016 07:55:00 0.4603
2016_12_27_S12 12/27/2016 08:00:00 0.9167
2016_12_27_S12 12/27/2016 08:05:00 1.0496
2016_12_27_S12 12/27/2016 08:10:00 0.4957
2016_12_27_S12 12/27/2016 08:15:00 0.3839
2016_12_27_S12 12/27/2016 08:20:00 0.6651
2016_12_27_S12 12/27/2016 08:25:00 0.0175
2016_12_27_S12 12/27/2016 08:30:00 0.1781
2016_12_27_S12 12/27/2016 08:35:00 0.1928
2016_12_27_S12 12/27/2016 08:40:00 0.8474
2016_12_27_S12 12/27/2016 08:45:00 0.2426
2016_12_27_S12 12/27/2016 08:50:00 0.0889
2016_12_27_S12 12/27/2016 08:55:00 0.0899
2016_12_27_S12 12/27/2016 09:00:00 0.9554
2016_12_27_S12 12/27/2016 09:05:00 0.2583
2016_12_27_S12 12/27/2016 09:10:00 0.0667
2016_12_27_S12 12/27/2016 09:15:00 1.2155
2016_12_27_S12 12/27/2016 09:20:00 0.284
2016_12_27_S12 12/27/2016 09:25:00 0.9559
2016_12_27_S12 12/27/2016 09:30:00 0.3595
2016_12_27_S12 12/27/2016 09:35:00 0.6888
2016_12_27_S12 12/27/2016 09:40:00 0.483
2016_12_27_S12 12/27/2016 09:45:00 0.3344
2016_12_27_S12 12/27/2016 09:50:00 0.0075
2016_12_27_S12 12/27/2016 09:55:00 0.0811
2016_12_27_S12 12/27/2016 10:00:00 0.3
2016_12_27_S12 12/27/2016 10:05:00 0.6665
2016_12_27_S12 12/27/2016 10:10:00 0.1146
2016_12_27_S12 12/27/2016 10:15:00 0.1285
2016_12_27_S12 12/27/2016 10:20:00 0.0465
2016_12_27_S12 12/27/2016 10:25:00 0.0761
2016_12_27_S12 12/27/2016 10:30:00 0.0168
2016_12_27_S12 12/27/2016 10:35:00 0.0383
2016_12_27_S12 12/27/2016 10:40:00 0.0
2016_12_27_S12 12/27/2016 10:45:00 0.3424
2016_12_27_S12 12/27/2016 10:50:00 0.9232
2016_12_27_S12 12/27/2016 10:55:00 0.4006
2016_12_27_S12 12/27/2016 11:00:00 0.4087
2016_12_27_S12 12/27/2016 11:05:00 0.1391
2016_12_27_S12 12/27/2016 11:10:00 0.0643
2016_12_27_S12 12/27/2016 11:15:00 0.1333
2016_12_27_S12 12/27/2016 11:20:00 0.3903
2016_12_27_S12 12/27/2016 11:25:00 0.5415
2016_12_27_S12 12/27/2016 11:30:00 0.8164
2016_12_27_S12 12/27/2016 11:35:00 1.1626
2016_12_27_S12 12/27/2016 11:40:00 0.6354
2016_12_27_S12 12/27/2016 11:45:00 0.9691
2016_12_27_S12 12/27/2016 11:50:00 1.9819
2016_12_27_S12 12/27/2016 11:55:00 0.549
2016_12_27_S12 12/27/2016 12:00:00 0.3427
2016_12_27_S12 12/27/2016 12:05:00 0.5926
2016_12_27_S12 12/27/2016 12:10:00 0.258
2016_12_27_S12 12/27/2016 12:15:00 1.5944
2016_12_27_S12 12/27/2016 12:20:00 0.2032
2016_12_27_S12 12/27/2016 12:25:00 0.5966
2016_12_27_S12 12/27/2016 12:30:00 0.1023
2016_12_27_S12 12/27/2016 12:35:00 0.0597
2016_12_27_S12 12/27/2016 12:40:00 0.0338
2016_12_27_S12 12/27/2016 12:45:00 0.0104
2016_12_27_S12 12/27/2016 12:50:00 0.0073
2016_12_27_S12 12/27/2016 12:55:00 0.005
2016_12_27_S12 12/27/2016 13:00:00 0.0405
2016_12_27_S12 12/27/2016 13:05:00 0.0
2016_12_27_S12 12/27/2016 13:10:00 0.0
2016_12_27_S12 12/27/2016 13:15:00 0.0
2016_12_27_S12 12/27/2016 13:20:00 0.0
2016_12_27_S12 12/27/2016 13:25:00 0.0466
2016_12_27_S12 12/27/2016 13:30:00 0.35
2016_12_27_S12 12/27/2016 13:35:00 0.1526
2016_12_27_S12 12/27/2016 13:40:00 0.2248
2016_12_27_S12 12/27/2016 13:45:00 0.1905
2016_12_27_S12 12/27/2016 13:50:00 0.1052
2016_12_27_S12 12/27/2016 13:55:00 0.1839
2016_12_27_S12 12/27/2016 14:00:00 0.2221
2016_12_27_S12 12/27/2016 14:05:00 0.1062
2016_12_27_S12 12/27/2016 14:10:00 0.0085
2016_12_27_S12 12/27/2016 14:15:00 0.0014
2016_12_27_S12 12/27/2016 14:20:00 0.0206
2016_12_27_S12 12/27/2016 14:25:00 0.0183
2016_12_27_S12 12/27/2016 14:30:00 0.006
2016_12_27_S12 12/27/2016 14:35:00 0.0
2016_12_27_S12 12/27/2016 14:40:00 0.0
2016_12_27_S12 12/27/2016 14:45:00 0.0
2016_12_27_S12 12/27/2016 14:50:00 0.0
2016_12_27_S12 12/27/2016 14:55:00 0.0
2016_12_27_S12 12/27/2016 15:00:00 0.0
2016_12_27_S12 12/27/2016 15:05:00 0.0
2016_12_27_S12 12/27/2016 15:10:00 0.0034
2016_12_27_S12 12/27/2016 15:15:00 0.0
2016_12_27_S12 12/27/2016 15:20:00 0.0186
2016_12_27_S12 12/27/2016 15:25:00 0.0026
2016_12_27_S12 12/27/2016 15:30:00 0.0
2016_12_27_S12 12/27/2016 15:35:00 0.0
2016_12_27_S12 12/27/2016 15:40:00 0.0
2016_12_27_S12 12/27/2016 15:45:00 0.0032
2016_12_27_S12 12/27/2016 15:50:00 0.0
2016_12_27_S12 12/27/2016 15:55:00 0.0
2016_12_27_S12 12/27/2016 16:00:00 0.0014
2016_12_27_S12 12/27/2016 16:05:00 0.0118
2016_12_27_S12 12/27/2016 16:10:00 0.0034
2016_12_27_S12 12/27/2016 16:15:00 0.0065
2016_12_27_S12 12/27/2016 16:20:00 0.0
2016_12_27_S12 12/27/2016 16:25:00 0.0
2016_12_27_S12 12/27/2016 16:30:00 0.0
2016_12_27_S12 12/27/2016 16:35:00 0.0
2016_12_27_S12 12/27/2016 16:40:00 0.0708
2016_12_27_S12 12/27/2016 16:45:00 0.1831
2016_12_27_S12 12/27/2016 16:50:00 0.0
2016_12_27_S12 12/27/2016 16:55:00 0.0
2016_12_27_S12 12/27/2016 17:00:00 0.0
2016_12_27_S12 12/27/2016 17:05:00 0.0
2016_12_27_S12 12/27/2016 17:10:00 0.0
2016_12_27_S12 12/27/2016 17:15:00 0.0
2016_12_27_S12 12/27/2016 17:20:00 0.0
2016_12_27_S12 12/27/2016 17:25:00 0.0
2016_12_27_S12 12/27/2016 17:30:00 0.0
2016_12_27_S12 12/27/2016 17:35:00 0.0
2016_12_27_S12 12/27/2016 17:40:00 0.0222
2016_12_27_S12 12/27/2016 17:45:00 0.1214
2016_12_27_S12 12/27/2016 17:50:00 0.027
2016_12_27_S12 12/27/2016 17:55:00 0.0
2016_12_27_S12 12/27/2016 18:00:00 0.0
2016_12_27_S12 12/27/2016 18:05:00 0.0
2016_12_27_S12 12/27/2016 18:10:00 0.0
2016_12_27_S12 12/27/2016 18:15:00 0.0
2016_12_27_S12 12/27/2016 18:20:00 0.0078
2016_12_27_S12 12/27/2016 18:25:00 0.0112
2016_12_27_S12 12/27/2016 18:30:00 0.0192
2016_12_27_S12 12/27/2016 18:35:00 0.0577
2016_12_27_S12 12/27/2016 18:40:00 0.0
2016_12_27_S12 12/27/2016 18:45:00 0.0
2016_12_27_S12 12/27/2016 18:50:00 0.0
2016_12_27_S12 12/27/2016 18:55:00 0.0
2016_12_27_S12 12/27/2016 19:00:00 0.0
2016_12_27_S12 12/27/2016 19:05:00 0.0
2016_12_27_S12 12/27/2016 19:10:00 0.0
2016_12_27_S12 12/27/2016 19:15:00 0.0
2016_12_27_S12 12/27/2016 19:20:00 0.0
2016_12_27_S12 12/27/2016 19:25:00 0.0
2016_12_27_S12 12/27/2016 19:30:00 0.0
2016_12_27_S12 12/27/2016 19:35:00 0.0149
2016_12_27_S12 12/27/2016 19:40:00 0.0
2016_12_27_S12 12/27/2016 19:45:00 0.0161
2016_12_27_S12 12/27/2016 19:50:00 0.0189
2016_12_27_S12 12/27/2016 19:55:00 0.9534
2016_12_27_S12 12/27/2016 20:00:00 0.0285
2016_12_27_S12 12/27/2016 20:05:00 0.0
2016_12_27_S12 12/27/2016 20:10:00 0.0
2016_12_27_S12 12/27/2016 20:15:00 0.0
2016_12_27_S12 12/27/2016 20:20:00 0.0056
2016_12_27_S12 12/27/2016 20:25:00 0.0507
2016_12_27_S12 12/27/2016 20:30:00 0.3082
2016_12_27_S12 12/27/2016 20:35:00 0.0914
2016_12_27_S12 12/27/2016 20:40:00 0.0
2016_12_27_S12 12/27/2016 20:45:00 0.0
2016_12_27_S12 12/27/2016 20:50:00 0.0
2016_12_27_S12 12/27/2016 20:55:00 0.0
2016_12_27_S12 12/27/2016 21:00:00 0.0
2016_12_27_S12 12/27/2016 21:05:00 0.0
2016_12_27_S12 12/27/2016 21:10:00 0.0
2016_12_27_S12 12/27/2016 21:15:00 0.0
2016_12_27_S12 12/27/2016 21:20:00 0.0
2016_12_27_S12 12/27/2016 21:25:00 0.0
2016_12_27_S12 12/27/2016 21:30:00 0.0
2016_12_27_S12 12/27/2016 21:35:00 0.0
2016_12_27_S12 12/27/2016 21:40:00 0.0
2016_12_27_S12 12/27/2016 21:45:00 0.0
2016_12_27_S12 12/27/2016 21:50:00 0.0
2016_12_27_S12 12/27/2016 21:55:00 0.0
2016_12_27_S12 12/27/2016 22:00:00 0.0
2016_12_27_S12 12/27/2016 22:05:00 0.0
2016_12_27_S12 12/27/2016 22:10:00 0.0
2016_12_27_S12 12/27/2016 22:15:00 0.0
2016_12_27_S12 12/27/2016 22:20:00 0.0
2016_12_27_S12 12/27/2016 22:25:00 0.0
2016_12_27_S12 12/27/2016 22:30:00 0.0197
2016_12_27_S12 12/27/2016 22:35:00 0.0264
2016_12_27_S12 12/27/2016 22:40:00 0.0
2016_12_27_S12 12/27/2016 22:45:00 0.0
2016_12_27_S12 12/27/2016 22:50:00 0.037
2016_12_27_S12 12/27/2016 22:55:00 0.0021
2016_12_27_S12 12/27/2016 23:00:00 0.0341
2016_12_27_S12 12/27/2016 23:05:00 0.0236
2016_12_27_S12 12/27/2016 23:10:00 0.0
2016_12_27_S12 12/27/2016 23:15:00 0.0
2016_12_27_S12 12/27/2016 23:20:00 0.0004
2016_12_27_S12 12/27/2016 23:25:00 0.0
2016_12_27_S12 12/27/2016 23:30:00 0.0
2016_12_27_S12 12/27/2016 23:35:00 0.0
2016_12_27_S12 12/27/2016 23:40:00 0.0
2016_12_27_S12 12/27/2016 23:45:00 0.0
2016_12_27_S12 12/27/2016 23:50:00 0.0
2016_12_27_S12 12/27/2016 23:55:00 0.0
2016_12_27_S12 12/28/2016 00:00:00 0.0
2016_12_27_S12 12/28/2016 00:05:00 0.0
2016_12_27_S12 12/28/2016 00:10:00 0.0
2016_12_27_S12 12/28/2016 00:15:00 0.0
2016_12_27_S12 12/28/2016 00:20:00 0.0
2016_12_27_S12 12/28/2016 00:25:00 0.0
2016_12_27_S12 12/28/2016 00:30:00 0.0
2016_12_27_S12 12/28/2016 00:35:00 0.0
2016_12_27_S12 12/28/2016 00:40:00 0.0
2016_12_27_S12 12/28/2016 00:45:00 0.0
2016_12_27_S12 12/28/2016 00:50:00 0.0
2016_12_27_S12 12/28/2016 00:55:00 0.0
2016_12_27_S12 12/28/2016 01:00:00 0.0
2016_12_27_S12 12/28/2016 01:05:00 0.0
2016_12_27_S12 12/28/2016 01:10:00 0.0
2016_12_27_S12 12/28/2016 01:15:00 0.0
2016_12_27_S12 12/28/2016 01:20:00 0.0
2016_12_27_S12 12/28/2016 01:25:00 0.0
2016_12_27_S12 12/28/2016 01:30:00 0.0
2016_12_27_S12 12/28/2016 01:35:00 0.0
2016_12_27_S12 12/28/2016 01:40:00 0.0
2016_12_27_S12 12/28/2016 01:45:00 0.0
2016_12_27_S12 12/28/2016 01:50:00 0.0
2016_12_27_S12 12/28/2016 01:55:00 0.0
2016_12_27_S12 12/28/2016 02:00:00 0.0
2016_12_27_S12 12/28/2016 02:05:00 0.0
2016_12_27_S12 12/28/2016 02:10:00 0.0
2016_12_27_S12 12/28/2016 02:15:00 0.0
2016_12_27_S12 12/28/2016 02:20:00 0.0
2016_12_27_S12 12/28/2016 02:25:00 0.0
2016_12_27_S12 12/28/2016 02:30:00 0.0
2016_12_27_S12 12/28/2016 02:35:00 0.0
2016_12_27_S12 12/28/2016 02:40:00 0.0
2016_12_27_S12 12/28/2016 02:45:00 0.0
2016_12_27_S12 12/28/2016 02:50:00 0.0
2016_12_27_S12 12/28/2016 02:55:00 0.0
2016_12_27_S12 12/28/2016 03:00:00 0.0
2016_12_27_S12 12/28/2016 03:05:00 0.0
2016_12_27_S12 12/28/2016 03:10:00 0.0
2016_12_27_S12 12/28/2016 03:15:00 0.0
2016_12_27_S12 12/28/2016 03:20:00 0.0
2016_12_27_S12 12/28/2016 03:25:00 0.0
2016_12_27_S12 12/28/2016 03:30:00 0.0
2016_12_27_S12 12/28/2016 03:35:00 0.0
2016_12_27_S12 12/28/2016 03:40:00 0.0
2016_12_27_S12 12/28/2016 03:45:00 0.0
2016_12_27_S12 12/28/2016 03:50:00 0.0
2016_12_27_S12 12/28/2016 03:55:00 0.0
2016_12_27_S12 12/28/2016 04:00:00 0.0
2016_12_27_S12 12/28/2016 04:05:00 0.0
2016_12_27_S12 12/28/2016 04:10:00 0.0
2016_12_27_S12 12/28/2016 04:15:00 0.0
2016_12_27_S12 12/28/2016 04:20:00 0.0
2016_12_27_S12 12/28/2016 04:25:00 0.0
2016_12_27_S12 12/28/2016 04:30:00 0.0
2016_12_27_S12 12/28/2016 04:35:00 0.0
2016_12_27_S12 12/28/2016 04:40:00 0.0
2016_12_27_S12 12/28/2016 04:45:00 0.0
2016_12_27_S12 12/28/2016 04:50:00 0.0
2016_12_27_S12 12/28/2016 04:55:00 0.0
2016_12_27_S12 12/28/2016 05:00:00 0.0
2016_12_27_S12 12/28/2016 05:05:00 0.0
2016_12_27_S12 12/28/2016 05:10:00 0.0
2016_12_27_S12 12/28/2016 05:15:00 0.0
2016_12_27_S12 12/28/2016 05:20:00 0.0
2016_12_27_S12 12/28/2016 05:25:00 0.0
2016_12_27_S12 12/28/2016 05:30:00 0.0
2016_12_27_S12 12/28/2016 05:35:00 0.0
2016_12_27_S12 12/28/2016 05:40:00 0.0
2016_12_27_S12 12/28/2016 05:45:00 0.0
2016_12_27_S12 12/28/2016 05:50:00 0.0
2016_12_27_S12 12/28/2016 05:55:00 0.0
2016_12_27_S12 12/28/2016 06:00:00 0.0
2016_12_27_S12 12/28/2016 06:05:00 0.0
2016_12_27_S12 12/28/2016 06:10:00 0.0
2016_12_27_S12 12/28/2016 06:15:00 0.0
2016_12_27_S12 12/28/2016 06:20:00 0.0
2016_12_27_S12 12/28/2016 06:25:00 0.0
2016_12_27_S12 12/28/2016 06:30:00 0.0
2016_12_27_S12 12/28/2016 06:35:00 0.0
2016_12_27_S12 12/28/2016 06:40:00 0.0
2016_12_27_S12 12/28/2016 06:45:00 0.0
2016_12_27_S12 12/28/2016 06:50:00 0.0
2016_12_27_S12 12/28/2016 06:55:00 0.0
2016_12_27_S12 12/28/2016 07:00:00 0.0
2016_12_27_S12 12/28/2016 07:05:00 0.0
2016_12_27_S12 12/28/2016 07:10:00 0.0
2016_12_27_S12 12/28/2016 07:15:00 0.0
2016_12_27_S12 12/28/2016 07:20:00 0.0
2016_12_27_S12 12/28/2016 07:25:00 0.0
2016_12_27_S12 12/28/2016 07:30:00 0.0
2016_12_27_S12 12/28/2016 07:35:00 0.0
2016_12_27_S12 12/28/2016 07:40:00 0.0
2016_12_27_S12 12/28/2016 07:45:00 0.0
2016_12_27_S12 12/28/2016 07:50:00 0.0
2016_12_27_S12 12/28/2016 07:55:00 0.0
2016_12_27_S12 12/28/2016 08:00:00 0.0

2016_12_27_S13 12/26/2016 08:00:00 0.0
2016_12_27_S13 12/26/2016 08:05:00 0.001
2016_12_27_S13 12/26/2016 08:10:00 0.0
2016_12_27_S13 12/26/2016 08:15:00 0.0
2016_12_27_S13 12/26/2016 08:20:00 0.0
2016_12_27_S13 12/26/2016 08:25:00 0.0
2016_12_27_S13 12/26/2016 08:30:00 0.0
2016_12_27_S13 12/26/2016 08:35:00 0.0
2016_12_27_S13 12/26/2016 08:40:00 0.0
2016_12_27_S13 12/26/2016 08:45:00 0.0
2016_12_27_S13 12/26/2016 08:50:00 0.0
2016_12_27_S13 12/26/2016 08:55:00 0.0
2016_12_27_S13 12/26/2016 09:00:00 0.0
2016_12_27_S13 12/26/2016 09:05:00 0.0051
2016_12_27_S13 12/26/2016 09:10:00 0.0213
2016_12_27_S13 12/26/2016 09:15:00 0.0565
2016_12_27_S13 12/26/2016 09:20:00 0.0205
2016_12_27_S13 12/26/2016 09:25:00 0.0
2016_12_27_S13 12/26/2016 09:30:00 0.0
2016_12_27_S13 12/26/2016 09:35:00 0.0
2016_12_27_S13 12/26/2016 09:40:00 0.0
2016_12_27_S13 12/26/2016 09:45:00 0.0
2016_12_27_S13 12/26/2016 09:50:00 0.0
2016_12_27_S13 12/26/2016 09:55:00 0.0
2016_12_27_S13 12/26/2016 10:00:00 0.0
2016_12_27_S13 12/26/2016 10:05:00 0.0
2016_12_27_S13 12/26/2016 10:10:00 0.0
2016_12_27_S13 12/26/2016 10:15:00 0.0
2016_12_27_S13 12/26/2016 10:20:00 0.0
2016_12_27_S13 12/26/2016 10:25:00 0.0
2016_12_27_S13 12/26/2016 10:30:00 0.0
2016_12_27_S13 12/26/2016 10:35:00 0.0
2016_12_27_S13 12/26/2016 10:40:00 0.0
2016_12_27_S13 12/26/2016 10:45:00 0.0
2016_12_27_S13 12/26/2016 10:50:00 0.0119
2016_12_27_S13 12/26/2016 10:55:00 0.0023
2016_12_27_S13 12/26/2016 11:00:00 0.0
2016_12_27_S13 12/26/2016 11:05:00 0.0
2016_12_27_S13 12/26/2016 11:10:00 0.0
2016_12_27_S13 12/26/2016 11:15:00 0.0
2016_12_27_S13 12/26/2016 11:20:00 0.0
2016_12_27_S13 12/26/2016 11:25:00 0.0
2016_12_27_S13 12/26/2016 11:30:00 0.0
2016_12_27_S13 12/26/2016 11:35:00 0.0
2016_12_27_S13 12/26/2016 11:40:00 0.0
2016_12_27_S13 12/26/2016 11:45:00 0.0012
2016_12_27_S13 12/26/2016 11:50:00 0.0055
2016_12_27_S13 12/26/2016 11:55:00 0.0039
2016_12_27_S13 12/26/2016 12:00:00 0.0207
2016_12_27_S13 12/26/2016 12:05:00 0.1299
2016_12_27_S13 12/26/2016 12:10:00 0.0783
2016_12_27_S13 12/26/2016 12:15:00 0.0
2016_12_27_S13 12/26/2016 12:20:00 0.0
2016_12_27_S13 12/26/2016 12:25:00 0.0
2016_12_27_S13 12/26/2016 12:30:00 0.0
2016_12_27_S13 12/26/2016 12:35:00 0.0113
2016_12_27_S13 12/26/2016 12:40:00 0.0148
2016_12_27_S13 12/26/2016 12:45:00 0.0049
2016_12_27_S13 12/26/2016 12:50:00 0.0
2016_12_27_S13 12/26/2016 12:55:00 0.0
2016_12_27_S13 12/26/2016 13:00:00 0.0
2016_12_27_S13 12/26/2016 13:05:00 0.0
2016_12_27_S13 12/26/2016 13:10:00 0.0
2016_12_27_S13 12/26/2016 13:15:00 0.0
2016_12_27_S13 12/26/2016 13:20:00 0.0
2016_12_27_S13 12/26/2016 13:25:00 0.0
2016_12_27_S13 12/26/2016 13:30:00 0.0
2016_12_27_S13 12/26/2016 13:35:00 0.0
2016_12_27_S13 12/26/2016 13:40:00 0.0
2016_12_27_S13 12/26/2016 13:45:00 0.0
2016_12_27_S13 12/26/2016 13:50:00 0.0
2016_12_27_S13 12/26/2016 13:55:00 0.0
2016_12_27_S13 12/26/2016 14:00:00 0.0
2016_12_27_S13 12/26/2016 14:05:00 0.0
2016_12_27_S13 12/26/2016 14:10:00 0.0
2016_12_27_S13 12/26/2016 14:15:00 0.0
2016_12_27_S13 12/26/2016 14:20:00 0.0
2016_12_27_S13 12/26/2016 14:25:00 0.0
2016_12_27_S13 12/26/2016 14:30:00 0.0
2016_12_27_S13 12/26/2016 14:35:00 0.0
2016_12_27_S13 12/26/2016 14:40:00 0.0
2016_12_27_S13 12/26/2016 14:45:00 0.0
2016_12_27_S13 12/26/2016 14:50:00 0.0
2016_12_27_S13 12/26/2016 14:55:00 0.0
2016_12_27_S13 12/26/2016 15:00:00 0.0
2016_12_27_S13 12/26/2016 15:05:00 0.0
2016_12_27_S13 12/26/2016 15:10:00 0.0
2016_12_27_S13 12/26/2016 15:15:00 0.0
2016_12_27_S13 12/26/2016 15:20:00 0.0
2016_12_27_S13 12/26/2016 15:25:00 0.0
2016_12_27_S13 12/26/2016 15:30:00 0.0
2016_12_27_S13 12/26/2016 15:35:00 0.0
2016_12_27_S13 12/26/2016 15:40:00 0.0
2016_12_27_S13 12/26/2016 15:45:00 0.0
2016_12_27_S13 12/26/2016 15:50:00 0.0
2016_12_27_S13 12/26/2016 15:55:00 0.0
2016_12_27_S13 12/26/2016 16:00:00 0.0
2016_12_27_S13 12/26/2016 16:05:00 0.0
2016_12_27_S13 12/26/2016 16:10:00 0.0
2016_12_27_S13 12/26/2016 16:15:00 0.0
2016_12_27_S13 12/26/2016 16:20:00 0.0
2016_12_27_S13 12/26/2016 16:25:00 0.0
2016_12_27_S13 12/26/2016 16:30:00 0.0
2016_12_27_S13 12/26/2016 16:35:00 0.0
2016_12_27_S13 12/26/2016 16:40:00 0.0
2016_12_27_S13 12/26/2016 16:45:00 0.0
2016_12_27_S13 12/26/2016 16:50:00 0.0
2016_12_27_S13 12/26/2016 16:55:00 0.0
2016_12_27_S13 12/26/2016 17:00:00 0.0
2016_12_27_S13 12/26/2016 17:05:00 0.0
2016_12_27_S13 12/26/2016 17:10:00 0.0
2016_12_27_S13 12/26/2016 17:15:00 0.0
2016_12_27_S13 12/26/2016 17:20:00 0.0
2016_12_27_S13 12/26/2016 17:25:00 0.0
2016_12_27_S13 12/26/2016 17:30:00 0.0
2016_12_27_S13 12/26/2016 17:35:00 0.0
2016_12_27_S13 12/26/2016 17:40:00 0.0
2016_12_27_S13 12/26/2016 17:45:00 0.0
2016_12_27_S13 12/26/2016 17:50:00 0.0
2016_12_27_S13 12/26/2016 17:55:00 0.0
2016_12_27_S13 12/26/2016 18:00:00 0.0
2016_12_27_S13 12/26/2016 18:05:00 0.0
2016_12_27_S13 12/26/2016 18:10:00 0.0
2016_12_27_S13 12/26/2016 18:15:00 0.0
2016_12_27_S13 12/26/2016 18:20:00 0.0
2016_12_27_S13 12/26/2016 18:25:00 0.0
2016_12_27_S13 12/26/2016 18:30:00 0.0
2016_12_27_S13 12/26/2016 18:35:00 0.0
2016_12_27_S13 12/26/2016 18:40:00 0.0
2016_12_27_S13 12/26/2016 18:45:00 0.0
2016_12_27_S13 12/26/2016 18:50:00 0.0
2016_12_27_S13 12/26/2016 18:55:00 0.0
2016_12_27_S13 12/26/2016 19:00:00 0.0
2016_12_27_S13 12/26/2016 19:05:00 0.0
2016_12_27_S13 12/26/2016 19:10:00 0.0
2016_12_27_S13 12/26/2016 19:15:00 0.0
2016_12_27_S13 12/26/2016 19:20:00 0.0
2016_12_27_S13 12/26/2016 19:25:00 0.0
2016_12_27_S13 12/26/2016 19:30:00 0.0
2016_12_27_S13 12/26/2016 19:35:00 0.0
2016_12_27_S13 12/26/2016 19:40:00 0.0
2016_12_27_S13 12/26/2016 19:45:00 0.0
2016_12_27_S13 12/26/2016 19:50:00 0.0
2016_12_27_S13 12/26/2016 19:55:00 0.0
2016_12_27_S13 12/26/2016 20:00:00 0.0
2016_12_27_S13 12/26/2016 20:05:00 0.0
2016_12_27_S13 12/26/2016 20:10:00 0.0
2016_12_27_S13 12/26/2016 20:15:00 0.0
2016_12_27_S13 12/26/2016 20:20:00 0.0
2016_12_27_S13 12/26/2016 20:25:00 0.0
2016_12_27_S13 12/26/2016 20:30:00 0.0
2016_12_27_S13 12/26/2016 20:35:00 0.0
2016_12_27_S13 12/26/2016 20:40:00 0.0
2016_12_27_S13 12/26/2016 20:45:00 0.0
2016_12_27_S13 12/26/2016 20:50:00 0.0
2016_12_27_S13 12/26/2016 20:55:00 0.0
2016_12_27_S13 12/26/2016 21:00:00 0.0
2016_12_27_S13 12/26/2016 21:05:00 0.0
2016_12_27_S13 12/26/2016 21:10:00 0.0
2016_12_27_S13 12/26/2016 21:15:00 0.0
2016_12_27_S13 12/26/2016 21:20:00 0.0
2016_12_27_S13 12/26/2016 21:25:00 0.0
2016_12_27_S13 12/26/2016 21:30:00 0.0
2016_12_27_S13 12/26/2016 21:35:00 0.0
2016_12_27_S13 12/26/2016 21:40:00 0.0
2016_12_27_S13 12/26/2016 21:45:00 0.0
2016_12_27_S13 12/26/2016 21:50:00 0.0
2016_12_27_S13 12/26/2016 21:55:00 0.0
2016_12_27_S13 12/26/2016 22:00:00 0.0
2016_12_27_S13 12/26/2016 22:05:00 0.0
2016_12_27_S13 12/26/2016 22:10:00 0.0
2016_12_27_S13 12/26/2016 22:15:00 0.0
2016_12_27_S13 12/26/2016 22:20:00 0.0
2016_12_27_S13 12/26/2016 22:25:00 0.0
2016_12_27_S13 12/26/2016 22:30:00 0.0
2016_12_27_S13 12/26/2016 22:35:00 0.0
2016_12_27_S13 12/26/2016 22:40:00 0.0
2016_12_27_S13 12/26/2016 22:45:00 0.0
2016_12_27_S13 12/26/2016 22:50:00 0.0
2016_12_27_S13 12/26/2016 22:55:00 0.0
2016_12_27_S13 12/26/2016 23:00:00 0.0
2016_12_27_S13 12/26/2016 23:05:00 0.0
2016_12_27_S13 12/26/2016 23:10:00 0.0
2016_12_27_S13 12/26/2016 23:15:00 0.0
2016_12_27_S13 12/26/2016 23:20:00 0.0
2016_12_27_S13 12/26/2016 23:25:00 0.0
2016_12_27_S13 12/26/2016 23:30:00 0.0
2016_12_27_S13 12/26/2016 23:35:00 0.0
2016_12_27_S13 12/26/2016 23:40:00 0.0
2016_12_27_S13 12/26/2016 23:45:00 0.0
2016_12_27_S13 12/26/2016 23:50:00 0.0
2016_12_27_S13 12/26/2016 23:55:00 0.0
2016_12_27_S13 12/27/2016 00:00:00 0.0
2016_12_27_S13 12/27/2016 00:05:00 0.0
2016_12_27_S13 12/27/2016 00:10:00 0.0
2016_12_27_S13 12/27/2016 00:15:00 0.0
2016_12_27_S13 12/27/2016 00:20:00 0.0
2016_12_27_S13 12/27/2016 00:25:00 0.0
2016_12_27_S13 12/27/2016 00:30:00 0.0
2016_12_27_S13 12/27/2016 00:35:00 0.0
2016_12_27_S13 12/27/2016 00:40:00 0.0
2016_12_27_S13 12/27/2016 00:45:00 0.0
2016_12_27_S13 12/27/2016 00:50:00 0.0
2016_12_27_S13 12/27/2016 00:55:00 0.0
2016_12_27_S13 12/27/2016 01:00:00 0.0006
2016_12_27_S13 12/27/2016 01:05:00 0.0
2016_12_27_S13 12/27/2016 01:10:00 0.0037
2016_12_27_S13 12/27/2016 01:15:00 0.0011
2016_12_27_S13 12/27/2016 01:20:00 0.0124
2016_12_27_S13 12/27/2016 01:25:00 0.0559
2016_12_27_S13 12/27/2016 01:30:00 0.1355
2016_12_27_S13 12/27/2016 01:35:00 0.587
2016_12_27_S13 12/27/2016 01:40:00 0.353
2016_12_27_S13 12/27/2016 01:45:00 0.4436
2016_12_27_S13 12/27/2016 01:50:00 0.8339
2016_12_27_S13 12/27/2016 01:55:00 0.4465
2016_12_27_S13 12/27/2016 02:00:00 0.0062
2016_12_27_S13 12/27/2016 02:05:00 0.0235
2016_12_27_S13 12/27/2016 02:10:00 0.0506
2016_12_27_S13 12/27/2016 02:15:00 0.1154
2016_12_27_S13 12/27/2016 02:20:00 0.0696
2016_12_27_S13 12/27/2016 02:25:00 0.2221
2016_12_27_S13 12/27/2016 02:30:00 0.0621
2016_12_27_S13 12/27/2016 02:35:00 0.142
2016_12_27_S13 12/27/2016 02:40:00 0.2731
2016_12_27_S13 12/27/2016 02:45:00 0.2461
2016_12_27_S13 12/27/2016 02:50:00 0.3578
2016_12_27_S13 12/27/2016 02:55:00 0.4323
2016_12_27_S13 12/27/2016 03:00:00 0.5613
2016_12_27_S13 12/27/2016 03:05:00 0.4972
2016_12_27_S13 12/27/2016 03:10:00 0.4802
2016_12_27_S13 12/27/2016 03:15:00 0.8408
2016_12_27_S13 12/27/2016 03:20:00 0.9625
2016_12_27_S13 12/27/2016 03:25:00 0.5827
2016_12_27_S13 12/27/2016 03:30:00 1.0801
2016_12_27_S13 12/27/2016 03:35:00 0.4693
2016_12_27_S13 12/27/2016 03:40:00 0.3749
2016_12_27_S13 12/27/2016 03:45:00 0.2542
2016_12_27_S13 12/27/2016 03:50:00 0.2418
2016_12_27_S13 12/27/2016 03:55:00 0.4673
2016_12_27_S13 12/27/2016 04:00:00 0.1839
2016_12_27_S13 12/27/2016 04:05:00 0.0819
2016_12_27_S13 12/27/2016 04:10:00 0.2555
2016_12_27_S13 12/27/2016 04:15:00 0.1323
2016_12_27_S13 12/27/2016 04:20:00 0.0436
2016_12_27_S13 12/27/2016 04:25:00 0.1276
2016_12_27_S13 12/27/2016 04:30:00 0.0498
2016_12_27_S13 12/27/2016 04:35:00 0.0462
2016_12_27_S13 12/27/2016 04:40:00 0.0278
2016_12_27_S13 12/27/2016 04:45:00 0.0497
2016_12_27_S13 12/27/2016 04:50:00 0.2632
2016_12_27_S13 12/27/2016 04:55:00 0.3868
2016_12_27_S13 12/27/2016 05:00:00 0.5181
2016_12_27_S13 12/27/2016 05:05:00 0.115
2016_12_27_S13 12/27/2016 05:10:00 0.2405
2016_12_27_S13 12/27/2016 05:15:00 0.2962
2016_12_27_S13 12/27/2016 05:20:00 0.2307
2016_12_27_S13 12/27/2016 05:25:00 0.1083
2016_12_27_S13 12/27/2016 05:30:00 0.0
2016_12_27_S13 12/27/2016 05:35:00 0.0
2016_12_27_S13 12/27/2016 05:40:00 0.0
2016_12_27_S13 12/27/2016 05:45:00 0.0
2016_12_27_S13 12/27/2016 05:50:00 0.0
2016_12_27_S13 12/27/2016 05:55:00 0.0
2016_12_27_S13 12/27/2016 06:00:00 0.0
2016_12_27_S13 12/27/2016 06:05:00 0.0
2016_12_27_S13 12/27/2016 06:10:00 0.0
2016_12_27_S13 12/27/2016 06:15:00 0.0
2016_12_27_S13 12/27/2016 06:20:00 0.0
2016_12_27_S13 12/27/2016 06:25:00 0.0
2016_12_27_S13 12/27/2016 06:30:00 0.0
2016_12_27_S13 12/27/2016 06:35:00 0.0
2016_12_27_S13 12/27/2016 06:40:00 0.0093
2016_12_27_S13 12/27/2016 06:45:00 0.0309
2016_12_27_S13 12/27/2016 06:50:00 0.0052
2016_12_27_S13 12/27/2016 06:55:00 0.0711
2016_12_27_S13 12/27/2016 07:00:00 0.0959
2016_12_27_S13 12/27/2016 07:05:00 0.0182
2016_12_27_S13 12/27/2016 07:10:00 0.2713
2016_12_27_S13 12/27/2016 07:15:00 1.2185
2016_12_27_S13 12/27/2016 07:20:00 0.8369
2016_12_27_S13 12/27/2016 07:25:00 0.4053
2016_12_27_S13 12/27/2016 07:30:00 0.433
2016_12_27_S13 12/27/2016 07:35:00 0.1441
2016_12_27_S13 12/27/2016 07:40:00 0.2343
2016_12_27_S13 12/27/2016 07:45:00 0.148
2016_12_27_S13 12/27/2016 07:50:00 0.4444
2016_12_27_S13 12/27/2016 07:55:00 0.8583
2016_12_27_S13 12/27/2016 08:00:00 0.6938
2016_12_27_S13 12/27/2016 08:05:00 0.8974
2016_12_27_S13 12/27/2016 08:10:00 0.6857
2016_12_27_S13 12/27/2016 08:15:00 0.553
2016_12_27_S13 12/27/2016 08:20:00 0.6353
2016_12_27_S13 12/27/2016 08:25:00 0.0656
2016_12_27_S13 12/27/2016 08:30:00 0.0401
2016_12_27_S13 12/27/2016 08:35:00 0.1008
2016_12_27_S13 12/27/2016 08:40:00 0.6565
2016_12_27_S13 12/27/2016 08:45:00 0.6552
2016_12_27_S13 12/27/2016 08:50:00 0.3513
2016_12_27_S13 12/27/2016 08:55:00 0.0735
2016_12_27_S13 12/27/2016 09:00:00 1.4639
2016_12_27_S13 12/27/2016 09:05:00 0.324
2016_12_27_S13 12/27/2016 09:10:00 0.1457
2016_12_27_S13 12/27/2016 09:15:00 1.5302
2016_12_27_S13 12/27/2016 09:20:00 0.8584
2016_12_27_S13 12/27/2016 09:25:00 0.4968
2016_12_27_S13 12/27/2016 09:30:00 0.348
2016_12_27_S13 12/27/2016 09:35:00 0.3503
2016_12_27_S13 12/27/2016 09:40:00 0.5241
2016_12_27_S13 12/27/2016 09:45:00 0.4093
2016_12_27_S13 12/27/2016 09:50:00 0.021
2016_12_27_S13 12/27/2016 09:55:00 0.0126
2016_12_27_S13 12/27/2016 10:00:00 0.1906
2016_12_27_S13 12/27/2016 10:05:00 0.6017
2016_12_27_S13 12/27/2016 10:10:00 0.2526
2016_12_27_S13 12/27/2016 10:15:00 0.123
2016_12_27_S13 12/27/2016 10:20:00 0.0518
2016_12_27_S13 12/27/2016 10:25:00 0.0806
2016_12_27_S13 12/27/2016 10:30:00 0.036
2016_12_27_S13 12/27/2016 10:35:00 0.0884
2016_12_27_S13 12/27/2016 10:40:00 0.0107
2016_12_27_S13 12/27/2016 10:45:00 0.6328
2016_12_27_S13 12/27/2016 10:50:00 0.9087
2016_12_27_S13 12/27/2016 10:55:00 0.3323
2016_12_27_S13 12/27/2016 11:00:00 0.5547
2016_12_27_S13 12/27/2016 11:05:00 0.2052
2016_12_27_S13 12/27/2016 11:10:00 0.0618
2016_12_27_S13 12/27/2016 11:15:00 0.1682
2016_12_27_S13 12/27/2016 11:20:00 0.5181
2016_12_27_S13 12/27/2016 11:25:00 0.3694
2016_12_27_S13 12/27/2016 11:30:00 1.0754
2016_12_27_S13 12/27/2016 11:35:00 0.6278
2016_12_27_S13 12/27/2016 11:40:00 0.8891
2016_12_27_S13 12/27/2016 11:45:00 0.7414
2016_12_27_S13 12/27/2016 11:50:00 1.289
2016_12_27_S13 12/27/2016 11:55:00 0.5568
2016_12_27_S13 12/27/2016 12:00:00 0.3592
2016_12_27_S13 12/27/2016 12:05:00 0.9913
2016_12_27_S13 12/27/2016 12:10:00 0.2607
2016_12_27_S13 12/27/2016 12:15:00 0.6066
2016_12_27_S13 12/27/2016 12:20:00 0.2103
2016_12_27_S13 12/27/2016 12:25:00 0.6123
2016_12_27_S13 12/27/2016 12:30:00 0.1464
2016_12_27_S13 12/27/2016 12:35:00 0.0584
2016_12_27_S13 12/27/2016 12:40:00 0.0599
2016_12_27_S13 12/27/2016 12:45:00 0.0102
2016_12_27_S13 12/27/2016 12:50:00 0.0048
2016_12_27_S13 12/27/2016 12:55:00 0.0048
2016_12_27_S13 12/27/2016 13:00:00 0.0557
2016_12_27_S13 12/27/2016 13:05:00 0.0064
2016_12_27_S13 12/27/2016 13:10:00 0.0
2016_12_27_S13 12/27/2016 13:15:00 0.0
2016_12_27_S13 12/27/2016 13:20:00 0.0
2016_12_27_S13 12/27/2016 13:25:00 0.0284
2016_12_27_S13 12/27/2016 13:30:00 0.2428
2016_12_27_S13 12/27/2016 13:35:00 0.1822
2016_12_27_S13 12/27/2016 13:40:00 0.2158
2016_12_27_S13 12/27/2016 13:45:00 0.1772
2016_12_27_S13 12/27/2016 13:50:00 0.182
2016_12_27_S13 12/27/2016 13:55:00 0.0765
2016_12_27_S13 12/27/2016 14:00:00 0.1802
2016_12_27_S13 12/27/2016 14:05:00 0.0946
2016_12_27_S13 12/27/2016 14:10:00 0.0161
2016_12_27_S13 12/27/2016 14:15:00 0.0017
2016_12_27_S13 12/27/2016 14:20:00 0.0246
2016_12_27_S13 12/27/2016 14:25:00 0.0338
2016_12_27_S13 12/27/2016 14:30:00 0.0065
2016_12_27_S13 12/27/2016 14:35:00 0.0
2016_12_27_S13 12/27/2016 14:40:00 0.0
2016_12_27_S13 12/27/2016 14:45:00 0.0
2016_12_27_S13 12/27/2016 14:50:00 0.0
2016_12_27_S13 12/27/2016 14:55:00 0.0
2016_12_27_S13 12/27/2016 15:00:00 0.0
2016_12_27_S13 12/27/2016 15:05:00 0.0
2016_12_27_S13 12/27/2016 15:10:00 0.0
2016_12_27_S13 12/27/2016 15:15:00 0.0
2016_12_27_S13 12/27/2016 15:20:00 0.0215
2016_12_27_S13 12/27/2016 15:25:00 0.0013
2016_12_27_S13 12/27/2016 15:30:00 0.0
2016_12_27_S13 12/27/2016 15:35:00 0.0
2016_12_27_S13 12/27/2016 15:40:00 0.0
2016_12_27_S13 12/27/2016 15:45:00 0.0
2016_12_27_S13 12/27/2016 15:50:00 0.0
2016_12_27_S13 12/27/2016 15:55:00 0.0
2016_12_27_S13 12/27/2016 16:00:00 0.0117
2016_12_27_S13 12/27/2016 16:05:00 0.0087
2016_12_27_S13 12/27/2016 16:10:00 0.0001
2016_12_27_S13 12/27/2016 16:15:00 0.0085
2016_12_27_S13 12/27/2016 16:20:00 0.0
2016_12_27_S13 12/27/2016 16:25:00 0.0
2016_12_27_S13 12/27/2016 16:30:00 0.0
2016_12_27_S13 12/27/2016 16:35:00 0.0
2016_12_27_S13 12/27/2016 16:40:00 0.1535
2016_12_27_S13 12/27/2016 16:45:00 0.1292
2016_12_27_S13 12/27/2016 16:50:00 0.0
2016_12_27_S13 12/27/2016 16:55:00 0.0
2016_12_27_S13 12/27/2016 17:00:00 0.0
2016_12_27_S13 12/27/2016 17:05:00 0.0
2016_12_27_S13 12/27/2016 17:10:00 0.0
2016_12_27_S13 12/27/2016 17:15:00 0.0
2016_12_27_S13 12/27/2016 17:20:00 0.0
2016_12_27_S13 12/27/2016 17:25:00 0.0
2016_12_27_S13 12/27/2016 17:30:00 0.0
2016_12_27_S13 12/27/2016 17:35:00 0.0
2016_12_27_S13 12/27/2016 17:40:00 0.0181
2016_12_27_S13 12/27/2016 17:45:00 0.3173
2016_12_27_S13 12/27/2016 17:50:00 0.0457
2016_12_27_S13 12/27/2016 17:55:00 0.0016
2016_12_27_S13 12/27/2016 18:00:00 0.0
2016_12_27_S13 12/27/2016 18:05:00 0.0
2016_12_27_S13 12/27/2016 18:10:00 0.0
2016_12_27_S13 12/27/2016 18:15:00 0.0
2016_12_27_S13 12/27/2016 18:20:00 0.0258
2016_12_27_S13 12/27/2016 18:25:00 2.4077
2016_12_27_S13 12/27/2016 18:30:00 0.0275
2016_12_27_S13 12/27/2016 18:35:00 0.0428
2016_12_27_S13 12/27/2016 18:40:00 0.0223
2016_12_27_S13 12/27/2016 18:45:00 0.0
2016_12_27_S13 12/27/2016 18:50:00 0.0
2016_12_27_S13 12/27/2016 18:55:00 0.0
2016_12_27_S13 12/27/2016 19:00:00 0.0
2016_12_27_S13 12/27/2016 19:05:00 0.0
2016_12_27_S13 12/27/2016 19:10:00 0.0042
2016_12_27_S13 12/27/2016 19:15:00 0.0055
2016_12_27_S13 12/27/2016 19:20:00 0.0003
2016_12_27_S13 12/27/2016 19:25:00 0.0
2016_12_27_S13 12/27/2016 19:30:00 0.0003
2016_12_27_S13 12/27/2016 19:35:00 0.1009
2016_12_27_S13 12/27/2016 19:40:00 0.0756
2016_12_27_S13 12/27/2016 19:45:00 0.1205
2016_12_27_S13 12/27/2016 19:50:00 0.2381
2016_12_27_S13 12/27/2016 19:55:00 1.6847
2016_12_27_S13 12/27/2016 20:00:00 0.0664
2016_12_27_S13 12/27/2016 20:05:00 0.0005
2016_12_27_S13 12/27/2016 20:10:00 0.0
2016_12_27_S13 12/27/2016 20:15:00 0.0
2016_12_27_S13 12/27/2016 20:20:00 0.0006
2016_12_27_S13 12/27/2016 20:25:00 0.0207
2016_12_27_S13 12/27/2016 20:30:00 0.0306
2016_12_27_S13 12/27/2016 20:35:00 0.0169
2016_12_27_S13 12/27/2016 20:40:00 0.0
2016_12_27_S13 12/27/2016 20:45:00 0.0
2016_12_27_S13 12/27/2016 20:50:00 0.0
2016_12_27_S13 12/27/2016 20:55:00 0.0
2016_12_27_S13 12/27/2016 21:00:00 0.0
2016_12_27_S13 12/27/2016 21:05:00 0.0
2016_12_27_S13 12/27/2016 21:10:00 0.0
2016_12_27_S13 12/27/2016 21:15:00 0.0
2016_12_27_S13 12/27/2016 21:20:00 0.0
2016_12_27_S13 12/27/2016 21:25:00 0.0
2016_12_27_S13 12/27/2016 21:30:00 0.0
2016_12_27_S13 12/27/2016 21:35:00 0.0
2016_12_27_S13 12/27/2016 21:40:00 0.0
2016_12_27_S13 12/27/2016 21:45:00 0.0
2016_12_27_S13 12/27/2016 21:50:00 0.0
2016_12_27_S13 12/27/2016 21:55:00 0.0
2016_12_27_S13 12/27/2016 22:00:00 0.0
2016_12_27_S13 12/27/2016 22:05:00 0.0
2016_12_27_S13 12/27/2016 22:10:00 0.0
2016_12_27_S13 12/27/2016 22:15:00 0.0
2016_12_27_S13 12/27/2016 22:20:00 0.0
2016_12_27_S13 12/27/2016 22:25:00 0.001
2016_12_27_S13 12/27/2016 22:30:00 0.0333
2016_12_27_S13 12/27/2016 22:35:00 0.1176
2016_12_27_S13 12/27/2016 22:40:00 0.0043
2016_12_27_S13 12/27/2016 22:45:00 0.0
2016_12_27_S13 12/27/2016 22:50:00 0.0041
2016_12_27_S13 12/27/2016 22:55:00 0.0119
2016_12_27_S13 12/27/2016 23:00:00 0.0218
2016_12_27_S13 12/27/2016 23:05:00 0.0739
2016_12_27_S13 12/27/2016 23:10:00 0.0228
2016_12_27_S13 12/27/2016 23:15:00 0.0
2016_12_27_S13 12/27/2016 23:20:00 0.0004
2016_12_27_S13 12/27/2016 23:25:00 0.0003
2016_12_27_S13 12/27/2016 23:30:00 0.0
2016_12_27_S13 12/27/2016 23:35:00 0.0
2016_12_27_S13 12/27/2016 23:40:00 0.0006
2016_12_27_S13 12/27/2016 23:45:00 0.0
2016_12_27_S13 12/27/2016 23:50:00 0.0
2016_12_27_S13 12/27/2016 23:55:00 0.0
2016_12_27_S13 12/28/2016 00:00:00 0.0
2016_12_27_S13 12/28/2016 00:05:00 0.0
2016_12_27_S13 12/28/2016 00:10:00 0.0
2016_12_27_S13 12/28/2016 00:15:00 0.0
2016_12_27_S13 12/28/2016 00:20:00 0.0
2016_12_27_S13 12/28/2016 00:25:00 0.0
2016_12_27_S13 12/28/2016 00:30:00 0.0
2016_12_27_S13 12/28/2016 00:35:00 0.0
2016_12_27_S13 12/28/2016 00:40:00 0.0
2016_12_27_S13 12/28/2016 00:45:00 0.0
2016_12_27_S13 12/28/2016 00:50:00 0.0
2016_12_27_S13 12/28/2016 00:55:00 0.0
2016_12_27_S13 12/28/2016 01:00:00 0.0
2016_12_27_S13 12/28/2016 01:05:00 0.0
2016_12_27_S13 12/28/2016 01:10:00 0.0
2016_12_27_S13 12/28/2016 01:15:00 0.0
2016_12_27_S13 12/28/2016 01:20:00 0.0
2016_12_27_S13 12/28/2016 01:25:00 0.0
2016_12_27_S13 12/28/2016 01:30:00 0.0
2016_12_27_S13 12/28/2016 01:35:00 0.0
2016_12_27_S13 12/28/2016 01:40:00 0.0
2016_12_27_S13 12/28/2016 01:45:00 0.0
2016_12_27_S13 12/28/2016 01:50:00 0.0
2016_12_27_S13 12/28/2016 01:55:00 0.0
2016_12_27_S13 12/28/2016 02:00:00 0.0
2016_12_27_S13 12/28/2016 02:05:00 0.0
2016_12_27_S13 12/28/2016 02:10:00 0.0
2016_12_27_S13 12/28/2016 02:15:00 0.0
2016_12_27_S13 12/28/2016 02:20:00 0.0
2016_12_27_S13 12/28/2016 02:25:00 0.0
2016_12_27_S13 12/28/2016 02:30:00 0.0
2016_12_27_S13 12/28/2016 02:35:00 0.0
2016_12_27_S13 12/28/2016 02:40:00 0.0
2016_12_27_S13 12/28/2016 02:45:00 0.0
2016_12_27_S13 12/28/2016 02:50:00 0.0
2016_12_27_S13 12/28/2016 02:55:00 0.0
2016_12_27_S13 12/28/2016 03:00:00 0.0
2016_12_27_S13 12/28/2016 03:05:00 0.0
2016_12_27_S13 12/28/2016 03:10:00 0.0
2016_12_27_S13 12/28/2016 03:15:00 0.0
2016_12_27_S13 12/28/2016 03:20:00 0.0
2016_12_27_S13 12/28/2016 03:25:00 0.0
2016_12_27_S13 12/28/2016 03:30:00 0.0
2016_12_27_S13 12/28/2016 03:35:00 0.0
2016_12_27_S13 12/28/2016 03:40:00 0.0
2016_12_27_S13 12/28/2016 03:45:00 0.0
2016_12_27_S13 12/28/2016 03:50:00 0.0
2016_12_27_S13 12/28/2016 03:55:00 0.0
2016_12_27_S13 12/28/2016 04:00:00 0.0
2016_12_27_S13 12/28/2016 04:05:00 0.0
2016_12_27_S13 12/28/2016 04:10:00 0.0
2016_12_27_S13 12/28/2016 04:15:00 0.0
2016_12_27_S13 12/28/2016 04:20:00 0.0
2016_12_27_S13 12/28/2016 04:25:00 0.0
2016_12_27_S13 12/28/2016 04:30:00 0.0
2016_12_27_S13 12/28/2016 04:35:00 0.0
2016_12_27_S13 12/28/2016 04:40:00 0.0
2016_12_27_S13 12/28/2016 04:45:00 0.0
2016_12_27_S13 12/28/2016 04:50:00 0.0
2016_12_27_S13 12/28/2016 04:55:00 0.0
2016_12_27_S13 12/28/2016 05:00:00 0.0
2016_12_27_S13 12/28/2016 05:05:00 0.0
2016_12_27_S13 12/28/2016 05:10:00 0.0
2016_12_27_S13 12/28/2016 05:15:00 0.0
2016_12_27_S13 12/28/2016 05:20:00 0.0
2016_12_27_S13 12/28/2016 05:25:00 0.0
2016_12_27_S13 12/28/2016 05:30:00 0.0
2016_12_27_S13 12/28/2016 05:35:00 0.0
2016_12_27_S13 12/28/2016 05:40:00 0.0
2016_12_27_S13 12/28/2016 05:45:00 0.0
2016_12_27_S13 12/28/2016 05:50:00 0.0
2016_12_27_S13 12/28/2016 05:55:00 0.0
2016_12_27_S13 12/28/2016 06:00:00 0.0
2016_12_27_S13 12/28/2016 06:05:00 0.0
2016_12_27_S13 12/28/2016 06:10:00 0.0
2016_12_27_S13 12/28/2016 06:15:00 0.0
2016_12_27_S13 12/28/2016 06:20:00 0.0
2016_12_27_S13 12/28/2016 06:25:00 0.0
2016_12_27_S13 12/28/2016 06:30:00 0.0
2016_12_27_S13 12/28/2016 06:35:00 0.0
2016_12_27_S13 12/28/2016 06:40:00 0.0
2016_12_27_S13 12/28/2016 06:45:00 0.0
2016_12_27_S13 12/28/2016 06:50:00 0.0
2016_12_27_S13 12/28/2016 06:55:00 0.0
2016_12_27_S13 12/28/2016 07:00:00 0.0
2016_12_27_S13 12/28/2016 07:05:00 0.0
2016_12_27_S13 12/28/2016 07:10:00 0.0
2016_12_27_S13 12/28/2016 07:15:00 0.0
2016_12_27_S13 12/28/2016 07:20:00 0.0
2016_12_27_S13 12/28/2016 07:25:00 0.0
2016_12_27_S13 12/28/2016 07:30:00 0.0
2016_12_27_S13 12/28/2016 07:35:00 0.0
2016_12_27_S13 12/28/2016 07:40:00 0.0
2016_12_27_S13 12/28/2016 07:45:00 0.0
2016_12_27_S13 12/28/2016 07:50:00 0.0
2016_12_27_S13 12/28/2016 07:55:00 0.0
2016_12_27_S13 12/28/2016 08:00:00 0.0

2016_12_27_S14 12/26/2016 08:00:00 0.0
2016_12_27_S14 12/26/2016 08:05:00 0.0
2016_12_27_S14 12/26/2016 08:10:00 0.0
2016_12_27_S14 12/26/2016 08:15:00 0.0
2016_12_27_S14 12/26/2016 08:20:00 0.0
2016_12_27_S14 12/26/2016 08:25:00 0.0
2016_12_27_S14 12/26/2016 08:30:00 0.0
2016_12_27_S14 12/26/2016 08:35:00 0.0
2016_12_27_S14 12/26/2016 08:40:00 0.0
2016_12_27_S14 12/26/2016 08:45:00 0.0
2016_12_27_S14 12/26/2016 08:50:00 0.0
2016_12_27_S14 12/26/2016 08:55:00 0.0
2016_12_27_S14 12/26/2016 09:00:00 0.0
2016_12_27_S14 12/26/2016 09:05:00 0.0003
2016_12_27_S14 12/26/2016 09:10:00 0.0097
2016_12_27_S14 12/26/2016 09:15:00 0.0486
2016_12_27_S14 12/26/2016 09:20:00 0.0241
2016_12_27_S14 12/26/2016 09:25:00 0.0007
2016_12_27_S14 12/26/2016 09:30:00 0.0
2016_12_27_S14 12/26/2016 09:35:00 0.0
2016_12_27_S14 12/26/2016 09:40:00 0.0
2016_12_27_S14 12/26/2016 09:45:00 0.0
2016_12_27_S14 12/26/2016 09:50:00 0.0
2016_12_27_S14 12/26/2016 09:55:00 0.0
2016_12_27_S14 12/26/2016 10:00:00 0.0
2016_12_27_S14 12/26/2016 10:05:00 0.0
2016_12_27_S14 12/26/2016 10:10:00 0.0
2016_12_27_S14 12/26/2016 10:15:00 0.0
2016_12_27_S14 12/26/2016 10:20:00 0.0009
2016_12_27_S14 12/26/2016 10:25:00 0.0
2016_12_27_S14 12/26/2016 10:30:00 0.0
2016_12_27_S14 12/26/2016 10:35:00 0.0
2016_12_27_S14 12/26/2016 10:40:00 0.0
2016_12_27_S14 12/26/2016 10:45:00 0.0
2016_12_27_S14 12/26/2016 10:50:00 0.0
2016_12_27_S14 12/26/2016 10:55:00 0.0
2016_12_27_S14 12/26/2016 11:00:00 0.0003
2016_12_27_S14 12/26/2016 11:05:00 0.0
2016_12_27_S14 12/26/2016 11:10:00 0.0
2016_12_27_S14 12/26/2016 11:15:00 0.0
2016_12_27_S14 12/26/2016 11:20:00 0.0
2016_12_27_S14 12/26/2016 11:25:00 0.0
2016_12_27_S14 12/26/2016 11:30:00 0.0
2016_12_27_S14 12/26/2016 11:35:00 0.0
2016_12_27_S14 12/26/2016 11:40:00 0.0
2016_12_27_S14 12/26/2016 11:45:00 0.0
2016_12_27_S14 12/26/2016 11:50:00 0.0
2016_12_27_S14 12/26/2016 11:55:00 0.0064
2016_12_27_S14 12/26/2016 12:00:00 0.0153
2016_12_27_S14 12/26/2016 12:05:00 0.171
2016_12_27_S14 12/26/2016 12:10:00 0.0864
2016_12_27_S14 12/26/2016 12:15:00 0.0
2016_12_27_S14 12/26/2016 12:20:00 0.0
2016_12_27_S14 12/26/2016 12:25:00 0.0
2016_12_27_S14 12/26/2016 12:30:00 0.0
2016_12_27_S14 12/26/2016 12:35:00 0.013
2016_12_27_S14 12/26/2016 12:40:00 0.0243
2016_12_27_S14 12/26/2016 12:45:00 0.0714
2016_12_27_S14 12/26/2016 12:50:00 0.0
2016_12_27_S14 12/26/2016 12:55:00 0.0
2016_12_27_S14 12/26/2016 13:00:00 0.0
2016_12_27_S14 12/26/2016 13:05:00 0.0
2016_12_27_S14 12/26/2016 13:10:00 0.0
2016_12_27_S14 12/26/2016 13:15:00 0.0
2016_12_27_S14 12/26/2016 13:20:00 0.0
2016_12_27_S14 12/26/2016 13:25:00 0.0
2016_12_27_S14 12/26/2016 13:30:00 0.0
2016_12_27_S14 12/26/2016 13:35:00 0.0
2016_12_27_S14 12/26/2016 13:40:00 0.0
2016_12_27_S14 12/26/2016 13:45:00 0.0
2016_12_27_S14 12/26/2016 13:50:00 0.0
2016_12_27_S14 12/26/2016 13:55:00 0.0
2016_12_27_S14 12/26/2016 14:00:00 0.0
2016_12_27_S14 12/26/2016 14:05:00 0.0
2016_12_27_S14 12/26/2016 14:10:00 0.0
2016_12_27_S14 12/26/2016 14:15:00 0.0
2016_12_27_S14 12/26/2016 14:20:00 0.0
2016_12_27_S14 12/26/2016 14:25:00 0.0
2016_12_27_S14 12/26/2016 14:30:00 0.0
2016_12_27_S14 12/26/2016 14:35:00 0.0
2016_12_27_S14 12/26/2016 14:40:00 0.0
2016_12_27_S14 12/26/2016 14:45:00 0.0
2016_12_27_S14 12/26/2016 14:50:00 0.0
2016_12_27_S14 12/26/2016 14:55:00 0.0
2016_12_27_S14 12/26/2016 15:00:00 0.0
2016_12_27_S14 12/26/2016 15:05:00 0.0
2016_12_27_S14 12/26/2016 15:10:00 0.0
2016_12_27_S14 12/26/2016 15:15:00 0.0
2016_12_27_S14 12/26/2016 15:20:00 0.0
2016_12_27_S14 12/26/2016 15:25:00 0.0
2016_12_27_S14 12/26/2016 15:30:00 0.0
2016_12_27_S14 12/26/2016 15:35:00 0.0
2016_12_27_S14 12/26/2016 15:40:00 0.0
2016_12_27_S14 12/26/2016 15:45:00 0.0
2016_12_27_S14 12/26/2016 15:50:00 0.0
2016_12_27_S14 12/26/2016 15:55:00 0.0
2016_12_27_S14 12/26/2016 16:00:00 0.0
2016_12_27_S14 12/26/2016 16:05:00 0.0
2016_12_27_S14 12/26/2016 16:10:00 0.0
2016_12_27_S14 12/26/2016 16:15:00 0.0
2016_12_27_S14 12/26/2016 16:20:00 0.0
2016_12_27_S14 12/26/2016 16:25:00 0.0
2016_12_27_S14 12/26/2016 16:30:00 0.0
2016_12_27_S14 12/26/2016 16:35:00 0.0
2016_12_27_S14 12/26/2016 16:40:00 0.0
2016_12_27_S14 12/26/2016 16:45:00 0.0
2016_12_27_S14 12/26/2016 16:50:00 0.0
2016_12_27_S14 12/26/2016 16:55:00 0.0
2016_12_27_S14 12/26/2016 17:00:00 0.0
2016_12_27_S14 12/26/2016 17:05:00 0.0
2016_12_27_S14 12/26/2016 17:10:00 0.0
2016_12_27_S14 12/26/2016 17:15:00 0.0
2016_12_27_S14 12/26/2016 17:20:00 0.0
2016_12_27_S14 12/26/2016 17:25:00 0.0
2016_12_27_S14 12/26/2016 17:30:00 0.0
2016_12_27_S14 12/26/2016 17:35:00 0.0
2016_12_27_S14 12/26/2016 17:40:00 0.0
2016_12_27_S14 12/26/2016 17:45:00 0.0
2016_12_27_S14 12/26/2016 17:50:00 0.0
2016_12_27_S14 12/26/2016 17:55:00 0.0
2016_12_27_S14 12/26/2016 18:00:00 0.0
2016_12_27_S14 12/26/2016 18:05:00 0.0
2016_12_27_S14 12/26/2016 18:10:00 0.0
2016_12_27_S14 12/26/2016 18:15:00 0.0
2016_12_27_S14 12/26/2016 18:20:00 0.0
2016_12_27_S14 12/26/2016 18:25:00 0.0
2016_12_27_S14 12/26/2016 18:30:00 0.0
2016_12_27_S14 12/26/2016 18:35:00 0.0
2016_12_27_S14 12/26/2016 18:40:00 0.0
2016_12_27_S14 12/26/2016 18:45:00 0.0
2016_12_27_S14 12/26/2016 18:50:00 0.0
2016_12_27_S14 12/26/2016 18:55:00 0.0
2016_12_27_S14 12/26/2016 19:00:00 0.0
2016_12_27_S14 12/26/2016 19:05:00 0.0
2016_12_27_S14 12/26/2016 19:10:00 0.0
2016_12_27_S14 12/26/2016 19:15:00 0.0
2016_12_27_S14 12/26/2016 19:20:00 0.0
2016_12_27_S14 12/26/2016 19:25:00 0.0
2016_12_27_S14 12/26/2016 19:30:00 0.0
2016_12_27_S14 12/26/2016 19:35:00 0.0
2016_12_27_S14 12/26/2016 19:40:00 0.0
2016_12_27_S14 12/26/2016 19:45:00 0.0
2016_12_27_S14 12/26/2016 19:50:00 0.0
2016_12_27_S14 12/26/2016 19:55:00 0.0
2016_12_27_S14 12/26/2016 20:00:00 0.0
2016_12_27_S14 12/26/2016 20:05:00 0.0
2016_12_27_S14 12/26/2016 20:10:00 0.0
2016_12_27_S14 12/26/2016 20:15:00 0.0
2016_12_27_S14 12/26/2016 20:20:00 0.0
2016_12_27_S14 12/26/2016 20:25:00 0.0
2016_12_27_S14 12/26/2016 20:30:00 0.0
2016_12_27_S14 12/26/2016 20:35:00 0.0
2016_12_27_S14 12/26/2016 20:40:00 0.0
2016_12_27_S14 12/26/2016 20:45:00 0.0
2016_12_27_S14 12/26/2016 20:50:00 0.0
2016_12_27_S14 12/26/2016 20:55:00 0.0
2016_12_27_S14 12/26/2016 21:00:00 0.0
2016_12_27_S14 12/26/2016 21:05:00 0.0
2016_12_27_S14 12/26/2016 21:10:00 0.0
2016_12_27_S14 12/26/2016 21:15:00 0.0
2016_12_27_S14 12/26/2016 21:20:00 0.0
2016_12_27_S14 12/26/2016 21:25:00 0.0
2016_12_27_S14 12/26/2016 21:30:00 0.0
2016_12_27_S14 12/26/2016 21:35:00 0.0
2016_12_27_S14 12/26/2016 21:40:00 0.0
2016_12_27_S14 12/26/2016 21:45:00 0.0
2016_12_27_S14 12/26/2016 21:50:00 0.0
2016_12_27_S14 12/26/2016 21:55:00 0.0
2016_12_27_S14 12/26/2016 22:00:00 0.0
2016_12_27_S14 12/26/2016 22:05:00 0.0
2016_12_27_S14 12/26/2016 22:10:00 0.0
2016_12_27_S14 12/26/2016 22:15:00 0.0
2016_12_27_S14 12/26/2016 22:20:00 0.0
2016_12_27_S14 12/26/2016 22:25:00 0.0
2016_12_27_S14 12/26/2016 22:30:00 0.0
2016_12_27_S14 12/26/2016 22:35:00 0.0
2016_12_27_S14 12/26/2016 22:40:00 0.0
2016_12_27_S14 12/26/2016 22:45:00 0.0
2016_12_27_S14 12/26/2016 22:50:00 0.0
2016_12_27_S14 12/26/2016 22:55:00 0.0
2016_12_27_S14 12/26/2016 23:00:00 0.0
2016_12_27_S14 12/26/2016 23:05:00 0.0
2016_12_27_S14 12/26/2016 23:10:00 0.0
2016_12_27_S14 12/26/2016 23:15:00 0.0
2016_12_27_S14 12/26/2016 23:20:00 0.0
2016_12_27_S14 12/26/2016 23:25:00 0.0
2016_12_27_S14 12/26/2016 23:30:00 0.0
2016_12_27_S14 12/26/2016 23:35:00 0.0
2016_12_27_S14 12/26/2016 23:40:00 0.0
2016_12_27_S14 12/26/2016 23:45:00 0.0
2016_12_27_S14 12/26/2016 23:50:00 0.0
2016_12_27_S14 12/26/2016 23:55:00 0.0
2016_12_27_S14 12/27/2016 00:00:00 0.0
2016_12_27_S14 12/27/2016 00:05:00 0.0
2016_12_27_S14 12/27/2016 00:10:00 0.0
2016_12_27_S14 12/27/2016 00:15:00 0.0
2016_12_27_S14 12/27/2016 00:20:00 0.0
2016_12_27_S14 12/27/2016 00:25:00 0.0
2016_12_27_S14 12/27/2016 00:30:00 0.0
2016_12_27_S14 12/27/2016 00:35:00 0.0
2016_12_27_S14 12/27/2016 00:40:00 0.0
2016_12_27_S14 12/27/2016 00:45:00 0.0
2016_12_27_S14 12/27/2016 00:50:00 0.0
2016_12_27_S14 12/27/2016 00:55:00 0.0
2016_12_27_S14 12/27/2016 01:00:00 0.0
2016_12_27_S14 12/27/2016 01:05:00 0.0
2016_12_27_S14 12/27/2016 01:10:00 0.0053
2016_12_27_S14 12/27/2016 01:15:00 0.0046
2016_12_27_S14 12/27/2016 01:20:00 0.0109
2016_12_27_S14 12/27/2016 01:25:00 0.0593
2016_12_27_S14 12/27/2016 01:30:00 0.0843
2016_12_27_S14 12/27/2016 01:35:00 0.4991
2016_12_27_S14 12/27/2016 01:40:00 0.4716
2016_12_27_S14 12/27/2016 01:45:00 1.231
2016_12_27_S14 12/27/2016 01:50:00 0.9845
2016_12_27_S14 12/27/2016 01:55:00 0.7038
2016_12_27_S14 12/27/2016 02:00:00 0.0129
2016_12_27_S14 12/27/2016 02:05:00 0.0111
2016_12_27_S14 12/27/2016 02:10:00 0.0239
2016_12_27_S14 12/27/2016 02:15:00 0.1069
2016_12_27_S14 12/27/2016 02:20:00 0.0563
2016_12_27_S14 12/27/2016 02:25:00 0.2765
2016_12_27_S14 12/27/2016 02:30:00 0.054
2016_12_27_S14 12/27/2016 02:35:00 0.1323
2016_12_27_S14 12/27/2016 02:40:00 0.2282
2016_12_27_S14 12/27/2016 02:45:00 0.3449
2016_12_27_S14 12/27/2016 02:50:00 0.7863
2016_12_27_S14 12/27/2016 02:55:00 0.4007
2016_12_27_S14 12/27/2016 03:00:00 0.6393
2016_12_27_S14 12/27/2016 03:05:00 0.5313
2016_12_27_S14 12/27/2016 03:10:00 0.5894
2016_12_27_S14 12/27/2016 03:15:00 0.9571
2016_12_27_S14 12/27/2016 03:20:00 1.0378
2016_12_27_S14 12/27/2016 03:25:00 0.553
2016_12_27_S14 12/27/2016 03:30:00 1.0946
2016_12_27_S14 12/27/2016 03:35:00 0.4168
2016_12_27_S14 12/27/2016 03:40:00 0.4221
2016_12_27_S14 12/27/2016 03:45:00 0.1561
2016_12_27_S14 12/27/2016 03:50:00 0.2154
2016_12_27_S14 12/27/2016 03:55:00 0.467
2016_12_27_S14 12/27/2016 04:00:00 0.1709
2016_12_27_S14 12/27/2016 04:05:00 0.0945
2016_12_27_S14 12/27/2016 04:10:00 0.2615
2016_12_27_S14 12/27/2016 04:15:00 0.1402
2016_12_27_S14 12/27/2016 04:20:00 0.0431
2016_12_27_S14 12/27/2016 04:25:00 0.0649
2016_12_27_S14 12/27/2016 04:30:00 0.0473
2016_12_27_S14 12/27/2016 04:35:00 0.0315
2016_12_27_S14 12/27/2016 04:40:00 0.0326
2016_12_27_S14 12/27/2016 04:45:00 0.0444
2016_12_27_S14 12/27/2016 04:50:00 0.2043
2016_12_27_S14 12/27/2016 04:55:00 0.3215
2016_12_27_S14 12/27/2016 05:00:00 0.5944
2016_12_27_S14 12/27/2016 05:05:00 0.1216
2016_12_27_S14 12/27/2016 05:10:00 0.2473
2016_12_27_S14 12/27/2016 05:15:00 0.2405
2016_12_27_S14 12/27/2016 05:20:00 0.1576
2016_12_27_S14 12/27/2016 05:25:00 0.0351
2016_12_27_S14 12/27/2016 05:30:00 0.0
2016_12_27_S14 12/27/2016 05:35:00 0.0
2016_12_27_S14 12/27/2016 05:40:00 0.0
2016_12_27_S14 12/27/2016 05:45:00 0.0
2016_12_27_S14 12/27/2016 05:50:00 0.0
2016_12_27_S14 12/27/2016 05:55:00 0.0
2016_12_27_S14 12/27/2016 06:00:00 0.0
2016_12_27_S14 12/27/2016 06:05:00 0.0
2016_12_27_S14 12/27/2016 06:10:00 0.0
2016_12_27_S14 12/27/2016 06:15:00 0.0
2016_12_27_S14 12/27/2016 06:20:00 0.0
2016_12_27_S14 12/27/2016 06:25:00 0.0
2016_12_27_S14 12/27/2016 06:30:00 0.0
2016_12_27_S14 12/27/2016 06:35:00 0.0
2016_12_27_S14 12/27/2016 06:40:00 0.0052
2016_12_27_S14 12/27/2016 06:45:00 0.1046
2016_12_27_S14 12/27/2016 06:50:00 0.0021
2016_12_27_S14 12/27/2016 06:55:00 0.0749
2016_12_27_S14 12/27/2016 07:00:00 0.2072
2016_12_27_S14 12/27/2016 07:05:00 0.0218
2016_12_27_S14 12/27/2016 07:10:00 0.3749
2016_12_27_S14 12/27/2016 07:15:00 1.1099
2016_12_27_S14 12/27/2016 07:20:00 0.6613
2016_12_27_S14 12/27/2016 07:25:00 0.2873
2016_12_27_S14 12/27/2016 07:30:00 0.7285
2016_12_27_S14 12/27/2016 07:35:00 0.3052
2016_12_27_S14 12/27/2016 07:40:00 0.3528
2016_12_27_S14 12/27/2016 07:45:00 0.1592
2016_12_27_S14 12/27/2016 07:50:00 0.4085
2016_12_27_S14 12/27/2016 07:55:00 0.8894
2016_12_27_S14 12/27/2016 08:00:00 0.7709
2016_12_27_S14 12/27/2016 08:05:00 0.8134
2016_12_27_S14 12/27/2016 08:10:00 1.047
2016_12_27_S14 12/27/2016 08:15:00 0.5613
2016_12_27_S14 12/27/2016 08:20:00 0.4701
2016_12_27_S14 12/27/2016 08:25:00 0.1263
2016_12_27_S14 12/27/2016 08:30:00 0.0056
2016_12_27_S14 12/27/2016 08:35:00 0.0886
2016_12_27_S14 12/27/2016 08:40:00 0.5545
2016_12_27_S14 12/27/2016 08:45:00 0.9146
2016_12_27_S14 12/27/2016 08:50:00 0.5659
2016_12_27_S14 12/27/2016 08:55:00 0.1573
2016_12_27_S14 12/27/2016 09:00:00 1.9713
2016_12_27_S14 12/27/2016 09:05:00 0.3266
2016_12_27_S14 12/27/2016 09:10:00 0.2227
2016_12_27_S14 12/27/2016 09:15:00 1.1493
2016_12_27_S14 12/27/2016 09:20:00 0.7648
2016_12_27_S14 12/27/2016 09:25:00 0.479
2016_12_27_S14 12/27/2016 09:30:00 0.3163
2016_12_27_S14 12/27/2016 09:35:00 0.2002
2016_12_27_S14 12/27/2016 09:40:00 0.5222
2016_12_27_S14 12/27/2016 09:45:00 0.4206
2016_12_27_S14 12/27/2016 09:50:00 0.0675
2016_12_27_S14 12/27/2016 09:55:00 0.0
2016_12_27_S14 12/27/2016 10:00:00 0.1217
2016_12_27_S14 12/27/2016 10:05:00 0.669
2016_12_27_S14 12/27/2016 10:10:00 0.4731
2016_12_27_S14 12/27/2016 10:15:00 0.1366
2016_12_27_S14 12/27/2016 10:20:00 0.0556
2016_12_27_S14 12/27/2016 10:25:00 0.0819
2016_12_27_S14 12/27/2016 10:30:00 0.032
2016_12_27_S14 12/27/2016 10:35:00 0.0966
2016_12_27_S14 12/27/2016 10:40:00 0.0278
2016_12_27_S14 12/27/2016 10:45:00 0.7452
2016_12_27_S14 12/27/2016 10:50:00 0.4756
2016_12_27_S14 12/27/2016 10:55:00 0.3063
2016_12_27_S14 12/27/2016 11:00:00 0.5081
2016_12_27_S14 12/27/2016 11:05:00 0.2147
2016_12_27_S14 12/27/2016 11:10:00 0.0605
2016_12_27_S14 12/27/2016 11:15:00 0.1867
2016_12_27_S14 12/27/2016 11:20:00 0.3984
2016_12_27_S14 12/27/2016 11:25:00 0.3923
2016_12_27_S14 12/27/2016 11:30:00 0.954
2016_12_27_S14 12/27/2016 11:35:00 0.6929
2016_12_27_S14 12/27/2016 11:40:00 0.7487
2016_12_27_S14 12/27/2016 11:45:00 0.599
2016_12_27_S14 12/27/2016 11:50:00 0.9909
2016_12_27_S14 12/27/2016 11:55:00 0.5511
2016_12_27_S14 12/27/2016 12:00:00 0.4019
2016_12_27_S14 12/27/2016 12:05:00 0.7443
2016_12_27_S14 12/27/2016 12:10:00 0.2684
2016_12_27_S14 12/27/2016 12:15:00 0.3569
2016_12_27_S14 12/27/2016 12:20:00 0.1769
2016_12_27_S14 12/27/2016 12:25:00 0.256
2016_12_27_S14 12/27/2016 12:30:00 0.2096
2016_12_27_S14 12/27/2016 12:35:00 0.0465
2016_12_27_S14 12/27/2016 12:40:00 0.0792
2016_12_27_S14 12/27/2016 12:45:00 0.0117
2016_12_27_S14 12/27/2016 12:50:00 0.003
2016_12_27_S14 12/27/2016 12:55:00 0.004
2016_12_27_S14 12/27/2016 13:00:00 0.0832
2016_12_27_S14 12/27/2016 13:05:00 0.0101
2016_12_27_S14 12/27/2016 13:10:00 0.0
2016_12_27_S14 12/27/2016 13:15:00 0.0
2016_12_27_S14 12/27/2016 13:20:00 0.0
2016_12_27_S14 12/27/2016 13:25:00 0.005
2016_12_27_S14 12/27/2016 13:30:00 0.0885
2016_12_27_S14 12/27/2016 13:35:00 0.1818
2016_12_27_S14 12/27/2016 13:40:00 0.1888
2016_12_27_S14 12/27/2016 13:45:00 0.156
2016_12_27_S14 12/27/2016 13:50:00 0.0896
2016_12_27_S14 12/27/2016 13:55:00 0.0287
2016_12_27_S14 12/27/2016 14:00:00 0.137
2016_12_27_S14 12/27/2016 14:05:00 0.0836
2016_12_27_S14 12/27/2016 14:10:00 0.0314
2016_12_27_S14 12/27/2016 14:15:00 0.0063
2016_12_27_S14 12/27/2016 14:20:00 0.0198
2016_12_27_S14 12/27/2016 14:25:00 0.0313
2016_12_27_S14 12/27/2016 14:30:00 0.0092
2016_12_27_S14 12/27/2016 14:35:00 0.0
2016_12_27_S14 12/27/2016 14:40:00 0.0
2016_12_27_S14 12/27/2016 14:45:00 0.0
2016_12_27_S14 12/27/2016 14:50:00 0.0
2016_12_27_S14 12/27/2016 14:55:00 0.0
2016_12_27_S14 12/27/2016 15:00:00 0.0
2016_12_27_S14 12/27/2016 15:05:00 0.0
2016_12_27_S14 12/27/2016 15:10:00 0.0
2016_12_27_S14 12/27/2016 15:15:00 0.0
2016_12_27_S14 12/27/2016 15:20:00 0.0075
2016_12_27_S14 12/27/2016 15:25:00 0.0006
2016_12_27_S14 12/27/2016 15:30:00 0.0
2016_12_27_S14 12/27/2016 15:35:00 0.0
2016_12_27_S14 12/27/2016 15:40:00 0.0
2016_12_27_S14 12/27/2016 15:45:00 0.0
2016_12_27_S14 12/27/2016 15:50:00 0.0
2016_12_27_S14 12/27/2016 15:55:00 0.0
2016_12_27_S14 12/27/2016 16:00:00 0.0238
2016_12_27_S14 12/27/2016 16:05:00 0.0305
2016_12_27_S14 12/27/2016 16:10:00 0.0
2016_12_27_S14 12/27/2016 16:15:00 0.0051
2016_12_27_S14 12/27/2016 16:20:00 0.0
2016_12_27_S14 12/27/2016 16:25:00 0.0
2016_12_27_S14 12/27/2016 16:30:00 0.0
2016_12_27_S14 12/27/2016 16:35:00 0.0
2016_12_27_S14 12/27/2016 16:40:00 0.2026
2016_12_27_S14 12/27/2016 16:45:00 0.0153
2016_12_27_S14 12/27/2016 16:50:00 0.0
2016_12_27_S14 12/27/2016 16:55:00 0.0
2016_12_27_S14 12/27/2016 17:00:00 0.0
2016_12_27_S14 12/27/2016 17:05:00 0.0
2016_12_27_S14 12/27/2016 17:10:00 0.0
2016_12_27_S14 12/27/2016 17:15:00 0.0
2016_12_27_S14 12/27/2016 17:20:00 0.0
2016_12_27_S14 12/27/2016 17:25:00 0.0
2016_12_27_S14 12/27/2016 17:30:00 0.0
2016_12_27_S14 12/27/2016 17:35:00 0.0
2016_12_27_S14 12/27/2016 17:40:00 0.0209
2016_12_27_S14 12/27/2016 17:45:00 0.2837
2016_12_27_S14 12/27/2016 17:50:00 0.0803
2016_12_27_S14 12/27/2016 17:55:00 0.0031
2016_12_27_S14 12/27/2016 18:00:00 0.0
2016_12_27_S14 12/27/2016 18:05:00 0.0
2016_12_27_S14 12/27/2016 18:10:00 0.0
2016_12_27_S14 12/27/2016 18:15:00 0.0
2016_12_27_S14 12/27/2016 18:20:00 0.0163
2016_12_27_S14 12/27/2016 18:25:00 5.9034
2016_12_27_S14 12/27/2016 18:30:00 0.0435
2016_12_27_S14 12/27/2016 18:35:00 0.0364
2016_12_27_S14 12/27/2016 18:40:00 0.0497
2016_12_27_S14 12/27/2016 18:45:00 0.0
2016_12_27_S14 12/27/2016 18:50:00 0.0
2016_12_27_S14 12/27/2016 18:55:00 0.0
2016_12_27_S14 12/27/2016 19:00:00 0.0
2016_12_27_S14 12/27/2016 19:05:00 0.0
2016_12_27_S14 12/27/2016 19:10:00 0.0155
2016_12_27_S14 12/27/2016 19:15:00 0.1006
2016_12_27_S14 12/27/2016 19:20:00 0.0037
2016_12_27_S14 12/27/2016 19:25:00 0.0
2016_12_27_S14 12/27/2016 19:30:00 0.0038
2016_12_27_S14 12/27/2016 19:35:00 0.1541
2016_12_27_S14 12/27/2016 19:40:00 0.1133
2016_12_27_S14 12/27/2016 19:45:00 0.9858
2016_12_27_S14 12/27/2016 19:50:00 1.4798
2016_12_27_S14 12/27/2016 19:55:00 3.0474
2016_12_27_S14 12/27/2016 20:00:00 0.1212
2016_12_27_S14 12/27/2016 20:05:00 0.0009
2016_12_27_S14 12/27/2016 20:10:00 0.0
2016_12_27_S14 12/27/2016 20:15:00 0.0
2016_12_27_S14 12/27/2016 20:20:00 0.0
2016_12_27_S14 12/27/2016 20:25:00 0.0
2016_12_27_S14 12/27/2016 20:30:00 0.004
2016_12_27_S14 12/27/2016 20:35:00 0.0052
2016_12_27_S14 12/27/2016 20:40:00 0.0
2016_12_27_S14 12/27/2016 20:45:00 0.0
2016_12_27_S14 12/27/2016 20:50:00 0.0
2016_12_27_S14 12/27/2016 20:55:00 0.0
2016_12_27_S14 12/27/2016 21:00:00 0.0
2016_12_27_S14 12/27/2016 21:05:00 0.0
2016_12_27_S14 12/27/2016 21:10:00 0.0
2016_12_27_S14 12/27/2016 21:15:00 0.0
2016_12_27_S14 12/27/2016 21:20:00 0.0
2016_12_27_S14 12/27/2016 21:25:00 0.0
2016_12_27_S14 12/27/2016 21:30:00 0.0
2016_12_27_S14 12/27/2016 21:35:00 0.0
2016_12_27_S14 12/27/2016 21:40:00 0.0
2016_12_27_S14 12/27/2016 21:45:00 0.0
2016_12_27_S14 12/27/2016 21:50:00 0.0
2016_12_27_S14 12/27/2016 21:55:00 0.0
2016_12_27_S14 12/27/2016 22:00:00 0.0
2016_12_27_S14 12/27/2016 22:05:00 0.0
2016_12_27_S14 12/27/2016 22:10:00 0.0
2016_12_27_S14 12/27/2016 22:15:00 0.0005
2016_12_27_S14 12/27/2016 22:20:00 0.0
2016_12_27_S14 12/27/2016 22:25:00 0.0005
2016_12_27_S14 12/27/2016 22:30:00 0.0485
2016_12_27_S14 12/27/2016 22:35:00 0.4638
2016_12_27_S14 12/27/2016 22:40:00 0.0451
2016_12_27_S14 12/27/2016 22:45:00 0.0
2016_12_27_S14 12/27/2016 22:50:00 0.0003
2016_12_27_S14 12/27/2016 22:55:00 0.0086
2016_12_27_S14 12/27/2016 23:00:00 0.0054
2016_12_27_S14 12/27/2016 23:05:00 0.0441
2016_12_27_S14 12/27/2016 23:10:00 0.0133
2016_12_27_S14 12/27/2016 23:15:00 0.0003
2016_12_27_S14 12/27/2016 23:20:00 0.0009
2016_12_27_S14 12/27/2016 23:25:00 0.0003
2016_12_27_S14 12/27/2016 23:30:00 0.0016
2016_12_27_S14 12/27/2016 23:35:00 0.0
2016_12_27_S14 12/27/2016 23:40:00 0.0024
2016_12_27_S14 12/27/2016 23:45:00 0.0
2016_12_27_S14 12/27/2016 23:50:00 0.0
2016_12_27_S14 12/27/2016 23:55:00 0.0
2016_12_27_S14 12/28/2016 00:00:00 0.0
2016_12_27_S14 12/28/2016 00:05:00 0.0
2016_12_27_S14 12/28/2016 00:10:00 0.0
2016_12_27_S14 12/28/2016 00:15:00 0.0
2016_12_27_S14 12/28/2016 00:20:00 0.0
2016_12_27_S14 12/28/2016 00:25:00 0.0
2016_12_27_S14 12/28/2016 00:30:00 0.0
2016_12_27_S14 12/28/2016 00:35:00 0.0
2016_12_27_S14 12/28/2016 00:40:00 0.0
2016_12_27_S14 12/28/2016 00:45:00 0.0
2016_12_27_S14 12/28/2016 00:50:00 0.0
2016_12_27_S14 12/28/2016 00:55:00 0.0
2016_12_27_S14 12/28/2016 01:00:00 0.0
2016_12_27_S14 12/28/2016 01:05:00 0.0
2016_12_27_S14 12/28/2016 01:10:00 0.0
2016_12_27_S14 12/28/2016 01:15:00 0.0
2016_12_27_S14 12/28/2016 01:20:00 0.0
2016_12_27_S14 12/28/2016 01:25:00 0.0
2016_12_27_S14 12/28/2016 01:30:00 0.0
2016_12_27_S14 12/28/2016 01:35:00 0.0
2016_12_27_S14 12/28/2016 01:40:00 0.0
2016_12_27_S14 12/28/2016 01:45:00 0.0
2016_12_27_S14 12/28/2016 01:50:00 0.0
2016_12_27_S14 12/28/2016 01:55:00 0.0
2016_12_27_S14 12/28/2016 02:00:00 0.0
2016_12_27_S14 12/28/2016 02:05:00 0.0
2016_12_27_S14 12/28/2016 02:10:00 0.0
2016_12_27_S14 12/28/2016 02:15:00 0.0
2016_12_27_S14 12/28/2016 02:20:00 0.0
2016_12_27_S14 12/28/2016 02:25:00 0.0
2016_12_27_S14 12/28/2016 02:30:00 0.0
2016_12_27_S14 12/28/2016 02:35:00 0.0
2016_12_27_S14 12/28/2016 02:40:00 0.0
2016_12_27_S14 12/28/2016 02:45:00 0.0
2016_12_27_S14 12/28/2016 02:50:00 0.0
2016_12_27_S14 12/28/2016 02:55:00 0.0
2016_12_27_S14 12/28/2016 03:00:00 0.0
2016_12_27_S14 12/28/2016 03:05:00 0.0
2016_12_27_S14 12/28/2016 03:10:00 0.0
2016_12_27_S14 12/28/2016 03:15:00 0.0
2016_12_27_S14 12/28/2016 03:20:00 0.0
2016_12_27_S14 12/28/2016 03:25:00 0.0
2016_12_27_S14 12/28/2016 03:30:00 0.0
2016_12_27_S14 12/28/2016 03:35:00 0.0
2016_12_27_S14 12/28/2016 03:40:00 0.0
2016_12_27_S14 12/28/2016 03:45:00 0.0
2016_12_27_S14 12/28/2016 03:50:00 0.0
2016_12_27_S14 12/28/2016 03:55:00 0.0
2016_12_27_S14 12/28/2016 04:00:00 0.0
2016_12_27_S14 12/28/2016 04:05:00 0.0
2016_12_27_S14 12/28/2016 04:10:00 0.0
2016_12_27_S14 12/28/2016 04:15:00 0.0
2016_12_27_S14 12/28/2016 04:20:00 0.0
2016_12_27_S14 12/28/2016 04:25:00 0.0
2016_12_27_S14 12/28/2016 04:30:00 0.0
2016_12_27_S14 12/28/2016 04:35:00 0.0
2016_12_27_S14 12/28/2016 04:40:00 0.0
2016_12_27_S14 12/28/2016 04:45:00 0.0
2016_12_27_S14 12/28/2016 04:50:00 0.0
2016_12_27_S14 12/28/2016 04:55:00 0.0
2016_12_27_S14 12/28/2016 05:00:00 0.0
2016_12_27_S14 12/28/2016 05:05:00 0.0
2016_12_27_S14 12/28/2016 05:10:00 0.0
2016_12_27_S14 12/28/2016 05:15:00 0.0
2016_12_27_S14 12/28/2016 05:20:00 0.0
2016_12_27_S14 12/28/2016 05:25:00 0.0
2016_12_27_S14 12/28/2016 05:30:00 0.0
2016_12_27_S14 12/28/2016 05:35:00 0.0
2016_12_27_S14 12/28/2016 05:40:00 0.0
2016_12_27_S14 12/28/2016 05:45:00 0.0
2016_12_27_S14 12/28/2016 05:50:00 0.0
2016_12_27_S14 12/28/2016 05:55:00 0.0
2016_12_27_S14 12/28/2016 06:00:00 0.0
2016_12_27_S14 12/28/2016 06:05:00 0.0
2016_12_27_S14 12/28/2016 06:10:00 0.0
2016_12_27_S14 12/28/2016 06:15:00 0.0
2016_12_27_S14 12/28/2016 06:20:00 0.0
2016_12_27_S14 12/28/2016 06:25:00 0.0
2016_12_27_S14 12/28/2016 06:30:00 0.0
2016_12_27_S14 12/28/2016 06:35:00 0.0
2016_12_27_S14 12/28/2016 06:40:00 0.0
2016_12_27_S14 12/28/2016 06:45:00 0.0
2016_12_27_S14 12/28/2016 06:50:00 0.0
2016_12_27_S14 12/28/2016 06:55:00 0.0
2016_12_27_S14 12/28/2016 07:00:00 0.0
2016_12_27_S14 12/28/2016 07:05:00 0.0
2016_12_27_S14 12/28/2016 07:10:00 0.0
2016_12_27_S14 12/28/2016 07:15:00 0.0
2016_12_27_S14 12/28/2016 07:20:00 0.0
2016_12_27_S14 12/28/2016 07:25:00 0.0
2016_12_27_S14 12/28/2016 07:30:00 0.0
2016_12_27_S14 12/28/2016 07:35:00 0.0
2016_12_27_S14 12/28/2016 07:40:00 0.0
2016_12_27_S14 12/28/2016 07:45:00 0.0
2016_12_27_S14 12/28/2016 07:50:00 0.0
2016_12_27_S14 12/28/2016 07:55:00 0.0
2016_12_27_S14 12/28/2016 08:00:00 0.0

2016_12_27_S15 12/26/2016 08:00:00 0.0
2016_12_27_S15 12/26/2016 08:05:00 0.0
2016_12_27_S15 12/26/2016 08:10:00 0.0
2016_12_27_S15 12/26/2016 08:15:00 0.0
2016_12_27_S15 12/26/2016 08:20:00 0.0
2016_12_27_S15 12/26/2016 08:25:00 0.0
2016_12_27_S15 12/26/2016 08:30:00 0.0
2016_12_27_S15 12/26/2016 08:35:00 0.0
2016_12_27_S15 12/26/2016 08:40:00 0.0
2016_12_27_S15 12/26/2016 08:45:00 0.0
2016_12_27_S15 12/26/2016 08:50:00 0.0
2016_12_27_S15 12/26/2016 08:55:00 0.0
2016_12_27_S15 12/26/2016 09:00:00 0.0
2016_12_27_S15 12/26/2016 09:05:00 0.0
2016_12_27_S15 12/26/2016 09:10:00 0.0159
2016_12_27_S15 12/26/2016 09:15:00 0.0365
2016_12_27_S15 12/26/2016 09:20:00 0.0516
2016_12_27_S15 12/26/2016 09:25:00 0.0002
2016_12_27_S15 12/26/2016 09:30:00 0.0
2016_12_27_S15 12/26/2016 09:35:00 0.0
2016_12_27_S15 12/26/2016 09:40:00 0.0
2016_12_27_S15 12/26/2016 09:45:00 0.0
2016_12_27_S15 12/26/2016 09:50:00 0.0
2016_12_27_S15 12/26/2016 09:55:00 0.0
2016_12_27_S15 12/26/2016 10:00:00 0.0
2016_12_27_S15 12/26/2016 10:05:00 0.0
2016_12_27_S15 12/26/2016 10:10:00 0.0
2016_12_27_S15 12/26/2016 10:15:00 0.0
2016_12_27_S15 12/26/2016 10:20:00 0.0
2016_12_27_S15 12/26/2016 10:25:00 0.0
2016_12_27_S15 12/26/2016 10:30:00 0.0
2016_12_27_S15 12/26/2016 10:35:00 0.0
2016_12_27_S15 12/26/2016 10:40:00 0.0
2016_12_27_S15 12/26/2016 10:45:00 0.0
2016_12_27_S15 12/26/2016 10:50:00 0.0047
2016_12_27_S15 12/26/2016 10:55:00 0.0007
2016_12_27_S15 12/26/2016 11:00:00 0.0031
2016_12_27_S15 12/26/2016 11:05:00 0.0
2016_12_27_S15 12/26/2016 11:10:00 0.0
2016_12_27_S15 12/26/2016 11:15:00 0.0
2016_12_27_S15 12/26/2016 11:20:00 0.0
2016_12_27_S15 12/26/2016 11:25:00 0.0
2016_12_27_S15 12/26/2016 11:30:00 0.0
2016_12_27_S15 12/26/2016 11:35:00 0.0
2016_12_27_S15 12/26/2016 11:40:00 0.0
2016_12_27_S15 12/26/2016 11:45:00 0.0
2016_12_27_S15 12/26/2016 11:50:00 0.0015
2016_12_27_S15 12/26/2016 11:55:00 0.0011
2016_12_27_S15 12/26/2016 12:00:00 0.018
2016_12_27_S15 12/26/2016 12:05:00 0.1488
2016_12_27_S15 12/26/2016 12:10:00 0.1819
2016_12_27_S15 12/26/2016 12:15:00 0.0025
2016_12_27_S15 12/26/2016 12:20:00 0.0
2016_12_27_S15 12/26/2016 12:25:00 0.0
2016_12_27_S15 12/26/2016 12:30:00 0.0
2016_12_27_S15 12/26/2016 12:35:00 0.0015
2016_12_27_S15 12/26/2016 12:40:00 0.0111
2016_12_27_S15 12/26/2016 12:45:00 0.0401
2016_12_27_S15 12/26/2016 12:50:00 0.0
2016_12_27_S15 12/26/2016 12:55:00 0.0
2016_12_27_S15 12/26/2016 13:00:00 0.0
2016_12_27_S15 12/26/2016 13:05:00 0.0
2016_12_27_S15 12/26/2016 13:10:00 0.0
2016_12_27_S15 12/26/2016 13:15:00 0.0
2016_12_27_S15 12/26/2016 13:20:00 0.0
2016_12_27_S15 12/26/2016 13:25:00 0.0
2016_12_27_S15 12/26/2016 13:30:00 0.0
2016_12_27_S15 12/26/2016 13:35:00 0.0
2016_12_27_S15 12/26/2016 13:40:00 0.0
2016_12_27_S15 12/26/2016 13:45:00 0.0
2016_12_27_S15 12/26/2016 13:50:00 0.0
2016_12_27_S15 12/26/2016 13:55:00 0.0
2016_12_27_S15 12/26/2016 14:00:00 0.0
2016_12_27_S15 12/26/2016 14:05:00 0.0
2016_12_27_S15 12/26/2016 14:10:00 0.0
2016_12_27_S15 12/26/2016 14:15:00 0.0
2016_12_27_S15 12/26/2016 14:20:00 0.0
2016_12_27_S15 12/26/2016 14:25:00 0.0
2016_12_27_S15 12/26/2016 14:30:00 0.0
2016_12_27_S15 12/26/2016 14:35:00 0.0
2016_12_27_S15 12/26/2016 14:40:00 0.0
2016_12_27_S15 12/26/2016 14:45:00 0.0
2016_12_27_S15 12/26/2016 14:50:00 0.0
2016_12_27_S15 12/26/2016 14:55:00 0.0
2016_12_27_S15 12/26/2016 15:00:00 0.0
2016_12_27_S15 12/26/2016 15:05:00 0.0
2016_12_27_S15 12/26/2016 15:10:00 0.0
2016_12_27_S15 12/26/2016 15:15:00 0.0
2016_12_27_S15 12/26/2016 15:20:00 0.0
2016_12_27_S15 12/26/2016 15:25:00 0.0
2016_12_27_S15 12/26/2016 15:30:00 0.0
2016_12_27_S15 12/26/2016 15:35:00 0.0
2016_12_27_S15 12/26/2016 15:40:00 0.0
2016_12_27_S15 12/26/2016 15:45:00 0.0
2016_12_27_S15 12/26/2016 15:50:00 0.0
2016_12_27_S15 12/26/2016 15:55:00 0.0
2016_12_27_S15 12/26/2016 16:00:00 0.0
2016_12_27_S15 12/26/2016 16:05:00 0.0
2016_12_27_S15 12/26/2016 16:10:00 0.0
2016_12_27_S15 12/26/2016 16:15:00 0.0
2016_12_27_S15 12/26/2016 16:20:00 0.0
2016_12_27_S15 12/26/2016 16:25:00 0.0
2016_12_27_S15 12/26/2016 16:30:00 0.0
2016_12_27_S15 12/26/2016 16:35:00 0.0
2016_12_27_S15 12/26/2016 16:40:00 0.0
2016_12_27_S15 12/26/2016 16:45:00 0.0
2016_12_27_S15 12/26/2016 16:50:00 0.0
2016_12_27_S15 12/26/2016 16:55:00 0.0
2016_12_27_S15 12/26/2016 17:00:00 0.0
2016_12_27_S15 12/26/2016 17:05:00 0.0
2016_12_27_S15 12/26/2016 17:10:00 0.0
2016_12_27_S15 12/26/2016 17:15:00 0.0
2016_12_27_S15 12/26/2016 17:20:00 0.0
2016_12_27_S15 12/26/2016 17:25:00 0.0
2016_12_27_S15 12/26/2016 17:30:00 0.0
2016_12_27_S15 12/26/2016 17:35:00 0.0
2016_12_27_S15 12/26/2016 17:40:00 0.0
2016_12_27_S15 12/26/2016 17:45:00 0.0
2016_12_27_S15 12/26/2016 17:50:00 0.0
2016_12_27_S15 12/26/2016 17:55:00 0.0
2016_12_27_S15 12/26/2016 18:00:00 0.0
2016_12_27_S15 12/26/2016 18:05:00 0.0
2016_12_27_S15 12/26/2016 18:10:00 0.0
2016_12_27_S15 12/26/2016 18:15:00 0.0
2016_12_27_S15 12/26/2016 18:20:00 0.0
2016_12_27_S15 12/26/2016 18:25:00 0.0
2016_12_27_S15 12/26/2016 18:30:00 0.0
2016_12_27_S15 12/26/2016 18:35:00 0.0
2016_12_27_S15 12/26/2016 18:40:00 0.0
2016_12_27_S15 12/26/2016 18:45:00 0.0
2016_12_27_S15 12/26/2016 18:50:00 0.0
2016_12_27_S15 12/26/2016 18:55:00 0.0
2016_12_27_S15 12/26/2016 19:00:00 0.0
2016_12_27_S15 12/26/2016 19:05:00 0.0
2016_12_27_S15 12/26/2016 19:10:00 0.0
2016_12_27_S15 12/26/2016 19:15:00 0.0
2016_12_27_S15 12/26/2016 19:20:00 0.0
2016_12_27_S15 12/26/2016 19:25:00 0.0
2016_12_27_S15 12/26/2016 19:30:00 0.0
2016_12_27_S15 12/26/2016 19:35:00 0.0
2016_12_27_S15 12/26/2016 19:40:00 0.0
2016_12_27_S15 12/26/2016 19:45:00 0.0
2016_12_27_S15 12/26/2016 19:50:00 0.0
2016_12_27_S15 12/26/2016 19:55:00 0.0
2016_12_27_S15 12/26/2016 20:00:00 0.0
2016_12_27_S15 12/26/2016 20:05:00 0.0
2016_12_27_S15 12/26/2016 20:10:00 0.0
2016_12_27_S15 12/26/2016 20:15:00 0.0
2016_12_27_S15 12/26/2016 20:20:00 0.0
2016_12_27_S15 12/26/2016 20:25:00 0.0
2016_12_27_S15 12/26/2016 20:30:00 0.0
2016_12_27_S15 12/26/2016 20:35:00 0.0
2016_12_27_S15 12/26/2016 20:40:00 0.0
2016_12_27_S15 12/26/2016 20:45:00 0.0
2016_12_27_S15 12/26/2016 20:50:00 0.0
2016_12_27_S15 12/26/2016 20:55:00 0.0
2016_12_27_S15 12/26/2016 21:00:00 0.0
2016_12_27_S15 12/26/2016 21:05:00 0.0
2016_12_27_S15 12/26/2016 21:10:00 0.0
2016_12_27_S15 12/26/2016 21:15:00 0.0
2016_12_27_S15 12/26/2016 21:20:00 0.0
2016_12_27_S15 12/26/2016 21:25:00 0.0
2016_12_27_S15 12/26/2016 21:30:00 0.0
2016_12_27_S15 12/26/2016 21:35:00 0.0
2016_12_27_S15 12/26/2016 21:40:00 0.0
2016_12_27_S15 12/26/2016 21:45:00 0.0
2016_12_27_S15 12/26/2016 21:50:00 0.0
2016_12_27_S15 12/26/2016 21:55:00 0.0
2016_12_27_S15 12/26/2016 22:00:00 0.0
2016_12_27_S15 12/26/2016 22:05:00 0.0
2016_12_27_S15 12/26/2016 22:10:00 0.0
2016_12_27_S15 12/26/2016 22:15:00 0.0
2016_12_27_S15 12/26/2016 22:20:00 0.0
2016_12_27_S15 12/26/2016 22:25:00 0.0
2016_12_27_S15 12/26/2016 22:30:00 0.0
2016_12_27_S15 12/26/2016 22:35:00 0.0
2016_12_27_S15 12/26/2016 22:40:00 0.0
2016_12_27_S15 12/26/2016 22:45:00 0.0
2016_12_27_S15 12/26/2016 22:50:00 0.0
2016_12_27_S15 12/26/2016 22:55:00 0.0
2016_12_27_S15 12/26/2016 23:00:00 0.0
2016_12_27_S15 12/26/2016 23:05:00 0.0
2016_12_27_S15 12/26/2016 23:10:00 0.0
2016_12_27_S15 12/26/2016 23:15:00 0.0
2016_12_27_S15 12/26/2016 23:20:00 0.0
2016_12_27_S15 12/26/2016 23:25:00 0.0
2016_12_27_S15 12/26/2016 23:30:00 0.0
2016_12_27_S15 12/26/2016 23:35:00 0.0
2016_12_27_S15 12/26/2016 23:40:00 0.0
2016_12_27_S15 12/26/2016 23:45:00 0.0
2016_12_27_S15 12/26/2016 23:50:00 0.0
2016_12_27_S15 12/26/2016 23:55:00 0.0
2016_12_27_S15 12/27/2016 00:00:00 0.0
2016_12_27_S15 12/27/2016 00:05:00 0.0
2016_12_27_S15 12/27/2016 00:10:00 0.0
2016_12_27_S15 12/27/2016 00:15:00 0.0
2016_12_27_S15 12/27/2016 00:20:00 0.0
2016_12_27_S15 12/27/2016 00:25:00 0.0
2016_12_27_S15 12/27/2016 00:30:00 0.0
2016_12_27_S15 12/27/2016 00:35:00 0.0
2016_12_27_S15 12/27/2016 00:40:00 0.0
2016_12_27_S15 12/27/2016 00:45:00 0.0
2016_12_27_S15 12/27/2016 00:50:00 0.0
2016_12_27_S15 12/27/2016 00:55:00 0.0
2016_12_27_S15 12/27/2016 01:00:00 0.0005
2016_12_27_S15 12/27/2016 01:05:00 0.0014
2016_12_27_S15 12/27/2016 01:10:00 0.001
2016_12_27_S15 12/27/2016 01:15:00 0.0036
2016_12_27_S15 12/27/2016 01:20:00 0.0144
2016_12_27_S15 12/27/2016 01:25:00 0.0244
2016_12_27_S15 12/27/2016 01:30:00 0.0549
2016_12_27_S15 12/27/2016 01:35:00 0.6818
2016_12_27_S15 12/27/2016 01:40:00 0.2434
2016_12_27_S15 12/27/2016 01:45:00 0.1153
2016_12_27_S15 12/27/2016 01:50:00 0.5532
2016_12_27_S15 12/27/2016 01:55:00 0.5241
2016_12_27_S15 12/27/2016 02:00:00 0.0175
2016_12_27_S15 12/27/2016 02:05:00 0.0148
2016_12_27_S15 12/27/2016 02:10:00 0.0416
2016_12_27_S15 12/27/2016 02:15:00 0.0642
2016_12_27_S15 12/27/2016 02:20:00 0.0563
2016_12_27_S15 12/27/2016 02:25:00 0.1323
2016_12_27_S15 12/27/2016 02:30:00 0.0514
2016_12_27_S15 12/27/2016 02:35:00 0.1269
2016_12_27_S15 12/27/2016 02:40:00 0.2552
2016_12_27_S15 12/27/2016 02:45:00 0.3288
2016_12_27_S15 12/27/2016 02:50:00 0.691
2016_12_27_S15 12/27/2016 02:55:00 0.5208
2016_12_27_S15 12/27/2016 03:00:00 0.6615
2016_12_27_S15 12/27/2016 03:05:00 0.7077
2016_12_27_S15 12/27/2016 03:10:00 0.6136
2016_12_27_S15 12/27/2016 03:15:00 0.7831
2016_12_27_S15 12/27/2016 03:20:00 0.9903
2016_12_27_S15 12/27/2016 03:25:00 0.712
2016_12_27_S15 12/27/2016 03:30:00 1.0874
2016_12_27_S15 12/27/2016 03:35:00 0.5131
2016_12_27_S15 12/27/2016 03:40:00 0.5006
2016_12_27_S15 12/27/2016 03:45:00 0.2148
2016_12_27_S15 12/27/2016 03:50:00 0.309
2016_12_27_S15 12/27/2016 03:55:00 0.5516
2016_12_27_S15 12/27/2016 04:00:00 0.2472
2016_12_27_S15 12/27/2016 04:05:00 0.0729
2016_12_27_S15 12/27/2016 04:10:00 0.1915
2016_12_27_S15 12/27/2016 04:15:00 0.184
2016_12_27_S15 12/27/2016 04:20:00 0.0884
2016_12_27_S15 12/27/2016 04:25:00 0.0628
2016_12_27_S15 12/27/2016 04:30:00 0.0958
2016_12_27_S15 12/27/2016 04:35:00 0.0245
2016_12_27_S15 12/27/2016 04:40:00 0.0199
2016_12_27_S15 12/27/2016 04:45:00 0.0389
2016_12_27_S15 12/27/2016 04:50:00 0.1671
2016_12_27_S15 12/27/2016 04:55:00 0.5088
2016_12_27_S15 12/27/2016 05:00:00 0.8039
2016_12_27_S15 12/27/2016 05:05:00 0.1861
2016_12_27_S15 12/27/2016 05:10:00 0.2856
2016_12_27_S15 12/27/2016 05:15:00 0.2081
2016_12_27_S15 12/27/2016 05:20:00 0.2526
2016_12_27_S15 12/27/2016 05:25:00 0.1261
2016_12_27_S15 12/27/2016 05:30:00 0.0017
2016_12_27_S15 12/27/2016 05:35:00 0.0
2016_12_27_S15 12/27/2016 05:40:00 0.0
2016_12_27_S15 12/27/2016 05:45:00 0.0
2016_12_27_S15 12/27/2016 05:50:00 0.0
2016_12_27_S15 12/27/2016 05:55:00 0.0
2016_12_27_S15 12/27/2016 06:00:00 0.0
2016_12_27_S15 12/27/2016 06:05:00 0.0
2016_12_27_S15 12/27/2016 06:10:00 0.0
2016_12_27_S15 12/27/2016 06:15:00 0.0
2016_12_27_S15 12/27/2016 06:20:00 0.0
2016_12_27_S15 12/27/2016 06:25:00 0.0
2016_12_27_S15 12/27/2016 06:30:00 0.0
2016_12_27_S15 12/27/2016 06:35:00 0.0
2016_12_27_S15 12/27/2016 06:40:00 0.0033
2016_12_27_S15 12/27/2016 06:45:00 0.0429
2016_12_27_S15 12/27/2016 06:50:00 0.0
2016_12_27_S15 12/27/2016 06:55:00 0.0198
2016_12_27_S15 12/27/2016 07:00:00 0.0934
2016_12_27_S15 12/27/2016 07:05:00 0.0161
2016_12_27_S15 12/27/2016 07:10:00 0.1305
2016_12_27_S15 12/27/2016 07:15:00 0.9356
2016_12_27_S15 12/27/2016 07:20:00 0.6528
2016_12_27_S15 12/27/2016 07:25:00 0.4672
2016_12_27_S15 12/27/2016 07:30:00 0.4425
2016_12_27_S15 12/27/2016 07:35:00 0.3683
2016_12_27_S15 12/27/2016 07:40:00 0.3932
2016_12_27_S15 12/27/2016 07:45:00 0.06
2016_12_27_S15 12/27/2016 07:50:00 0.3716
2016_12_27_S15 12/27/2016 07:55:00 1.0845
2016_12_27_S15 12/27/2016 08:00:00 0.4006
2016_12_27_S15 12/27/2016 08:05:00 0.8107
2016_12_27_S15 12/27/2016 08:10:00 0.8423
2016_12_27_S15 12/27/2016 08:15:00 0.7484
2016_12_27_S15 12/27/2016 08:20:00 0.3282
2016_12_27_S15 12/27/2016 08:25:00 0.189
2016_12_27_S15 12/27/2016 08:30:00 0.0231
2016_12_27_S15 12/27/2016 08:35:00 0.0749
2016_12_27_S15 12/27/2016 08:40:00 0.5009
2016_12_27_S15 12/27/2016 08:45:00 0.6536
2016_12_27_S15 12/27/2016 08:50:00 0.3095
2016_12_27_S15 12/27/2016 08:55:00 0.0495
2016_12_27_S15 12/27/2016 09:00:00 0.9614
2016_12_27_S15 12/27/2016 09:05:00 0.3147
2016_12_27_S15 12/27/2016 09:10:00 0.2019
2016_12_27_S15 12/27/2016 09:15:00 0.9068
2016_12_27_S15 12/27/2016 09:20:00 0.6751
2016_12_27_S15 12/27/2016 09:25:00 0.4319
2016_12_27_S15 12/27/2016 09:30:00 0.3804
2016_12_27_S15 12/27/2016 09:35:00 0.2573
2016_12_27_S15 12/27/2016 09:40:00 0.7414
2016_12_27_S15 12/27/2016 09:45:00 0.3824
2016_12_27_S15 12/27/2016 09:50:00 0.0926
2016_12_27_S15 12/27/2016 09:55:00 0.0
2016_12_27_S15 12/27/2016 10:00:00 0.1832
2016_12_27_S15 12/27/2016 10:05:00 0.5766
2016_12_27_S15 12/27/2016 10:10:00 0.3663
2016_12_27_S15 12/27/2016 10:15:00 0.1373
2016_12_27_S15 12/27/2016 10:20:00 0.0488
2016_12_27_S15 12/27/2016 10:25:00 0.1166
2016_12_27_S15 12/27/2016 10:30:00 0.0774
2016_12_27_S15 12/27/2016 10:35:00 0.0546
2016_12_27_S15 12/27/2016 10:40:00 0.0529
2016_12_27_S15 12/27/2016 10:45:00 0.2193
2016_12_27_S15 12/27/2016 10:50:00 1.2975
2016_12_27_S15 12/27/2016 10:55:00 0.569
2016_12_27_S15 12/27/2016 11:00:00 0.483
2016_12_27_S15 12/27/2016 11:05:00 0.2703
2016_12_27_S15 12/27/2016 11:10:00 0.0641
2016_12_27_S15 12/27/2016 11:15:00 0.1439
2016_12_27_S15 12/27/2016 11:20:00 0.4596
2016_12_27_S15 12/27/2016 11:25:00 0.3009
2016_12_27_S15 12/27/2016 11:30:00 1.2028
2016_12_27_S15 12/27/2016 11:35:00 0.5656
2016_12_27_S15 12/27/2016 11:40:00 0.8736
2016_12_27_S15 12/27/2016 11:45:00 0.7689
2016_12_27_S15 12/27/2016 11:50:00 1.1666
2016_12_27_S15 12/27/2016 11:55:00 0.4288
2016_12_27_S15 12/27/2016 12:00:00 0.3927
2016_12_27_S15 12/27/2016 12:05:00 0.5937
2016_12_27_S15 12/27/2016 12:10:00 0.3139
2016_12_27_S15 12/27/2016 12:15:00 0.635
2016_12_27_S15 12/27/2016 12:20:00 0.3333
2016_12_27_S15 12/27/2016 12:25:00 0.307
2016_12_27_S15 12/27/2016 12:30:00 0.2843
2016_12_27_S15 12/27/2016 12:35:00 0.0528
2016_12_27_S15 12/27/2016 12:40:00 0.0621
2016_12_27_S15 12/27/2016 12:45:00 0.0209
2016_12_27_S15 12/27/2016 12:50:00 0.0038
2016_12_27_S15 12/27/2016 12:55:00 0.0026
2016_12_27_S15 12/27/2016 13:00:00 0.0423
2016_12_27_S15 12/27/2016 13:05:00 0.0228
2016_12_27_S15 12/27/2016 13:10:00 0.0
2016_12_27_S15 12/27/2016 13:15:00 0.0
2016_12_27_S15 12/27/2016 13:20:00 0.0
2016_12_27_S15 12/27/2016 13:25:00 0.0085
2016_12_27_S15 12/27/2016 13:30:00 0.3388
2016_12_27_S15 12/27/2016 13:35:00 0.2174
2016_12_27_S15 12/27/2016 13:40:00 0.1641
2016_12_27_S15 12/27/2016 13:45:00 0.1604
2016_12_27_S15 12/27/2016 13:50:00 0.2303
2016_12_27_S15 12/27/2016 13:55:00 0.0455
2016_12_27_S15 12/27/2016 14:00:00 0.1477
2016_12_27_S15 12/27/2016 14:05:00 0.1499
2016_12_27_S15 12/27/2016 14:10:00 0.0395
2016_12_27_S15 12/27/2016 14:15:00 0.0058
2016_12_27_S15 12/27/2016 14:20:00 0.0119
2016_12_27_S15 12/27/2016 14:25:00 0.0267
2016_12_27_S15 12/27/2016 14:30:00 0.0183
2016_12_27_S15 12/27/2016 14:35:00 0.0
2016_12_27_S15 12/27/2016 14:40:00 0.0
2016_12_27_S15 12/27/2016 14:45:00 0.0
2016_12_27_S15 12/27/2016 14:50:00 0.0
2016_12_27_S15 12/27/2016 14:55:00 0.0
2016_12_27_S15 12/27/2016 15:00:00 0.0
2016_12_27_S15 12/27/2016 15:05:00 0.0
2016_12_27_S15 12/27/2016 15:10:00 0.0
2016_12_27_S15 12/27/2016 15:15:00 0.0
2016_12_27_S15 12/27/2016 15:20:00 0.0195
2016_12_27_S15 12/27/2016 15:25:00 0.0009
2016_12_27_S15 12/27/2016 15:30:00 0.0
2016_12_27_S15 12/27/2016 15:35:00 0.0
2016_12_27_S15 12/27/2016 15:40:00 0.0
2016_12_27_S15 12/27/2016 15:45:00 0.0
2016_12_27_S15 12/27/2016 15:50:00 0.0074
2016_12_27_S15 12/27/2016 15:55:00 0.0
2016_12_27_S15 12/27/2016 16:00:00 0.0087
2016_12_27_S15 12/27/2016 16:05:00 0.0411
2016_12_27_S15 12/27/2016 16:10:00 0.0
2016_12_27_S15 12/27/2016 16:15:00 0.012
2016_12_27_S15 12/27/2016 16:20:00 0.0
2016_12_27_S15 12/27/2016 16:25:00 0.0
2016_12_27_S15 12/27/2016 16:30:00 0.0
2016_12_27_S15 12/27/2016 16:35:00 0.0
2016_12_27_S15 12/27/2016 16:40:00 0.1709
2016_12_27_S15 12/27/2016 16:45:00 0.027
2016_12_27_S15 12/27/2016 16:50:00 0.0
2016_12_27_S15 12/27/2016 16:55:00 0.0
2016_12_27_S15 12/27/2016 17:00:00 0.0
2016_12_27_S15 12/27/2016 17:05:00 0.0
2016_12_27_S15 12/27/2016 17:10:00 0.0
2016_12_27_S15 12/27/2016 17:15:00 0.0
2016_12_27_S15 12/27/2016 17:20:00 0.0
2016_12_27_S15 12/27/2016 17:25:00 0.0
2016_12_27_S15 12/27/2016 17:30:00 0.0
2016_12_27_S15 12/27/2016 17:35:00 0.0
2016_12_27_S15 12/27/2016 17:40:00 0.002
2016_12_27_S15 12/27/2016 17:45:00 0.5516
2016_12_27_S15 12/27/2016 17:50:00 0.1256
2016_12_27_S15 12/27/2016 17:55:00 0.0132
2016_12_27_S15 12/27/2016 18:00:00 0.0
2016_12_27_S15 12/27/2016 18:05:00 0.0
2016_12_27_S15 12/27/2016 18:10:00 0.0
2016_12_27_S15 12/27/2016 18:15:00 0.0
2016_12_27_S15 12/27/2016 18:20:00 0.0002
2016_12_27_S15 12/27/2016 18:25:00 7.4178
2016_12_27_S15 12/27/2016 18:30:00 0.0369
2016_12_27_S15 12/27/2016 18:35:00 0.0214
2016_12_27_S15 12/27/2016 18:40:00 0.0585
2016_12_27_S15 12/27/2016 18:45:00 0.0
2016_12_27_S15 12/27/2016 18:50:00 0.0
2016_12_27_S15 12/27/2016 18:55:00 0.0
2016_12_27_S15 12/27/2016 19:00:00 0.0
2016_12_27_S15 12/27/2016 19:05:00 0.0
2016_12_27_S15 12/27/2016 19:10:00 0.0024
2016_12_27_S15 12/27/2016 19:15:00 0.1377
2016_12_27_S15 12/27/2016 19:20:00 0.0041
2016_12_27_S15 12/27/2016 19:25:00 0.0
2016_12_27_S15 12/27/2016 19:30:00 0.0024
2016_12_27_S15 12/27/2016 19:35:00 0.0731
2016_12_27_S15 12/27/2016 19:40:00 0.1113
2016_12_27_S15 12/27/2016 19:45:00 0.6416
2016_12_27_S15 12/27/2016 19:50:00 0.6962
2016_12_27_S15 12/27/2016 19:55:00 3.2186
2016_12_27_S15 12/27/2016 20:00:00 0.1703
2016_12_27_S15 12/27/2016 20:05:00 0.0043
2016_12_27_S15 12/27/2016 20:10:00 0.0
2016_12_27_S15 12/27/2016 20:15:00 0.0
2016_12_27_S15 12/27/2016 20:20:00 0.0
2016_12_27_S15 12/27/2016 20:25:00 0.0024
2016_12_27_S15 12/27/2016 20:30:00 0.0109
2016_12_27_S15 12/27/2016 20:35:00 0.0205
2016_12_27_S15 12/27/2016 20:40:00 0.0001
2016_12_27_S15 12/27/2016 20:45:00 0.0
2016_12_27_S15 12/27/2016 20:50:00 0.0
2016_12_27_S15 12/27/2016 20:55:00 0.0
2016_12_27_S15 12/27/2016 21:00:00 0.0
2016_12_27_S15 12/27/2016 21:05:00 0.0
2016_12_27_S15 12/27/2016 21:10:00 0.0
2016_12_27_S15 12/27/2016 21:15:00 0.0
2016_12_27_S15 12/27/2016 21:20:00 0.0
2016_12_27_S15 12/27/2016 21:25:00 0.0
2016_12_27_S15 12/27/2016 21:30:00 0.0
2016_12_27_S15 12/27/2016 21:35:00 0.0
2016_12_27_S15 12/27/2016 21:40:00 0.0
2016_12_27_S15 12/27/2016 21:45:00 0.0
2016_12_27_S15 12/27/2016 21:50:00 0.0
2016_12_27_S15 12/27/2016 21:55:00 0.0
2016_12_27_S15 12/27/2016 22:00:00 0.0
2016_12_27_S15 12/27/2016 22:05:00 0.0
2016_12_27_S15 12/27/2016 22:10:00 0.0
2016_12_27_S15 12/27/2016 22:15:00 0.0029
2016_12_27_S15 12/27/2016 22:20:00 0.0
2016_12_27_S15 12/27/2016 22:25:00 0.0
2016_12_27_S15 12/27/2016 22:30:00 0.0403
2016_12_27_S15 12/27/2016 22:35:00 0.2965
2016_12_27_S15 12/27/2016 22:40:00 0.1168
2016_12_27_S15 12/27/2016 22:45:00 0.0
2016_12_27_S15 12/27/2016 22:50:00 0.0002
2016_12_27_S15 12/27/2016 22:55:00 0.0075
2016_12_27_S15 12/27/2016 23:00:00 0.0265
2016_12_27_S15 12/27/2016 23:05:00 0.0494
2016_12_27_S15 12/27/2016 23:10:00 0.041
2016_12_27_S15 12/27/2016 23:15:00 0.0
2016_12_27_S15 12/27/2016 23:20:00 0.0001
2016_12_27_S15 12/27/2016 23:25:00 0.0
2016_12_27_S15 12/27/2016 23:30:00 0.0
2016_12_27_S15 12/27/2016 23:35:00 0.0
2016_12_27_S15 12/27/2016 23:40:00 0.0013
2016_12_27_S15 12/27/2016 23:45:00 0.0
2016_12_27_S15 12/27/2016 23:50:00 0.0
2016_12_27_S15 12/27/2016 23:55:00 0.0
2016_12_27_S15 12/28/2016 00:00:00 0.0
2016_12_27_S15 12/28/2016 00:05:00 0.0
2016_12_27_S15 12/28/2016 00:10:00 0.0
2016_12_27_S15 12/28/2016 00:15:00 0.0
2016_12_27_S15 12/28/2016 00:20:00 0.0
2016_12_27_S15 12/28/2016 00:25:00 0.0
2016_12_27_S15 12/28/2016 00:30:00 0.0006
2016_12_27_S15 12/28/2016 00:35:00 0.0
2016_12_27_S15 12/28/2016 00:40:00 0.0
2016_12_27_S15 12/28/2016 00:45:00 0.0
2016_12_27_S15 12/28/2016 00:50:00 0.0
2016_12_27_S15 12/28/2016 00:55:00 0.0
2016_12_27_S15 12/28/2016 01:00:00 0.0
2016_12_27_S15 12/28/2016 01:05:00 0.0
2016_12_27_S15 12/28/2016 01:10:00 0.0
2016_12_27_S15 12/28/2016 01:15:00 0.0
2016_12_27_S15 12/28/2016 01:20:00 0.0
2016_12_27_S15 12/28/2016 01:25:00 0.0
2016_12_27_S15 12/28/2016 01:30:00 0.0
2016_12_27_S15 12/28/2016 01:35:00 0.0
2016_12_27_S15 12/28/2016 01:40:00 0.0
2016_12_27_S15 12/28/2016 01:45:00 0.0
2016_12_27_S15 12/28/2016 01:50:00 0.0
2016_12_27_S15 12/28/2016 01:55:00 0.0
2016_12_27_S15 12/28/2016 02:00:00 0.0
2016_12_27_S15 12/28/2016 02:05:00 0.0
2016_12_27_S15 12/28/2016 02:10:00 0.0
2016_12_27_S15 12/28/2016 02:15:00 0.0
2016_12_27_S15 12/28/2016 02:20:00 0.0
2016_12_27_S15 12/28/2016 02:25:00 0.0
2016_12_27_S15 12/28/2016 02:30:00 0.0
2016_12_27_S15 12/28/2016 02:35:00 0.0
2016_12_27_S15 12/28/2016 02:40:00 0.0
2016_12_27_S15 12/28/2016 02:45:00 0.0
2016_12_27_S15 12/28/2016 02:50:00 0.0
2016_12_27_S15 12/28/2016 02:55:00 0.0
2016_12_27_S15 12/28/2016 03:00:00 0.0
2016_12_27_S15 12/28/2016 03:05:00 0.0
2016_12_27_S15 12/28/2016 03:10:00 0.0
2016_12_27_S15 12/28/2016 03:15:00 0.0
2016_12_27_S15 12/28/2016 03:20:00 0.0
2016_12_27_S15 12/28/2016 03:25:00 0.0
2016_12_27_S15 12/28/2016 03:30:00 0.0
2016_12_27_S15 12/28/2016 03:35:00 0.0
2016_12_27_S15 12/28/2016 03:40:00 0.0
2016_12_27_S15 12/28/2016 03:45:00 0.0
2016_12_27_S15 12/28/2016 03:50:00 0.0
2016_12_27_S15 12/28/2016 03:55:00 0.0
2016_12_27_S15 12/28/2016 04:00:00 0.0
2016_12_27_S15 12/28/2016 04:05:00 0.0
2016_12_27_S15 12/28/2016 04:10:00 0.0
2016_12_27_S15 12/28/2016 04:15:00 0.0
2016_12_27_S15 12/28/2016 04:20:00 0.0
2016_12_27_S15 12/28/2016 04:25:00 0.0
2016_12_27_S15 12/28/2016 04:30:00 0.0
2016_12_27_S15 12/28/2016 04:35:00 0.0
2016_12_27_S15 12/28/2016 04:40:00 0.0
2016_12_27_S15 12/28/2016 04:45:00 0.0
2016_12_27_S15 12/28/2016 04:50:00 0.0
2016_12_27_S15 12/28/2016 04:55:00 0.0
2016_12_27_S15 12/28/2016 05:00:00 0.0
2016_12_27_S15 12/28/2016 05:05:00 0.0
2016_12_27_S15 12/28/2016 05:10:00 0.0
2016_12_27_S15 12/28/2016 05:15:00 0.0
2016_12_27_S15 12/28/2016 05:20:00 0.0
2016_12_27_S15 12/28/2016 05:25:00 0.0
2016_12_27_S15 12/28/2016 05:30:00 0.0
2016_12_27_S15 12/28/2016 05:35:00 0.0
2016_12_27_S15 12/28/2016 05:40:00 0.0
2016_12_27_S15 12/28/2016 05:45:00 0.0
2016_12_27_S15 12/28/2016 05:50:00 0.0
2016_12_27_S15 12/28/2016 05:55:00 0.0
2016_12_27_S15 12/28/2016 06:00:00 0.0
2016_12_27_S15 12/28/2016 06:05:00 0.0
2016_12_27_S15 12/28/2016 06:10:00 0.0
2016_12_27_S15 12/28/2016 06:15:00 0.0
2016_12_27_S15 12/28/2016 06:20:00 0.0
2016_12_27_S15 12/28/2016 06:25:00 0.0
2016_12_27_S15 12/28/2016 06:30:00 0.0
2016_12_27_S15 12/28/2016 06:35:00 0.0
2016_12_27_S15 12/28/2016 06:40:00 0.0
2016_12_27_S15 12/28/2016 06:45:00 0.0
2016_12_27_S15 12/28/2016 06:50:00 0.0
2016_12_27_S15 12/28/2016 06:55:00 0.0
2016_12_27_S15 12/28/2016 07:00:00 0.0
2016_12_27_S15 12/28/2016 07:05:00 0.0
2016_12_27_S15 12/28/2016 07:10:00 0.0
2016_12_27_S15 12/28/2016 07:15:00 0.0
2016_12_27_S15 12/28/2016 07:20:00 0.0
2016_12_27_S15 12/28/2016 07:25:00 0.0
2016_12_27_S15 12/28/2016 07:30:00 0.0
2016_12_27_S15 12/28/2016 07:35:00 0.0
2016_12_27_S15 12/28/2016 07:40:00 0.0
2016_12_27_S15 12/28/2016 07:45:00 0.0
2016_12_27_S15 12/28/2016 07:50:00 0.0
2016_12_27_S15 12/28/2016 07:55:00 0.0
2016_12_27_S15 12/28/2016 08:00:00 0.0

2016_12_27_S16 12/26/2016 08:00:00 0.0
2016_12_27_S16 12/26/2016 08:05:00 0.0
2016_12_27_S16 12/26/2016 08:10:00 0.0
2016_12_27_S16 12/26/2016 08:15:00 0.0
2016_12_27_S16 12/26/2016 08:20:00 0.0
2016_12_27_S16 12/26/2016 08:25:00 0.0
2016_12_27_S16 12/26/2016 08:30:00 0.0
2016_12_27_S16 12/26/2016 08:35:00 0.0
2016_12_27_S16 12/26/2016 08:40:00 0.0
2016_12_27_S16 12/26/2016 08:45:00 0.0
2016_12_27_S16 12/26/2016 08:50:00 0.0
2016_12_27_S16 12/26/2016 08:55:00 0.0
2016_12_27_S16 12/26/2016 09:00:00 0.0
2016_12_27_S16 12/26/2016 09:05:00 0.0
2016_12_27_S16 12/26/2016 09:10:00 0.0093
2016_12_27_S16 12/26/2016 09:15:00 0.0306
2016_12_27_S16 12/26/2016 09:20:00 0.0534
2016_12_27_S16 12/26/2016 09:25:00 0.0054
2016_12_27_S16 12/26/2016 09:30:00 0.0
2016_12_27_S16 12/26/2016 09:35:00 0.0
2016_12_27_S16 12/26/2016 09:40:00 0.0
2016_12_27_S16 12/26/2016 09:45:00 0.0
2016_12_27_S16 12/26/2016 09:50:00 0.0
2016_12_27_S16 12/26/2016 09:55:00 0.0
2016_12_27_S16 12/26/2016 10:00:00 0.0
2016_12_27_S16 12/26/2016 10:05:00 0.0
2016_12_27_S16 12/26/2016 10:10:00 0.0
2016_12_27_S16 12/26/2016 10:15:00 0.0
2016_12_27_S16 12/26/2016 10:20:00 0.0
2016_12_27_S16 12/26/2016 10:25:00 0.0
2016_12_27_S16 12/26/2016 10:30:00 0.0
2016_12_27_S16 12/26/2016 10:35:00 0.0
2016_12_27_S16 12/26/2016 10:40:00 0.0
2016_12_27_S16 12/26/2016 10:45:00 0.0
2016_12_27_S16 12/26/2016 10:50:00 0.0
2016_12_27_S16 12/26/2016 10:55:00 0.0062
2016_12_27_S16 12/26/2016 11:00:00 0.0007
2016_12_27_S16 12/26/2016 11:05:00 0.0014
2016_12_27_S16 12/26/2016 11:10:00 0.0
2016_12_27_S16 12/26/2016 11:15:00 0.0
2016_12_27_S16 12/26/2016 11:20:00 0.0
2016_12_27_S16 12/26/2016 11:25:00 0.0
2016_12_27_S16 12/26/2016 11:30:00 0.0
2016_12_27_S16 12/26/2016 11:35:00 0.0
2016_12_27_S16 12/26/2016 11:40:00 0.0
2016_12_27_S16 12/26/2016 11:45:00 0.0
2016_12_27_S16 12/26/2016 11:50:00 0.0024
2016_12_27_S16 12/26/2016 11:55:00 0.0032
2016_12_27_S16 12/26/2016 12:00:00 0.012
2016_12_27_S16 12/26/2016 12:05:00 0.1141
2016_12_27_S16 12/26/2016 12:10:00 0.167
2016_12_27_S16 12/26/2016 12:15:00 0.0161
2016_12_27_S16 12/26/2016 12:20:00 0.0
2016_12_27_S16 12/26/2016 12:25:00 0.0
2016_12_27_S16 12/26/2016 12:30:00 0.0
2016_12_27_S16 12/26/2016 12:35:00 0.0
2016_12_27_S16 12/26/2016 12:40:00 0.0022
2016_12_27_S16 12/26/2016 12:45:00 0.1142
2016_12_27_S16 12/26/2016 12:50:00 0.0
2016_12_27_S16 12/26/2016 12:55:00 0.0
2016_12_27_S16 12/26/2016 13:00:00 0.0
2016_12_27_S16 12/26/2016 13:05:00 0.0
2016_12_27_S16 12/26/2016 13:10:00 0.0
2016_12_27_S16 12/26/2016 13:15:00 0.0
2016_12_27_S16 12/26/2016 13:20:00 0.0
2016_12_27_S16 12/26/2016 13:25:00 0.0
2016_12_27_S16 12/26/2016 13:30:00 0.0
2016_12_27_S16 12/26/2016 13:35:00 0.0
2016_12_27_S16 12/26/2016 13:40:00 0.0
2016_12_27_S16 12/26/2016 13:45:00 0.0
2016_12_27_S16 12/26/2016 13:50:00 0.0
2016_12_27_S16 12/26/2016 13:55:00 0.0
2016_12_27_S16 12/26/2016 14:00:00 0.0
2016_12_27_S16 12/26/2016 14:05:00 0.0
2016_12_27_S16 12/26/2016 14:10:00 0.0
2016_12_27_S16 12/26/2016 14:15:00 0.0
2016_12_27_S16 12/26/2016 14:20:00 0.0
2016_12_27_S16 12/26/2016 14:25:00 0.0
2016_12_27_S16 12/26/2016 14:30:00 0.0
2016_12_27_S16 12/26/2016 14:35:00 0.0
2016_12_27_S16 12/26/2016 14:40:00 0.0
2016_12_27_S16 12/26/2016 14:45:00 0.0
2016_12_27_S16 12/26/2016 14:50:00 0.0
2016_12_27_S16 12/26/2016 14:55:00 0.0
2016_12_27_S16 12/26/2016 15:00:00 0.0
2016_12_27_S16 12/26/2016 15:05:00 0.0
2016_12_27_S16 12/26/2016 15:10:00 0.0
2016_12_27_S16 12/26/2016 15:15:00 0.0
2016_12_27_S16 12/26/2016 15:20:00 0.0
2016_12_27_S16 12/26/2016 15:25:00 0.0
2016_12_27_S16 12/26/2016 15:30:00 0.0
2016_12_27_S16 12/26/2016 15:35:00 0.0
2016_12_27_S16 12/26/2016 15:40:00 0.0
2016_12_27_S16 12/26/2016 15:45:00 0.0
2016_12_27_S16 12/26/2016 15:50:00 0.0
2016_12_27_S16 12/26/2016 15:55:00 0.0
2016_12_27_S16 12/26/2016 16:00:00 0.0
2016_12_27_S16 12/26/2016 16:05:00 0.0
2016_12_27_S16 12/26/2016 16:10:00 0.0
2016_12_27_S16 12/26/2016 16:15:00 0.0
2016_12_27_S16 12/26/2016 16:20:00 0.0
2016_12_27_S16 12/26/2016 16:25:00 0.0
2016_12_27_S16 12/26/2016 16:30:00 0.0
2016_12_27_S16 12/26/2016 16:35:00 0.0
2016_12_27_S16 12/26/2016 16:40:00 0.0
2016_12_27_S16 12/26/2016 16:45:00 0.0
2016_12_27_S16 12/26/2016 16:50:00 0.0
2016_12_27_S16 12/26/2016 16:55:00 0.0
2016_12_27_S16 12/26/2016 17:00:00 0.0
2016_12_27_S16 12/26/2016 17:05:00 0.0
2016_12_27_S16 12/26/2016 17:10:00 0.0
2016_12_27_S16 12/26/2016 17:15:00 0.0
2016_12_27_S16 12/26/2016 17:20:00 0.0
2016_12_27_S16 12/26/2016 17:25:00 0.0
2016_12_27_S16 12/26/2016 17:30:00 0.0
2016_12_27_S16 12/26/2016 17:35:00 0.0
2016_12_27_S16 12/26/2016 17:40:00 0.0
2016_12_27_S16 12/26/2016 17:45:00 0.0
2016_12_27_S16 12/26/2016 17:50:00 0.0
2016_12_27_S16 12/26/2016 17:55:00 0.0
2016_12_27_S16 12/26/2016 18:00:00 0.0
2016_12_27_S16 12/26/2016 18:05:00 0.0
2016_12_27_S16 12/26/2016 18:10:00 0.0
2016_12_27_S16 12/26/2016 18:15:00 0.0
2016_12_27_S16 12/26/2016 18:20:00 0.0
2016_12_27_S16 12/26/2016 18:25:00 0.0
2016_12_27_S16 12/26/2016 18:30:00 0.0
2016_12_27_S16 12/26/2016 18:35:00 0.0
2016_12_27_S16 12/26/2016 18:40:00 0.0
2016_12_27_S16 12/26/2016 18:45:00 0.0
2016_12_27_S16 12/26/2016 18:50:00 0.0
2016_12_27_S16 12/26/2016 18:55:00 0.0
2016_12_27_S16 12/26/2016 19:00:00 0.0
2016_12_27_S16 12/26/2016 19:05:00 0.0
2016_12_27_S16 12/26/2016 19:10:00 0.0
2016_12_27_S16 12/26/2016 19:15:00 0.0
2016_12_27_S16 12/26/2016 19:20:00 0.0
2016_12_27_S16 12/26/2016 19:25:00 0.0
2016_12_27_S16 12/26/2016 19:30:00 0.0
2016_12_27_S16 12/26/2016 19:35:00 0.0
2016_12_27_S16 12/26/2016 19:40:00 0.0
2016_12_27_S16 12/26/2016 19:45:00 0.0
2016_12_27_S16 12/26/2016 19:50:00 0.0
2016_12_27_S16 12/26/2016 19:55:00 0.0
2016_12_27_S16 12/26/2016 20:00:00 0.0
2016_12_27_S16 12/26/2016 20:05:00 0.0
2016_12_27_S16 12/26/2016 20:10:00 0.0
2016_12_27_S16 12/26/2016 20:15:00 0.0
2016_12_27_S16 12/26/2016 20:20:00 0.0
2016_12_27_S16 12/26/2016 20:25:00 0.0
2016_12_27_S16 12/26/2016 20:30:00 0.0
2016_12_27_S16 12/26/2016 20:35:00 0.0
2016_12_27_S16 12/26/2016 20:40:00 0.0
2016_12_27_S16 12/26/2016 20:45:00 0.0
2016_12_27_S16 12/26/2016 20:50:00 0.0
2016_12_27_S16 12/26/2016 20:55:00 0.0
2016_12_27_S16 12/26/2016 21:00:00 0.0
2016_12_27_S16 12/26/2016 21:05:00 0.0
2016_12_27_S16 12/26/2016 21:10:00 0.0
2016_12_27_S16 12/26/2016 21:15:00 0.0
2016_12_27_S16 12/26/2016 21:20:00 0.0
2016_12_27_S16 12/26/2016 21:25:00 0.0
2016_12_27_S16 12/26/2016 21:30:00 0.0
2016_12_27_S16 12/26/2016 21:35:00 0.0
2016_12_27_S16 12/26/2016 21:40:00 0.0
2016_12_27_S16 12/26/2016 21:45:00 0.0
2016_12_27_S16 12/26/2016 21:50:00 0.0
2016_12_27_S16 12/26/2016 21:55:00 0.0
2016_12_27_S16 12/26/2016 22:00:00 0.0
2016_12_27_S16 12/26/2016 22:05:00 0.0
2016_12_27_S16 12/26/2016 22:10:00 0.0
2016_12_27_S16 12/26/2016 22:15:00 0.0
2016_12_27_S16 12/26/2016 22:20:00 0.0
2016_12_27_S16 12/26/2016 22:25:00 0.0
2016_12_27_S16 12/26/2016 22:30:00 0.0
2016_12_27_S16 12/26/2016 22:35:00 0.0
2016_12_27_S16 12/26/2016 22:40:00 0.0
2016_12_27_S16 12/26/2016 22:45:00 0.0
2016_12_27_S16 12/26/2016 22:50:00 0.0
2016_12_27_S16 12/26/2016 22:55:00 0.0
2016_12_27_S16 12/26/2016 23:00:00 0.0
2016_12_27_S16 12/26/2016 23:05:00 0.0
2016_12_27_S16 12/26/2016 23:10:00 0.0
2016_12_27_S16 12/26/2016 23:15:00 0.0
2016_12_27_S16 12/26/2016 23:20:00 0.0
2016_12_27_S16 12/26/2016 23:25:00 0.0
2016_12_27_S16 12/26/2016 23:30:00 0.0
2016_12_27_S16 12/26/2016 23:35:00 0.0
2016_12_27_S16 12/26/2016 23:40:00 0.0
2016_12_27_S16 12/26/2016 23:45:00 0.0
2016_12_27_S16 12/26/2016 23:50:00 0.0
2016_12_27_S16 12/26/2016 23:55:00 0.0
2016_12_27_S16 12/27/2016 00:00:00 0.0
2016_12_27_S16 12/27/2016 00:05:00 0.0
2016_12_27_S16 12/27/2016 00:10:00 0.0
2016_12_27_S16 12/27/2016 00:15:00 0.0
2016_12_27_S16 12/27/2016 00:20:00 0.0
2016_12_27_S16 12/27/2016 00:25:00 0.0
2016_12_27_S16 12/27/2016 00:30:00 0.0
2016_12_27_S16 12/27/2016 00:35:00 0.0
2016_12_27_S16 12/27/2016 00:40:00 0.0
2016_12_27_S16 12/27/2016 00:45:00 0.0
2016_12_27_S16 12/27/2016 00:50:00 0.0
2016_12_27_S16 12/27/2016 00:55:00 0.0
2016_12_27_S16 12/27/2016 01:00:00 0.0
2016_12_27_S16 12/27/2016 01:05:00 0.0039
2016_12_27_S16 12/27/2016 01:10:00 0.0
2016_12_27_S16 12/27/2016 01:15:00 0.0056
2016_12_27_S16 12/27/2016 01:20:00 0.0118
2016_12_27_S16 12/27/2016 01:25:00 0.0155
2016_12_27_S16 12/27/2016 01:30:00 0.0499
2016_12_27_S16 12/27/2016 01:35:00 0.5784
2016_12_27_S16 12/27/2016 01:40:00 0.1914
2016_12_27_S16 12/27/2016 01:45:00 0.0649
2016_12_27_S16 12/27/2016 01:50:00 0.4905
2016_12_27_S16 12/27/2016 01:55:00 0.4667
2016_12_27_S16 12/27/2016 02:00:00 0.0498
2016_12_27_S16 12/27/2016 02:05:00 0.0214
2016_12_27_S16 12/27/2016 02:10:00 0.0838
2016_12_27_S16 12/27/2016 02:15:00 0.0785
2016_12_27_S16 12/27/2016 02:20:00 0.0644
2016_12_27_S16 12/27/2016 02:25:00 0.0808
2016_12_27_S16 12/27/2016 02:30:00 0.0959
2016_12_27_S16 12/27/2016 02:35:00 0.1498
2016_12_27_S16 12/27/2016 02:40:00 0.2772
2016_12_27_S16 12/27/2016 02:45:00 0.2455
2016_12_27_S16 12/27/2016 02:50:00 0.81
2016_12_27_S16 12/27/2016 02:55:00 0.6776
2016_12_27_S16 12/27/2016 03:00:00 0.5676
2016_12_27_S16 12/27/2016 03:05:00 1.0189
2016_12_27_S16 12/27/2016 03:10:00 0.6412
2016_12_27_S16 12/27/2016 03:15:00 0.6147
2016_12_27_S16 12/27/2016 03:20:00 1.1167
2016_12_27_S16 12/27/2016 03:25:00 0.7309
2016_12_27_S16 12/27/2016 03:30:00 1.0083
2016_12_27_S16 12/27/2016 03:35:00 1.0065
2016_12_27_S16 12/27/2016 03:40:00 0.5122
2016_12_27_S16 12/27/2016 03:45:00 0.2022
2016_12_27_S16 12/27/2016 03:50:00 0.4787
2016_12_27_S16 12/27/2016 03:55:00 0.4961
2016_12_27_S16 12/27/2016 04:00:00 0.3349
2016_12_27_S16 12/27/2016 04:05:00 0.0808
2016_12_27_S16 12/27/2016 04:10:00 0.128
2016_12_27_S16 12/27/2016 04:15:00 0.3011
2016_12_27_S16 12/27/2016 04:20:00 0.1206
2016_12_27_S16 12/27/2016 04:25:00 0.0453
2016_12_27_S16 12/27/2016 04:30:00 0.1896
2016_12_27_S16 12/27/2016 04:35:00 0.0273
2016_12_27_S16 12/27/2016 04:40:00 0.0206
2016_12_27_S16 12/27/2016 04:45:00 0.0327
2016_12_27_S16 12/27/2016 04:50:00 0.0991
2016_12_27_S16 12/27/2016 04:55:00 0.3606
2016_12_27_S16 12/27/2016 05:00:00 0.7708
2016_12_27_S16 12/27/2016 05:05:00 0.2509
2016_12_27_S16 12/27/2016 05:10:00 0.2535
2016_12_27_S16 12/27/2016 05:15:00 0.2323
2016_12_27_S16 12/27/2016 05:20:00 0.4679
2016_12_27_S16 12/27/2016 05:25:00 0.0904
2016_12_27_S16 12/27/2016 05:30:00 0.0067
2016_12_27_S16 12/27/2016 05:35:00 0.0
2016_12_27_S16 12/27/2016 05:40:00 0.0
2016_12_27_S16 12/27/2016 05:45:00 0.0
2016_12_27_S16 12/27/2016 05:50:00 0.0
2016_12_27_S16 12/27/2016 05:55:00 0.0
2016_12_27_S16 12/27/2016 06:00:00 0.0
2016_12_27_S16 12/27/2016 06:05:00 0.0
2016_12_27_S16 12/27/2016 06:10:00 0.0
2016_12_27_S16 12/27/2016 06:15:00 0.0
2016_12_27_S16 12/27/2016 06:20:00 0.0
2016_12_27_S16 12/27/2016 06:25:00 0.0
2016_12_27_S16 12/27/2016 06:30:00 0.0
2016_12_27_S16 12/27/2016 06:35:00 0.0
2016_12_27_S16 12/27/2016 06:40:00 0.0008
2016_12_27_S16 12/27/2016 06:45:00 0.0489
2016_12_27_S16 12/27/2016 06:50:00 0.0
2016_12_27_S16 12/27/2016 06:55:00 0.0191
2016_12_27_S16 12/27/2016 07:00:00 0.0649
2016_12_27_S16 12/27/2016 07:05:00 0.0165
2016_12_27_S16 12/27/2016 07:10:00 0.1128
2016_12_27_S16 12/27/2016 07:15:00 0.6886
2016_12_27_S16 12/27/2016 07:20:00 0.6276
2016_12_27_S16 12/27/2016 07:25:00 0.5737
2016_12_27_S16 12/27/2016 07:30:00 0.5243
2016_12_27_S16 12/27/2016 07:35:00 0.3457
2016_12_27_S16 12/27/2016 07:40:00 0.473
2016_12_27_S16 12/27/2016 07:45:00 0.0913
2016_12_27_S16 12/27/2016 07:50:00 0.2004
2016_12_27_S16 12/27/2016 07:55:00 1.1741
2016_12_27_S16 12/27/2016 08:00:00 0.5038
2016_12_27_S16 12/27/2016 08:05:00 0.675
2016_12_27_S16 12/27/2016 08:10:00 0.8603
2016_12_27_S16 12/27/2016 08:15:00 0.7396
2016_12_27_S16 12/27/2016 08:20:00 0.3809
2016_12_27_S16 12/27/2016 08:25:00 0.3363
2016_12_27_S16 12/27/2016 08:30:00 0.0207
2016_12_27_S16 12/27/2016 08:35:00 0.1136
2016_12_27_S16 12/27/2016 08:40:00 0.2904
2016_12_27_S16 12/27/2016 08:45:00 0.5903
2016_12_27_S16 12/27/2016 08:50:00 0.2593
2016_12_27_S16 12/27/2016 08:55:00 0.0554
2016_12_27_S16 12/27/2016 09:00:00 0.7306
2016_12_27_S16 12/27/2016 09:05:00 0.2532
2016_12_27_S16 12/27/2016 09:10:00 0.2069
2016_12_27_S16 12/27/2016 09:15:00 0.4458
2016_12_27_S16 12/27/2016 09:20:00 0.6538
2016_12_27_S16 12/27/2016 09:25:00 1.0345
2016_12_27_S16 12/27/2016 09:30:00 0.4517
2016_12_27_S16 12/27/2016 09:35:00 0.2749
2016_12_27_S16 12/27/2016 09:40:00 0.6003
2016_12_27_S16 12/27/2016 09:45:00 0.3674
2016_12_27_S16 12/27/2016 09:50:00 0.1815
2016_12_27_S16 12/27/2016 09:55:00 0.0
2016_12_27_S16 12/27/2016 10:00:00 0.279
2016_12_27_S16 12/27/2016 10:05:00 0.5742
2016_12_27_S16 12/27/2016 10:10:00 0.6382
2016_12_27_S16 12/27/2016 10:15:00 0.1622
2016_12_27_S16 12/27/2016 10:20:00 0.0603
2016_12_27_S16 12/27/2016 10:25:00 0.115
2016_12_27_S16 12/27/2016 10:30:00 0.0501
2016_12_27_S16 12/27/2016 10:35:00 0.0328
2016_12_27_S16 12/27/2016 10:40:00 0.047
2016_12_27_S16 12/27/2016 10:45:00 0.1487
2016_12_27_S16 12/27/2016 10:50:00 1.785
2016_12_27_S16 12/27/2016 10:55:00 0.5589
2016_12_27_S16 12/27/2016 11:00:00 0.398
2016_12_27_S16 12/27/2016 11:05:00 0.3003
2016_12_27_S16 12/27/2016 11:10:00 0.0706
2016_12_27_S16 12/27/2016 11:15:00 0.0994
2016_12_27_S16 12/27/2016 11:20:00 0.2788
2016_12_27_S16 12/27/2016 11:25:00 0.3165
2016_12_27_S16 12/27/2016 11:30:00 0.9148
2016_12_27_S16 12/27/2016 11:35:00 0.5421
2016_12_27_S16 12/27/2016 11:40:00 0.7672
2016_12_27_S16 12/27/2016 11:45:00 0.7242
2016_12_27_S16 12/27/2016 11:50:00 1.2317
2016_12_27_S16 12/27/2016 11:55:00 0.5078
2016_12_27_S16 12/27/2016 12:00:00 0.5088
2016_12_27_S16 12/27/2016 12:05:00 0.4284
2016_12_27_S16 12/27/2016 12:10:00 0.5323
2016_12_27_S16 12/27/2016 12:15:00 0.6654
2016_12_27_S16 12/27/2016 12:20:00 0.4224
2016_12_27_S16 12/27/2016 12:25:00 0.2434
2016_12_27_S16 12/27/2016 12:30:00 0.4587
2016_12_27_S16 12/27/2016 12:35:00 0.0621
2016_12_27_S16 12/27/2016 12:40:00 0.0543
2016_12_27_S16 12/27/2016 12:45:00 0.028
2016_12_27_S16 12/27/2016 12:50:00 0.0226
2016_12_27_S16 12/27/2016 12:55:00 0.003
2016_12_27_S16 12/27/2016 13:00:00 0.0452
2016_12_27_S16 12/27/2016 13:05:00 0.0346
2016_12_27_S16 12/27/2016 13:10:00 0.0
2016_12_27_S16 12/27/2016 13:15:00 0.0
2016_12_27_S16 12/27/2016 13:20:00 0.0
2016_12_27_S16 12/27/2016 13:25:00 0.0008
2016_12_27_S16 12/27/2016 13:30:00 0.2196
2016_12_27_S16 12/27/2016 13:35:00 0.4018
2016_12_27_S16 12/27/2016 13:40:00 0.1831
2016_12_27_S16 12/27/2016 13:45:00 0.1522
2016_12_27_S16 12/27/2016 13:50:00 0.3916
2016_12_27_S16 12/27/2016 13:55:00 0.0351
2016_12_27_S16 12/27/2016 14:00:00 0.1072
2016_12_27_S16 12/27/2016 14:05:00 0.1406
2016_12_27_S16 12/27/2016 14:10:00 0.0505
2016_12_27_S16 12/27/2016 14:15:00 0.0064
2016_12_27_S16 12/27/2016 14:20:00 0.0213
2016_12_27_S16 12/27/2016 14:25:00 0.0262
2016_12_27_S16 12/27/2016 14:30:00 0.0176
2016_12_27_S16 12/27/2016 14:35:00 0.0
2016_12_27_S16 12/27/2016 14:40:00 0.0014
2016_12_27_S16 12/27/2016 14:45:00 0.0
2016_12_27_S16 12/27/2016 14:50:00 0.0
2016_12_27_S16 12/27/2016 14:55:00 0.0
2016_12_27_S16 12/27/2016 15:00:00 0.0
2016_12_27_S16 12/27/2016 15:05:00 0.0
2016_12_27_S16 12/27/2016 15:10:00 0.0
2016_12_27_S16 12/27/2016 15:15:00 0.0
2016_12_27_S16 12/27/2016 15:20:00 0.01
2016_12_27_S16 12/27/2016 15:25:00 0.0012
2016_12_27_S16 12/27/2016 15:30:00 0.0
2016_12_27_S16 12/27/2016 15:35:00 0.0
2016_12_27_S16 12/27/2016 15:40:00 0.0
2016_12_27_S16 12/27/2016 15:45:00 0.0
2016_12_27_S16 12/27/2016 15:50:00 0.0102
2016_12_27_S16 12/27/2016 15:55:00 0.0
2016_12_27_S16 12/27/2016 16:00:00 0.0056
2016_12_27_S16 12/27/2016 16:05:00 0.077
2016_12_27_S16 12/27/2016 16:10:00 0.0
2016_12_27_S16 12/27/2016 16:15:00 0.012
2016_12_27_S16 12/27/2016 16:20:00 0.0
2016_12_27_S16 12/27/2016 16:25:00 0.0
2016_12_27_S16 12/27/2016 16:30:00 0.0
2016_12_27_S16 12/27/2016 16:35:00 0.0
2016_12_27_S16 12/27/2016 16:40:00 0.0532
2016_12_27_S16 12/27/2016 16:45:00 0.0051
2016_12_27_S16 12/27/2016 16:50:00 0.0024
2016_12_27_S16 12/27/2016 16:55:00 0.0
2016_12_27_S16 12/27/2016 17:00:00 0.0
2016_12_27_S16 12/27/2016 17:05:00 0.0
2016_12_27_S16 12/27/2016 17:10:00 0.0
2016_12_27_S16 12/27/2016 17:15:00 0.0
2016_12_27_S16 12/27/2016 17:20:00 0.0
2016_12_27_S16 12/27/2016 17:25:00 0.0
2016_12_27_S16 12/27/2016 17:30:00 0.0
2016_12_27_S16 12/27/2016 17:35:00 0.0
2016_12_27_S16 12/27/2016 17:40:00 0.0
2016_12_27_S16 12/27/2016 17:45:00 0.6369
2016_12_27_S16 12/27/2016 17:50:00 0.1253
2016_12_27_S16 12/27/2016 17:55:00 0.0233
2016_12_27_S16 12/27/2016 18:00:00 0.0
2016_12_27_S16 12/27/2016 18:05:00 0.0
2016_12_27_S16 12/27/2016 18:10:00 0.0
2016_12_27_S16 12/27/2016 18:15:00 0.0
2016_12_27_S16 12/27/2016 18:20:00 0.0
2016_12_27_S16 12/27/2016 18:25:00 5.0504
2016_12_27_S16 12/27/2016 18:30:00 0.0721
2016_12_27_S16 12/27/2016 18:35:00 0.0258
2016_12_27_S16 12/27/2016 18:40:00 0.0432
2016_12_27_S16 12/27/2016 18:45:00 0.0
2016_12_27_S16 12/27/2016 18:50:00 0.0
2016_12_27_S16 12/27/2016 18:55:00 0.0
2016_12_27_S16 12/27/2016 19:00:00 0.0
2016_12_27_S16 12/27/2016 19:05:00 0.0
2016_12_27_S16 12/27/2016 19:10:00 0.006
2016_12_27_S16 12/27/2016 19:15:00 0.2524
2016_12_27_S16 12/27/2016 19:20:00 0.0178
2016_12_27_S16 12/27/2016 19:25:00 0.0
2016_12_27_S16 12/27/2016 19:30:00 0.0047
2016_12_27_S16 12/27/2016 19:35:00 0.0475
2016_12_27_S16 12/27/2016 19:40:00 0.1837
2016_12_27_S16 12/27/2016 19:45:00 1.3482
2016_12_27_S16 12/27/2016 19:50:00 0.4155
2016_12_27_S16 12/27/2016 19:55:00 3.1711
2016_12_27_S16 12/27/2016 20:00:00 0.3673
2016_12_27_S16 12/27/2016 20:05:00 0.0198
2016_12_27_S16 12/27/2016 20:10:00 0.0
2016_12_27_S16 12/27/2016 20:15:00 0.0
2016_12_27_S16 12/27/2016 20:20:00 0.0
2016_12_27_S16 12/27/2016 20:25:00 0.0035
2016_12_27_S16 12/27/2016 20:30:00 0.0084
2016_12_27_S16 12/27/2016 20:35:00 0.0122
2016_12_27_S16 12/27/2016 20:40:00 0.0013
2016_12_27_S16 12/27/2016 20:45:00 0.0
2016_12_27_S16 12/27/2016 20:50:00 0.0
2016_12_27_S16 12/27/2016 20:55:00 0.0
2016_12_27_S16 12/27/2016 21:00:00 0.0
2016_12_27_S16 12/27/2016 21:05:00 0.0
2016_12_27_S16 12/27/2016 21:10:00 0.0
2016_12_27_S16 12/27/2016 21:15:00 0.0
2016_12_27_S16 12/27/2016 21:20:00 0.0
2016_12_27_S16 12/27/2016 21:25:00 0.0
2016_12_27_S16 12/27/2016 21:30:00 0.0
2016_12_27_S16 12/27/2016 21:35:00 0.0
2016_12_27_S16 12/27/2016 21:40:00 0.0
2016_12_27_S16 12/27/2016 21:45:00 0.0
2016_12_27_S16 12/27/2016 21:50:00 0.0
2016_12_27_S16 12/27/2016 21:55:00 0.0
2016_12_27_S16 12/27/2016 22:00:00 0.0
2016_12_27_S16 12/27/2016 22:05:00 0.0
2016_12_27_S16 12/27/2016 22:10:00 0.0
2016_12_27_S16 12/27/2016 22:15:00 0.01
2016_12_27_S16 12/27/2016 22:20:00 0.0
2016_12_27_S16 12/27/2016 22:25:00 0.0
2016_12_27_S16 12/27/2016 22:30:00 0.0487
2016_12_27_S16 12/27/2016 22:35:00 0.221
2016_12_27_S16 12/27/2016 22:40:00 0.1248
2016_12_27_S16 12/27/2016 22:45:00 0.0
2016_12_27_S16 12/27/2016 22:50:00 0.0023
2016_12_27_S16 12/27/2016 22:55:00 0.0007
2016_12_27_S16 12/27/2016 23:00:00 0.0039
2016_12_27_S16 12/27/2016 23:05:00 0.0079
2016_12_27_S16 12/27/2016 23:10:00 0.0276
2016_12_27_S16 12/27/2016 23:15:00 0.0006
2016_12_27_S16 12/27/2016 23:20:00 0.0014
2016_12_27_S16 12/27/2016 23:25:00 0.0
2016_12_27_S16 12/27/2016 23:30:00 0.0
2016_12_27_S16 12/27/2016 23:35:00 0.0
2016_12_27_S16 12/27/2016 23:40:00 0.0008
2016_12_27_S16 12/27/2016 23:45:00 0.0012
2016_12_27_S16 12/27/2016 23:50:00 0.0
2016_12_27_S16 12/27/2016 23:55:00 0.0
2016_12_27_S16 12/28/2016 00:00:00 0.0
2016_12_27_S16 12/28/2016 00:05:00 0.0
2016_12_27_S16 12/28/2016 00:10:00 0.0
2016_12_27_S16 12/28/2016 00:15:00 0.0
2016_12_27_S16 12/28/2016 00:20:00 0.0
2016_12_27_S16 12/28/2016 00:25:00 0.0
2016_12_27_S16 12/28/2016 00:30:00 0.0007
2016_12_27_S16 12/28/2016 00:35:00 0.0
2016_12_27_S16 12/28/2016 00:40:00 0.0
2016_12_27_S16 12/28/2016 00:45:00 0.0
2016_12_27_S16 12/28/2016 00:50:00 0.0
2016_12_27_S16 12/28/2016 00:55:00 0.0
2016_12_27_S16 12/28/2016 01:00:00 0.0
2016_12_27_S16 12/28/2016 01:05:00 0.0
2016_12_27_S16 12/28/2016 01:10:00 0.0
2016_12_27_S16 12/28/2016 01:15:00 0.0
2016_12_27_S16 12/28/2016 01:20:00 0.0
2016_12_27_S16 12/28/2016 01:25:00 0.0
2016_12_27_S16 12/28/2016 01:30:00 0.0
2016_12_27_S16 12/28/2016 01:35:00 0.0
2016_12_27_S16 12/28/2016 01:40:00 0.0
2016_12_27_S16 12/28/2016 01:45:00 0.0
2016_12_27_S16 12/28/2016 01:50:00 0.0
2016_12_27_S16 12/28/2016 01:55:00 0.0
2016_12_27_S16 12/28/2016 02:00:00 0.0
2016_12_27_S16 12/28/2016 02:05:00 0.0
2016_12_27_S16 12/28/2016 02:10:00 0.0
2016_12_27_S16 12/28/2016 02:15:00 0.0
2016_12_27_S16 12/28/2016 02:20:00 0.0
2016_12_27_S16 12/28/2016 02:25:00 0.0
2016_12_27_S16 12/28/2016 02:30:00 0.0
2016_12_27_S16 12/28/2016 02:35:00 0.0
2016_12_27_S16 12/28/2016 02:40:00 0.0
2016_12_27_S16 12/28/2016 02:45:00 0.0
2016_12_27_S16 12/28/2016 02:50:00 0.0
2016_12_27_S16 12/28/2016 02:55:00 0.0
2016_12_27_S16 12/28/2016 03:00:00 0.0
2016_12_27_S16 12/28/2016 03:05:00 0.0
2016_12_27_S16 12/28/2016 03:10:00 0.0
2016_12_27_S16 12/28/2016 03:15:00 0.0
2016_12_27_S16 12/28/2016 03:20:00 0.0
2016_12_27_S16 12/28/2016 03:25:00 0.0
2016_12_27_S16 12/28/2016 03:30:00 0.0
2016_12_27_S16 12/28/2016 03:35:00 0.0
2016_12_27_S16 12/28/2016 03:40:00 0.0
2016_12_27_S16 12/28/2016 03:45:00 0.0
2016_12_27_S16 12/28/2016 03:50:00 0.0
2016_12_27_S16 12/28/2016 03:55:00 0.0
2016_12_27_S16 12/28/2016 04:00:00 0.0
2016_12_27_S16 12/28/2016 04:05:00 0.0
2016_12_27_S16 12/28/2016 04:10:00 0.0
2016_12_27_S16 12/28/2016 04:15:00 0.0
2016_12_27_S16 12/28/2016 04:20:00 0.0
2016_12_27_S16 12/28/2016 04:25:00 0.0
2016_12_27_S16 12/28/2016 04:30:00 0.0
2016_12_27_S16 12/28/2016 04:35:00 0.0
2016_12_27_S16 12/28/2016 04:40:00 0.0
2016_12_27_S16 12/28/2016 04:45:00 0.0
2016_12_27_S16 12/28/2016 04:50:00 0.0
2016_12_27_S16 12/28/2016 04:55:00 0.0
2016_12_27_S16 12/28/2016 05:00:00 0.0
2016_12_27_S16 12/28/2016 05:05:00 0.0
2016_12_27_S16 12/28/2016 05:10:00 0.0
2016_12_27_S16 12/28/2016 05:15:00 0.0
2016_12_27_S16 12/28/2016 05:20:00 0.0
2016_12_27_S16 12/28/2016 05:25:00 0.0
2016_12_27_S16 12/28/2016 05:30:00 0.0
2016_12_27_S16 12/28/2016 05:35:00 0.0
2016_12_27_S16 12/28/2016 05:40:00 0.0
2016_12_27_S16 12/28/2016 05:45:00 0.0
2016_12_27_S16 12/28/2016 05:50:00 0.0
2016_12_27_S16 12/28/2016 05:55:00 0.0
2016_12_27_S16 12/28/2016 06:00:00 0.0
2016_12_27_S16 12/28/2016 06:05:00 0.0
2016_12_27_S16 12/28/2016 06:10:00 0.0
2016_12_27_S16 12/28/2016 06:15:00 0.0
2016_12_27_S16 12/28/2016 06:20:00 0.0
2016_12_27_S16 12/28/2016 06:25:00 0.0
2016_12_27_S16 12/28/2016 06:30:00 0.0
2016_12_27_S16 12/28/2016 06:35:00 0.0
2016_12_27_S16 12/28/2016 06:40:00 0.0
2016_12_27_S16 12/28/2016 06:45:00 0.0
2016_12_27_S16 12/28/2016 06:50:00 0.0
2016_12_27_S16 12/28/2016 06:55:00 0.0
2016_12_27_S16 12/28/2016 07:00:00 0.0
2016_12_27_S16 12/28/2016 07:05:00 0.0
2016_12_27_S16 12/28/2016 07:10:00 0.0
2016_12_27_S16 12/28/2016 07:15:00 0.0
2016_12_27_S16 12/28/2016 07:20:00 0.0
2016_12_27_S16 12/28/2016 07:25:00 0.0
2016_12_27_S16 12/28/2016 07:30:00 0.0
2016_12_27_S16 12/28/2016 07:35:00 0.0
2016_12_27_S16 12/28/2016 07:40:00 0.0
2016_12_27_S16 12/28/2016 07:45:00 0.0
2016_12_27_S16 12/28/2016 07:50:00 0.0
2016_12_27_S16 12/28/2016 07:55:00 0.0
2016_12_27_S16 12/28/2016 08:00:00 0.0

2016_12_27_S17 12/26/2016 08:00:00 0.0
2016_12_27_S17 12/26/2016 08:05:00 0.0
2016_12_27_S17 12/26/2016 08:10:00 0.0
2016_12_27_S17 12/26/2016 08:15:00 0.0
2016_12_27_S17 12/26/2016 08:20:00 0.0
2016_12_27_S17 12/26/2016 08:25:00 0.0
2016_12_27_S17 12/26/2016 08:30:00 0.0
2016_12_27_S17 12/26/2016 08:35:00 0.0
2016_12_27_S17 12/26/2016 08:40:00 0.0
2016_12_27_S17 12/26/2016 08:45:00 0.0
2016_12_27_S17 12/26/2016 08:50:00 0.0
2016_12_27_S17 12/26/2016 08:55:00 0.0
2016_12_27_S17 12/26/2016 09:00:00 0.0
2016_12_27_S17 12/26/2016 09:05:00 0.0
2016_12_27_S17 12/26/2016 09:10:00 0.0056
2016_12_27_S17 12/26/2016 09:15:00 0.0436
2016_12_27_S17 12/26/2016 09:20:00 0.0413
2016_12_27_S17 12/26/2016 09:25:00 0.0053
2016_12_27_S17 12/26/2016 09:30:00 0.0
2016_12_27_S17 12/26/2016 09:35:00 0.0
2016_12_27_S17 12/26/2016 09:40:00 0.0
2016_12_27_S17 12/26/2016 09:45:00 0.0
2016_12_27_S17 12/26/2016 09:50:00 0.0
2016_12_27_S17 12/26/2016 09:55:00 0.0
2016_12_27_S17 12/26/2016 10:00:00 0.0
2016_12_27_S17 12/26/2016 10:05:00 0.0
2016_12_27_S17 12/26/2016 10:10:00 0.0
2016_12_27_S17 12/26/2016 10:15:00 0.0
2016_12_27_S17 12/26/2016 10:20:00 0.0
2016_12_27_S17 12/26/2016 10:25:00 0.0
2016_12_27_S17 12/26/2016 10:30:00 0.0
2016_12_27_S17 12/26/2016 10:35:00 0.0
2016_12_27_S17 12/26/2016 10:40:00 0.0
2016_12_27_S17 12/26/2016 10:45:00 0.0
2016_12_27_S17 12/26/2016 10:50:00 0.0
2016_12_27_S17 12/26/2016 10:55:00 0.0043
2016_12_27_S17 12/26/2016 11:00:00 0.0009
2016_12_27_S17 12/26/2016 11:05:00 0.0
2016_12_27_S17 12/26/2016 11:10:00 0.0
2016_12_27_S17 12/26/2016 11:15:00 0.0
2016_12_27_S17 12/26/2016 11:20:00 0.0
2016_12_27_S17 12/26/2016 11:25:00 0.0
2016_12_27_S17 12/26/2016 11:30:00 0.0
2016_12_27_S17 12/26/2016 11:35:00 0.0
2016_12_27_S17 12/26/2016 11:40:00 0.0
2016_12_27_S17 12/26/2016 11:45:00 0.0
2016_12_27_S17 12/26/2016 11:50:00 0.0
2016_12_27_S17 12/26/2016 11:55:00 0.0012
2016_12_27_S17 12/26/2016 12:00:00 0.0201
2016_12_27_S17 12/26/2016 12:05:00 0.1505
2016_12_27_S17 12/26/2016 12:10:00 0.1459
2016_12_27_S17 12/26/2016 12:15:00 0.0111
2016_12_27_S17 12/26/2016 12:20:00 0.0
2016_12_27_S17 12/26/2016 12:25:00 0.0
2016_12_27_S17 12/26/2016 12:30:00 0.0
2016_12_27_S17 12/26/2016 12:35:00 0.0038
2016_12_27_S17 12/26/2016 12:40:00 0.0097
2016_12_27_S17 12/26/2016 12:45:00 0.1791
2016_12_27_S17 12/26/2016 12:50:00 0.0009
2016_12_27_S17 12/26/2016 12:55:00 0.0
2016_12_27_S17 12/26/2016 13:00:00 0.0
2016_12_27_S17 12/26/2016 13:05:00 0.0
2016_12_27_S17 12/26/2016 13:10:00 0.0
2016_12_27_S17 12/26/2016 13:15:00 0.0
2016_12_27_S17 12/26/2016 13:20:00 0.0
2016_12_27_S17 12/26/2016 13:25:00 0.0
2016_12_27_S17 12/26/2016 13:30:00 0.0
2016_12_27_S17 12/26/2016 13:35:00 0.0
2016_12_27_S17 12/26/2016 13:40:00 0.0
2016_12_27_S17 12/26/2016 13:45:00 0.0
2016_12_27_S17 12/26/2016 13:50:00 0.0
2016_12_27_S17 12/26/2016 13:55:00 0.0
2016_12_27_S17 12/26/2016 14:00:00 0.0
2016_12_27_S17 12/26/2016 14:05:00 0.0
2016_12_27_S17 12/26/2016 14:10:00 0.0
2016_12_27_S17 12/26/2016 14:15:00 0.0
2016_12_27_S17 12/26/2016 14:20:00 0.0
2016_12_27_S17 12/26/2016 14:25:00 0.0
2016_12_27_S17 12/26/2016 14:30:00 0.0
2016_12_27_S17 12/26/2016 14:35:00 0.0
2016_12_27_S17 12/26/2016 14:40:00 0.0
2016_12_27_S17 12/26/2016 14:45:00 0.0
2016_12_27_S17 12/26/2016 14:50:00 0.0
2016_12_27_S17 12/26/2016 14:55:00 0.0
2016_12_27_S17 12/26/2016 15:00:00 0.0
2016_12_27_S17 12/26/2016 15:05:00 0.0
2016_12_27_S17 12/26/2016 15:10:00 0.0
2016_12_27_S17 12/26/2016 15:15:00 0.0
2016_12_27_S17 12/26/2016 15:20:00 0.0
2016_12_27_S17 12/26/2016 15:25:00 0.0
2016_12_27_S17 12/26/2016 15:30:00 0.0
2016_12_27_S17 12/26/2016 15:35:00 0.0
2016_12_27_S17 12/26/2016 15:40:00 0.0
2016_12_27_S17 12/26/2016 15:45:00 0.0
2016_12_27_S17 12/26/2016 15:50:00 0.0
2016_12_27_S17 12/26/2016 15:55:00 0.0
2016_12_27_S17 12/26/2016 16:00:00 0.0
2016_12_27_S17 12/26/2016 16:05:00 0.0
2016_12_27_S17 12/26/2016 16:10:00 0.0
2016_12_27_S17 12/26/2016 16:15:00 0.0
2016_12_27_S17 12/26/2016 16:20:00 0.0
2016_12_27_S17 12/26/2016 16:25:00 0.0
2016_12_27_S17 12/26/2016 16:30:00 0.0
2016_12_27_S17 12/26/2016 16:35:00 0.0
2016_12_27_S17 12/26/2016 16:40:00 0.0
2016_12_27_S17 12/26/2016 16:45:00 0.0
2016_12_27_S17 12/26/2016 16:50:00 0.0
2016_12_27_S17 12/26/2016 16:55:00 0.0
2016_12_27_S17 12/26/2016 17:00:00 0.0
2016_12_27_S17 12/26/2016 17:05:00 0.0
2016_12_27_S17 12/26/2016 17:10:00 0.0
2016_12_27_S17 12/26/2016 17:15:00 0.0
2016_12_27_S17 12/26/2016 17:20:00 0.0
2016_12_27_S17 12/26/2016 17:25:00 0.0
2016_12_27_S17 12/26/2016 17:30:00 0.0
2016_12_27_S17 12/26/2016 17:35:00 0.0
2016_12_27_S17 12/26/2016 17:40:00 0.0
2016_12_27_S17 12/26/2016 17:45:00 0.0
2016_12_27_S17 12/26/2016 17:50:00 0.0
2016_12_27_S17 12/26/2016 17:55:00 0.0
2016_12_27_S17 12/26/2016 18:00:00 0.0
2016_12_27_S17 12/26/2016 18:05:00 0.0
2016_12_27_S17 12/26/2016 18:10:00 0.0
2016_12_27_S17 12/26/2016 18:15:00 0.0
2016_12_27_S17 12/26/2016 18:20:00 0.0
2016_12_27_S17 12/26/2016 18:25:00 0.0
2016_12_27_S17 12/26/2016 18:30:00 0.0
2016_12_27_S17 12/26/2016 18:35:00 0.0
2016_12_27_S17 12/26/2016 18:40:00 0.0
2016_12_27_S17 12/26/2016 18:45:00 0.0
2016_12_27_S17 12/26/2016 18:50:00 0.0
2016_12_27_S17 12/26/2016 18:55:00 0.0
2016_12_27_S17 12/26/2016 19:00:00 0.0
2016_12_27_S17 12/26/2016 19:05:00 0.0
2016_12_27_S17 12/26/2016 19:10:00 0.0
2016_12_27_S17 12/26/2016 19:15:00 0.0
2016_12_27_S17 12/26/2016 19:20:00 0.0
2016_12_27_S17 12/26/2016 19:25:00 0.0
2016_12_27_S17 12/26/2016 19:30:00 0.0
2016_12_27_S17 12/26/2016 19:35:00 0.0
2016_12_27_S17 12/26/2016 19:40:00 0.0
2016_12_27_S17 12/26/2016 19:45:00 0.0
2016_12_27_S17 12/26/2016 19:50:00 0.0
2016_12_27_S17 12/26/2016 19:55:00 0.0
2016_12_27_S17 12/26/2016 20:00:00 0.0
2016_12_27_S17 12/26/2016 20:05:00 0.0
2016_12_27_S17 12/26/2016 20:10:00 0.0
2016_12_27_S17 12/26/2016 20:15:00 0.0
2016_12_27_S17 12/26/2016 20:20:00 0.0
2016_12_27_S17 12/26/2016 20:25:00 0.0
2016_12_27_S17 12/26/2016 20:30:00 0.0
2016_12_27_S17 12/26/2016 20:35:00 0.0
2016_12_27_S17 12/26/2016 20:40:00 0.0
2016_12_27_S17 12/26/2016 20:45:00 0.0
2016_12_27_S17 12/26/2016 20:50:00 0.0
2016_12_27_S17 12/26/2016 20:55:00 0.0
2016_12_27_S17 12/26/2016 21:00:00 0.0
2016_12_27_S17 12/26/2016 21:05:00 0.0
2016_12_27_S17 12/26/2016 21:10:00 0.0
2016_12_27_S17 12/26/2016 21:15:00 0.0
2016_12_27_S17 12/26/2016 21:20:00 0.0
2016_12_27_S17 12/26/2016 21:25:00 0.0
2016_12_27_S17 12/26/2016 21:30:00 0.0
2016_12_27_S17 12/26/2016 21:35:00 0.0
2016_12_27_S17 12/26/2016 21:40:00 0.0
2016_12_27_S17 12/26/2016 21:45:00 0.0
2016_12_27_S17 12/26/2016 21:50:00 0.0
2016_12_27_S17 12/26/2016 21:55:00 0.0
2016_12_27_S17 12/26/2016 22:00:00 0.0
2016_12_27_S17 12/26/2016 22:05:00 0.0
2016_12_27_S17 12/26/2016 22:10:00 0.0
2016_12_27_S17 12/26/2016 22:15:00 0.0
2016_12_27_S17 12/26/2016 22:20:00 0.0
2016_12_27_S17 12/26/2016 22:25:00 0.0
2016_12_27_S17 12/26/2016 22:30:00 0.0
2016_12_27_S17 12/26/2016 22:35:00 0.0
2016_12_27_S17 12/26/2016 22:40:00 0.0
2016_12_27_S17 12/26/2016 22:45:00 0.0
2016_12_27_S17 12/26/2016 22:50:00 0.0
2016_12_27_S17 12/26/2016 22:55:00 0.0
2016_12_27_S17 12/26/2016 23:00:00 0.0
2016_12_27_S17 12/26/2016 23:05:00 0.0
2016_12_27_S17 12/26/2016 23:10:00 0.0
2016_12_27_S17 12/26/2016 23:15:00 0.0
2016_12_27_S17 12/26/2016 23:20:00 0.0
2016_12_27_S17 12/26/2016 23:25:00 0.0
2016_12_27_S17 12/26/2016 23:30:00 0.0
2016_12_27_S17 12/26/2016 23:35:00 0.0
2016_12_27_S17 12/26/2016 23:40:00 0.0
2016_12_27_S17 12/26/2016 23:45:00 0.0
2016_12_27_S17 12/26/2016 23:50:00 0.0
2016_12_27_S17 12/26/2016 23:55:00 0.0
2016_12_27_S17 12/27/2016 00:00:00 0.0
2016_12_27_S17 12/27/2016 00:05:00 0.0
2016_12_27_S17 12/27/2016 00:10:00 0.0
2016_12_27_S17 12/27/2016 00:15:00 0.0
2016_12_27_S17 12/27/2016 00:20:00 0.0
2016_12_27_S17 12/27/2016 00:25:00 0.0
2016_12_27_S17 12/27/2016 00:30:00 0.0
2016_12_27_S17 12/27/2016 00:35:00 0.0
2016_12_27_S17 12/27/2016 00:40:00 0.0
2016_12_27_S17 12/27/2016 00:45:00 0.0
2016_12_27_S17 12/27/2016 00:50:00 0.0
2016_12_27_S17 12/27/2016 00:55:00 0.0
2016_12_27_S17 12/27/2016 01:00:00 0.0005
2016_12_27_S17 12/27/2016 01:05:00 0.0024
2016_12_27_S17 12/27/2016 01:10:00 0.002
2016_12_27_S17 12/27/2016 01:15:00 0.0061
2016_12_27_S17 12/27/2016 01:20:00 0.0123
2016_12_27_S17 12/27/2016 01:25:00 0.0246
2016_12_27_S17 12/27/2016 01:30:00 0.0551
2016_12_27_S17 12/27/2016 01:35:00 0.5672
2016_12_27_S17 12/27/2016 01:40:00 0.257
2016_12_27_S17 12/27/2016 01:45:00 0.3092
2016_12_27_S17 12/27/2016 01:50:00 0.8991
2016_12_27_S17 12/27/2016 01:55:00 0.6143
2016_12_27_S17 12/27/2016 02:00:00 0.0367
2016_12_27_S17 12/27/2016 02:05:00 0.0104
2016_12_27_S17 12/27/2016 02:10:00 0.0488
2016_12_27_S17 12/27/2016 02:15:00 0.0955
2016_12_27_S17 12/27/2016 02:20:00 0.0778
2016_12_27_S17 12/27/2016 02:25:00 0.1179
2016_12_27_S17 12/27/2016 02:30:00 0.0993
2016_12_27_S17 12/27/2016 02:35:00 0.1202
2016_12_27_S17 12/27/2016 02:40:00 0.2643
2016_12_27_S17 12/27/2016 02:45:00 0.3033
2016_12_27_S17 12/27/2016 02:50:00 0.8029
2016_12_27_S17 12/27/2016 02:55:00 0.5369
2016_12_27_S17 12/27/2016 03:00:00 0.6315
2016_12_27_S17 12/27/2016 03:05:00 0.796
2016_12_27_S17 12/27/2016 03:10:00 0.7118
2016_12_27_S17 12/27/2016 03:15:00 0.9446
2016_12_27_S17 12/27/2016 03:20:00 1.0228
2016_12_27_S17 12/27/2016 03:25:00 0.5639
2016_12_27_S17 12/27/2016 03:30:00 0.9024
2016_12_27_S17 12/27/2016 03:35:00 0.4656
2016_12_27_S17 12/27/2016 03:40:00 0.4807
2016_12_27_S17 12/27/2016 03:45:00 0.1623
2016_12_27_S17 12/27/2016 03:50:00 0.2986
2016_12_27_S17 12/27/2016 03:55:00 0.5407
2016_12_27_S17 12/27/2016 04:00:00 0.2514
2016_12_27_S17 12/27/2016 04:05:00 0.0855
2016_12_27_S17 12/27/2016 04:10:00 0.1615
2016_12_27_S17 12/27/2016 04:15:00 0.2165
2016_12_27_S17 12/27/2016 04:20:00 0.0749
2016_12_27_S17 12/27/2016 04:25:00 0.0609
2016_12_27_S17 12/27/2016 04:30:00 0.1431
2016_12_27_S17 12/27/2016 04:35:00 0.0308
2016_12_27_S17 12/27/2016 04:40:00 0.0248
2016_12_27_S17 12/27/2016 04:45:00 0.0374
2016_12_27_S17 12/27/2016 04:50:00 0.1197
2016_12_27_S17 12/27/2016 04:55:00 0.3842
2016_12_27_S17 12/27/2016 05:00:00 0.5757
2016_12_27_S17 12/27/2016 05:05:00 0.2017
2016_12_27_S17 12/27/2016 05:10:00 0.2484
2016_12_27_S17 12/27/2016 05:15:00 0.2436
2016_12_27_S17 12/27/2016 05:20:00 0.3012
2016_12_27_S17 12/27/2016 05:25:00 0.0808
2016_12_27_S17 12/27/2016 05:30:00 0.0023
2016_12_27_S17 12/27/2016 05:35:00 0.0
2016_12_27_S17 12/27/2016 05:40:00 0.0
2016_12_27_S17 12/27/2016 05:45:00 0.0
2016_12_27_S17 12/27/2016 05:50:00 0.0
2016_12_27_S17 12/27/2016 05:55:00 0.0
2016_12_27_S17 12/27/2016 06:00:00 0.0
2016_12_27_S17 12/27/2016 06:05:00 0.0
2016_12_27_S17 12/27/2016 06:10:00 0.0
2016_12_27_S17 12/27/2016 06:15:00 0.0
2016_12_27_S17 12/27/2016 06:20:00 0.0
2016_12_27_S17 12/27/2016 06:25:00 0.0
2016_12_27_S17 12/27/2016 06:30:00 0.0
2016_12_27_S17 12/27/2016 06:35:00 0.0
2016_12_27_S17 12/27/2016 06:40:00 0.0024
2016_12_27_S17 12/27/2016 06:45:00 0.08
2016_12_27_S17 12/27/2016 06:50:00 0.0
2016_12_27_S17 12/27/2016 06:55:00 0.0324
2016_12_27_S17 12/27/2016 07:00:00 0.1329
2016_12_27_S17 12/27/2016 07:05:00 0.0218
2016_12_27_S17 12/27/2016 07:10:00 0.1797
2016_12_27_S17 12/27/2016 07:15:00 0.9771
2016_12_27_S17 12/27/2016 07:20:00 0.5592
2016_12_27_S17 12/27/2016 07:25:00 0.3813
2016_12_27_S17 12/27/2016 07:30:00 0.5876
2016_12_27_S17 12/27/2016 07:35:00 0.5795
2016_12_27_S17 12/27/2016 07:40:00 0.4539
2016_12_27_S17 12/27/2016 07:45:00 0.0922
2016_12_27_S17 12/27/2016 07:50:00 0.2659
2016_12_27_S17 12/27/2016 07:55:00 1.1289
2016_12_27_S17 12/27/2016 08:00:00 0.7392
2016_12_27_S17 12/27/2016 08:05:00 0.7264
2016_12_27_S17 12/27/2016 08:10:00 1.005
2016_12_27_S17 12/27/2016 08:15:00 0.5826
2016_12_27_S17 12/27/2016 08:20:00 0.401
2016_12_27_S17 12/27/2016 08:25:00 0.2609
2016_12_27_S17 12/27/2016 08:30:00 0.0074
2016_12_27_S17 12/27/2016 08:35:00 0.0639
2016_12_27_S17 12/27/2016 08:40:00 0.3232
2016_12_27_S17 12/27/2016 08:45:00 0.656
2016_12_27_S17 12/27/2016 08:50:00 0.4493
2016_12_27_S17 12/27/2016 08:55:00 0.1172
2016_12_27_S17 12/27/2016 09:00:00 1.2571
2016_12_27_S17 12/27/2016 09:05:00 0.3628
2016_12_27_S17 12/27/2016 09:10:00 0.2404
2016_12_27_S17 12/27/2016 09:15:00 0.5202
2016_12_27_S17 12/27/2016 09:20:00 0.6876
2016_12_27_S17 12/27/2016 09:25:00 0.7668
2016_12_27_S17 12/27/2016 09:30:00 0.3451
2016_12_27_S17 12/27/2016 09:35:00 0.2296
2016_12_27_S17 12/27/2016 09:40:00 0.5706
2016_12_27_S17 12/27/2016 09:45:00 0.3499
2016_12_27_S17 12/27/2016 09:50:00 0.1423
2016_12_27_S17 12/27/2016 09:55:00 0.0
2016_12_27_S17 12/27/2016 10:00:00 0.1076
2016_12_27_S17 12/27/2016 10:05:00 0.7055
2016_12_27_S17 12/27/2016 10:10:00 0.6621
2016_12_27_S17 12/27/2016 10:15:00 0.1957
2016_12_27_S17 12/27/2016 10:20:00 0.0635
2016_12_27_S17 12/27/2016 10:25:00 0.093
2016_12_27_S17 12/27/2016 10:30:00 0.0448
2016_12_27_S17 12/27/2016 10:35:00 0.0433
2016_12_27_S17 12/27/2016 10:40:00 0.0589
2016_12_27_S17 12/27/2016 10:45:00 0.3608
2016_12_27_S17 12/27/2016 10:50:00 0.765
2016_12_27_S17 12/27/2016 10:55:00 0.287
2016_12_27_S17 12/27/2016 11:00:00 0.414
2016_12_27_S17 12/27/2016 11:05:00 0.269
2016_12_27_S17 12/27/2016 11:10:00 0.0698
2016_12_27_S17 12/27/2016 11:15:00 0.1489
2016_12_27_S17 12/27/2016 11:20:00 0.2922
2016_12_27_S17 12/27/2016 11:25:00 0.4148
2016_12_27_S17 12/27/2016 11:30:00 0.896
2016_12_27_S17 12/27/2016 11:35:00 0.6205
2016_12_27_S17 12/27/2016 11:40:00 0.9363
2016_12_27_S17 12/27/2016 11:45:00 0.6663
2016_12_27_S17 12/27/2016 11:50:00 0.9956
2016_12_27_S17 12/27/2016 11:55:00 0.5097
2016_12_27_S17 12/27/2016 12:00:00 0.3811
2016_12_27_S17 12/27/2016 12:05:00 0.5094
2016_12_27_S17 12/27/2016 12:10:00 0.3111
2016_12_27_S17 12/27/2016 12:15:00 0.5741
2016_12_27_S17 12/27/2016 12:20:00 0.2393
2016_12_27_S17 12/27/2016 12:25:00 0.2121
2016_12_27_S17 12/27/2016 12:30:00 0.3021
2016_12_27_S17 12/27/2016 12:35:00 0.0525
2016_12_27_S17 12/27/2016 12:40:00 0.0625
2016_12_27_S17 12/27/2016 12:45:00 0.0189
2016_12_27_S17 12/27/2016 12:50:00 0.0126
2016_12_27_S17 12/27/2016 12:55:00 0.0045
2016_12_27_S17 12/27/2016 13:00:00 0.0604
2016_12_27_S17 12/27/2016 13:05:00 0.0197
2016_12_27_S17 12/27/2016 13:10:00 0.0
2016_12_27_S17 12/27/2016 13:15:00 0.0
2016_12_27_S17 12/27/2016 13:20:00 0.0
2016_12_27_S17 12/27/2016 13:25:00 0.003
2016_12_27_S17 12/27/2016 13:30:00 0.1516
2016_12_27_S17 12/27/2016 13:35:00 0.2428
2016_12_27_S17 12/27/2016 13:40:00 0.2055
2016_12_27_S17 12/27/2016 13:45:00 0.1263
2016_12_27_S17 12/27/2016 13:50:00 0.2399
2016_12_27_S17 12/27/2016 13:55:00 0.0234
2016_12_27_S17 12/27/2016 14:00:00 0.0951
2016_12_27_S17 12/27/2016 14:05:00 0.1189
2016_12_27_S17 12/27/2016 14:10:00 0.0432
2016_12_27_S17 12/27/2016 14:15:00 0.0063
2016_12_27_S17 12/27/2016 14:20:00 0.0165
2016_12_27_S17 12/27/2016 14:25:00 0.0215
2016_12_27_S17 12/27/2016 14:30:00 0.0158
2016_12_27_S17 12/27/2016 14:35:00 0.0
2016_12_27_S17 12/27/2016 14:40:00 0.0
2016_12_27_S17 12/27/2016 14:45:00 0.0
2016_12_27_S17 12/27/2016 14:50:00 0.0
2016_12_27_S17 12/27/2016 14:55:00 0.0
2016_12_27_S17 12/27/2016 15:00:00 0.0
2016_12_27_S17 12/27/2016 15:05:00 0.0
2016_12_27_S17 12/27/2016 15:10:00 0.0
2016_12_27_S17 12/27/2016 15:15:00 0.0
2016_12_27_S17 12/27/2016 15:20:00 0.0091
2016_12_27_S17 12/27/2016 15:25:00 0.0007
2016_12_27_S17 12/27/2016 15:30:00 0.0
2016_12_27_S17 12/27/2016 15:35:00 0.0
2016_12_27_S17 12/27/2016 15:40:00 0.0
2016_12_27_S17 12/27/2016 15:45:00 0.0
2016_12_27_S17 12/27/2016 15:50:00 0.0033
2016_12_27_S17 12/27/2016 15:55:00 0.0
2016_12_27_S17 12/27/2016 16:00:00 0.0219
2016_12_27_S17 12/27/2016 16:05:00 0.1124
2016_12_27_S17 12/27/2016 16:10:00 0.0
2016_12_27_S17 12/27/2016 16:15:00 0.0089
2016_12_27_S17 12/27/2016 16:20:00 0.0
2016_12_27_S17 12/27/2016 16:25:00 0.0
2016_12_27_S17 12/27/2016 16:30:00 0.0
2016_12_27_S17 12/27/2016 16:35:00 0.0
2016_12_27_S17 12/27/2016 16:40:00 0.1877
2016_12_27_S17 12/27/2016 16:45:00 0.0007
2016_12_27_S17 12/27/2016 16:50:00 0.0
2016_12_27_S17 12/27/2016 16:55:00 0.0
2016_12_27_S17 12/27/2016 17:00:00 0.0
2016_12_27_S17 12/27/2016 17:05:00 0.0
2016_12_27_S17 12/27/2016 17:10:00 0.0
2016_12_27_S17 12/27/2016 17:15:00 0.0
2016_12_27_S17 12/27/2016 17:20:00 0.0
2016_12_27_S17 12/27/2016 17:25:00 0.0
2016_12_27_S17 12/27/2016 17:30:00 0.0
2016_12_27_S17 12/27/2016 17:35:00 0.0
2016_12_27_S17 12/27/2016 17:40:00 0.0095
2016_12_27_S17 12/27/2016 17:45:00 0.4676
2016_12_27_S17 12/27/2016 17:50:00 0.1075
2016_12_27_S17 12/27/2016 17:55:00 0.0206
2016_12_27_S17 12/27/2016 18:00:00 0.0
2016_12_27_S17 12/27/2016 18:05:00 0.0
2016_12_27_S17 12/27/2016 18:10:00 0.0
2016_12_27_S17 12/27/2016 18:15:00 0.0
2016_12_27_S17 12/27/2016 18:20:00 0.0004
2016_12_27_S17 12/27/2016 18:25:00 6.9138
2016_12_27_S17 12/27/2016 18:30:00 0.0447
2016_12_27_S17 12/27/2016 18:35:00 0.0463
2016_12_27_S17 12/27/2016 18:40:00 0.0495
2016_12_27_S17 12/27/2016 18:45:00 0.0
2016_12_27_S17 12/27/2016 18:50:00 0.0
2016_12_27_S17 12/27/2016 18:55:00 0.0
2016_12_27_S17 12/27/2016 19:00:00 0.0
2016_12_27_S17 12/27/2016 19:05:00 0.0
2016_12_27_S17 12/27/2016 19:10:00 0.0123
2016_12_27_S17 12/27/2016 19:15:00 0.3044
2016_12_27_S17 12/27/2016 19:20:00 0.0114
2016_12_27_S17 12/27/2016 19:25:00 0.0
2016_12_27_S17 12/27/2016 19:30:00 0.005
2016_12_27_S17 12/27/2016 19:35:00 0.0796
2016_12_27_S17 12/27/2016 19:40:00 0.1858
2016_12_27_S17 12/27/2016 19:45:00 1.7872
2016_12_27_S17 12/27/2016 19:50:00 0.9557
2016_12_27_S17 12/27/2016 19:55:00 4.4274
2016_12_27_S17 12/27/2016 20:00:00 0.1509
2016_12_27_S17 12/27/2016 20:05:00 0.0132
2016_12_27_S17 12/27/2016 20:10:00 0.0
2016_12_27_S17 12/27/2016 20:15:00 0.0
2016_12_27_S17 12/27/2016 20:20:00 0.0
2016_12_27_S17 12/27/2016 20:25:00 0.0043
2016_12_27_S17 12/27/2016 20:30:00 0.0003
2016_12_27_S17 12/27/2016 20:35:00 0.0059
2016_12_27_S17 12/27/2016 20:40:00 0.0
2016_12_27_S17 12/27/2016 20:45:00 0.0
2016_12_27_S17 12/27/2016 20:50:00 0.0
2016_12_27_S17 12/27/2016 20:55:00 0.0
2016_12_27_S17 12/27/2016 21:00:00 0.0
2016_12_27_S17 12/27/2016 21:05:00 0.0
2016_12_27_S17 12/27/2016 21:10:00 0.0
2016_12_27_S17 12/27/2016 21:15:00 0.0
2016_12_27_S17 12/27/2016 21:20:00 0.0
2016_12_27_S17 12/27/2016 21:25:00 0.0
2016_12_27_S17 12/27/2016 21:30:00 0.0
2016_12_27_S17 12/27/2016 21:35:00 0.0
2016_12_27_S17 12/27/2016 21:40:00 0.0
2016_12_27_S17 12/27/2016 21:45:00 0.0
2016_12_27_S17 12/27/2016 21:50:00 0.0
2016_12_27_S17 12/27/2016 21:55:00 0.0
2016_12_27_S17 12/27/2016 22:00:00 0.0
2016_12_27_S17 12/27/2016 22:05:00 0.0
2016_12_27_S17 12/27/2016 22:10:00 0.0
2016_12_27_S17 12/27/2016 22:15:00 0.0197
2016_12_27_S17 12/27/2016 22:20:00 0.0
2016_12_27_S17 12/27/2016 22:25:00 0.0
2016_12_27_S17 12/27/2016 22:30:00 0.0474
2016_12_27_S17 12/27/2016 22:35:00 0.4643
2016_12_27_S17 12/27/2016 22:40:00 0.1374
2016_12_27_S17 12/27/2016 22:45:00 0.0
2016_12_27_S17 12/27/2016 22:50:00 0.0081
2016_12_27_S17 12/27/2016 22:55:00 0.003
2016_12_27_S17 12/27/2016 23:00:00 0.0029
2016_12_27_S17 12/27/2016 23:05:00 0.0121
2016_12_27_S17 12/27/2016 23:10:00 0.0143
2016_12_27_S17 12/27/2016 23:15:00 0.0005
2016_12_27_S17 12/27/2016 23:20:00 0.001
2016_12_27_S17 12/27/2016 23:25:00 0.0005
2016_12_27_S17 12/27/2016 23:30:00 0.0048
2016_12_27_S17 12/27/2016 23:35:00 0.0
2016_12_27_S17 12/27/2016 23:40:00 0.0015
2016_12_27_S17 12/27/2016 23:45:00 0.0
2016_12_27_S17 12/27/2016 23:50:00 0.0
2016_12_27_S17 12/27/2016 23:55:00 0.0
2016_12_27_S17 12/28/2016 00:00:00 0.0
2016_12_27_S17 12/28/2016 00:05:00 0.0
2016_12_27_S17 12/28/2016 00:10:00 0.0
2016_12_27_S17 12/28/2016 00:15:00 0.0
2016_12_27_S17 12/28/2016 00:20:00 0.0
2016_12_27_S17 12/28/2016 00:25:00 0.0
2016_12_27_S17 12/28/2016 00:30:00 0.0
2016_12_27_S17 12/28/2016 00:35:00 0.0
2016_12_27_S17 12/28/2016 00:40:00 0.0
2016_12_27_S17 12/28/2016 00:45:00 0.0
2016_12_27_S17 12/28/2016 00:50:00 0.0
2016_12_27_S17 12/28/2016 00:55:00 0.0
2016_12_27_S17 12/28/2016 01:00:00 0.0
2016_12_27_S17 12/28/2016 01:05:00 0.0
2016_12_27_S17 12/28/2016 01:10:00 0.0
2016_12_27_S17 12/28/2016 01:15:00 0.0
2016_12_27_S17 12/28/2016 01:20:00 0.0
2016_12_27_S17 12/28/2016 01:25:00 0.0
2016_12_27_S17 12/28/2016 01:30:00 0.0
2016_12_27_S17 12/28/2016 01:35:00 0.0
2016_12_27_S17 12/28/2016 01:40:00 0.0
2016_12_27_S17 12/28/2016 01:45:00 0.0
2016_12_27_S17 12/28/2016 01:50:00 0.0
2016_12_27_S17 12/28/2016 01:55:00 0.0
2016_12_27_S17 12/28/2016 02:00:00 0.0
2016_12_27_S17 12/28/2016 02:05:00 0.0
2016_12_27_S17 12/28/2016 02:10:00 0.0
2016_12_27_S17 12/28/2016 02:15:00 0.0
2016_12_27_S17 12/28/2016 02:20:00 0.0
2016_12_27_S17 12/28/2016 02:25:00 0.0
2016_12_27_S17 12/28/2016 02:30:00 0.0
2016_12_27_S17 12/28/2016 02:35:00 0.0
2016_12_27_S17 12/28/2016 02:40:00 0.0
2016_12_27_S17 12/28/2016 02:45:00 0.0
2016_12_27_S17 12/28/2016 02:50:00 0.0
2016_12_27_S17 12/28/2016 02:55:00 0.0
2016_12_27_S17 12/28/2016 03:00:00 0.0
2016_12_27_S17 12/28/2016 03:05:00 0.0
2016_12_27_S17 12/28/2016 03:10:00 0.0
2016_12_27_S17 12/28/2016 03:15:00 0.0
2016_12_27_S17 12/28/2016 03:20:00 0.0
2016_12_27_S17 12/28/2016 03:25:00 0.0
2016_12_27_S17 12/28/2016 03:30:00 0.0
2016_12_27_S17 12/28/2016 03:35:00 0.0
2016_12_27_S17 12/28/2016 03:40:00 0.0
2016_12_27_S17 12/28/2016 03:45:00 0.0
2016_12_27_S17 12/28/2016 03:50:00 0.0
2016_12_27_S17 12/28/2016 03:55:00 0.0
2016_12_27_S17 12/28/2016 04:00:00 0.0
2016_12_27_S17 12/28/2016 04:05:00 0.0
2016_12_27_S17 12/28/2016 04:10:00 0.0
2016_12_27_S17 12/28/2016 04:15:00 0.0
2016_12_27_S17 12/28/2016 04:20:00 0.0
2016_12_27_S17 12/28/2016 04:25:00 0.0
2016_12_27_S17 12/28/2016 04:30:00 0.0
2016_12_27_S17 12/28/2016 04:35:00 0.0
2016_12_27_S17 12/28/2016 04:40:00 0.0
2016_12_27_S17 12/28/2016 04:45:00 0.0
2016_12_27_S17 12/28/2016 04:50:00 0.0
2016_12_27_S17 12/28/2016 04:55:00 0.0
2016_12_27_S17 12/28/2016 05:00:00 0.0
2016_12_27_S17 12/28/2016 05:05:00 0.0
2016_12_27_S17 12/28/2016 05:10:00 0.0
2016_12_27_S17 12/28/2016 05:15:00 0.0
2016_12_27_S17 12/28/2016 05:20:00 0.0
2016_12_27_S17 12/28/2016 05:25:00 0.0
2016_12_27_S17 12/28/2016 05:30:00 0.0
2016_12_27_S17 12/28/2016 05:35:00 0.0
2016_12_27_S17 12/28/2016 05:40:00 0.0
2016_12_27_S17 12/28/2016 05:45:00 0.0
2016_12_27_S17 12/28/2016 05:50:00 0.0
2016_12_27_S17 12/28/2016 05:55:00 0.0
2016_12_27_S17 12/28/2016 06:00:00 0.0
2016_12_27_S17 12/28/2016 06:05:00 0.0
2016_12_27_S17 12/28/2016 06:10:00 0.0
2016_12_27_S17 12/28/2016 06:15:00 0.0
2016_12_27_S17 12/28/2016 06:20:00 0.0
2016_12_27_S17 12/28/2016 06:25:00 0.0
2016_12_27_S17 12/28/2016 06:30:00 0.0
2016_12_27_S17 12/28/2016 06:35:00 0.0
2016_12_27_S17 12/28/2016 06:40:00 0.0
2016_12_27_S17 12/28/2016 06:45:00 0.0
2016_12_27_S17 12/28/2016 06:50:00 0.0
2016_12_27_S17 12/28/2016 06:55:00 0.0
2016_12_27_S17 12/28/2016 07:00:00 0.0
2016_12_27_S17 12/28/2016 07:05:00 0.0
2016_12_27_S17 12/28/2016 07:10:00 0.0
2016_12_27_S17 12/28/2016 07:15:00 0.0
2016_12_27_S17 12/28/2016 07:20:00 0.0
2016_12_27_S17 12/28/2016 07:25:00 0.0
2016_12_27_S17 12/28/2016 07:30:00 0.0
2016_12_27_S17 12/28/2016 07:35:00 0.0
2016_12_27_S17 12/28/2016 07:40:00 0.0
2016_12_27_S17 12/28/2016 07:45:00 0.0
2016_12_27_S17 12/28/2016 07:50:00 0.0
2016_12_27_S17 12/28/2016 07:55:00 0.0
2016_12_27_S17 12/28/2016 08:00:00 0.0

2016_12_27_S18 12/26/2016 08:00:00 0.0
2016_12_27_S18 12/26/2016 08:05:00 0.0
2016_12_27_S18 12/26/2016 08:10:00 0.0
2016_12_27_S18 12/26/2016 08:15:00 0.0
2016_12_27_S18 12/26/2016 08:20:00 0.0
2016_12_27_S18 12/26/2016 08:25:00 0.0
2016_12_27_S18 12/26/2016 08:30:00 0.0
2016_12_27_S18 12/26/2016 08:35:00 0.0
2016_12_27_S18 12/26/2016 08:40:00 0.0
2016_12_27_S18 12/26/2016 08:45:00 0.0
2016_12_27_S18 12/26/2016 08:50:00 0.0
2016_12_27_S18 12/26/2016 08:55:00 0.0
2016_12_27_S18 12/26/2016 09:00:00 0.0
2016_12_27_S18 12/26/2016 09:05:00 0.0006
2016_12_27_S18 12/26/2016 09:10:00 0.0066
2016_12_27_S18 12/26/2016 09:15:00 0.0277
2016_12_27_S18 12/26/2016 09:20:00 0.028
2016_12_27_S18 12/26/2016 09:25:00 0.0049
2016_12_27_S18 12/26/2016 09:30:00 0.0
2016_12_27_S18 12/26/2016 09:35:00 0.0
2016_12_27_S18 12/26/2016 09:40:00 0.0
2016_12_27_S18 12/26/2016 09:45:00 0.0
2016_12_27_S18 12/26/2016 09:50:00 0.0
2016_12_27_S18 12/26/2016 09:55:00 0.0
2016_12_27_S18 12/26/2016 10:00:00 0.0
2016_12_27_S18 12/26/2016 10:05:00 0.0
2016_12_27_S18 12/26/2016 10:10:00 0.0
2016_12_27_S18 12/26/2016 10:15:00 0.0
2016_12_27_S18 12/26/2016 10:20:00 0.0039
2016_12_27_S18 12/26/2016 10:25:00 0.0
2016_12_27_S18 12/26/2016 10:30:00 0.0
2016_12_27_S18 12/26/2016 10:35:00 0.0
2016_12_27_S18 12/26/2016 10:40:00 0.0
2016_12_27_S18 12/26/2016 10:45:00 0.0
2016_12_27_S18 12/26/2016 10:50:00 0.0
2016_12_27_S18 12/26/2016 10:55:00 0.0004
2016_12_27_S18 12/26/2016 11:00:00 0.0032
2016_12_27_S18 12/26/2016 11:05:00 0.0
2016_12_27_S18 12/26/2016 11:10:00 0.0
2016_12_27_S18 12/26/2016 11:15:00 0.0
2016_12_27_S18 12/26/2016 11:20:00 0.0
2016_12_27_S18 12/26/2016 11:25:00 0.0
2016_12_27_S18 12/26/2016 11:30:00 0.0
2016_12_27_S18 12/26/2016 11:35:00 0.0
2016_12_27_S18 12/26/2016 11:40:00 0.0
2016_12_27_S18 12/26/2016 11:45:00 0.0
2016_12_27_S18 12/26/2016 11:50:00 0.0
2016_12_27_S18 12/26/2016 11:55:00 0.0016
2016_12_27_S18 12/26/2016 12:00:00 0.0313
2016_12_27_S18 12/26/2016 12:05:00 0.2052
2016_12_27_S18 12/26/2016 12:10:00 0.0865
2016_12_27_S18 12/26/2016 12:15:00 0.0014
2016_12_27_S18 12/26/2016 12:20:00 0.0
2016_12_27_S18 12/26/2016 12:25:00 0.0
2016_12_27_S18 12/26/2016 12:30:00 0.0
2016_12_27_S18 12/26/2016 12:35:00 0.0109
2016_12_27_S18 12/26/2016 12:40:00 0.0246
2016_12_27_S18 12/26/2016 12:45:00 0.2026
2016_12_27_S18 12/26/2016 12:50:00 0.0
2016_12_27_S18 12/26/2016 12:55:00 0.0
2016_12_27_S18 12/26/2016 13:00:00 0.0
2016_12_27_S18 12/26/2016 13:05:00 0.0
2016_12_27_S18 12/26/2016 13:10:00 0.0
2016_12_27_S18 12/26/2016 13:15:00 0.0
2016_12_27_S18 12/26/2016 13:20:00 0.0
2016_12_27_S18 12/26/2016 13:25:00 0.0
2016_12_27_S18 12/26/2016 13:30:00 0.0
2016_12_27_S18 12/26/2016 13:35:00 0.0
2016_12_27_S18 12/26/2016 13:40:00 0.0
2016_12_27_S18 12/26/2016 13:45:00 0.0
2016_12_27_S18 12/26/2016 13:50:00 0.0
2016_12_27_S18 12/26/2016 13:55:00 0.0
2016_12_27_S18 12/26/2016 14:00:00 0.0
2016_12_27_S18 12/26/2016 14:05:00 0.0
2016_12_27_S18 12/26/2016 14:10:00 0.0
2016_12_27_S18 12/26/2016 14:15:00 0.0
2016_12_27_S18 12/26/2016 14:20:00 0.0
2016_12_27_S18 12/26/2016 14:25:00 0.0
2016_12_27_S18 12/26/2016 14:30:00 0.0
2016_12_27_S18 12/26/2016 14:35:00 0.0
2016_12_27_S18 12/26/2016 14:40:00 0.0
2016_12_27_S18 12/26/2016 14:45:00 0.0
2016_12_27_S18 12/26/2016 14:50:00 0.0
2016_12_27_S18 12/26/2016 14:55:00 0.0
2016_12_27_S18 12/26/2016 15:00:00 0.0
2016_12_27_S18 12/26/2016 15:05:00 0.0
2016_12_27_S18 12/26/2016 15:10:00 0.0
2016_12_27_S18 12/26/2016 15:15:00 0.0
2016_12_27_S18 12/26/2016 15:20:00 0.0
2016_12_27_S18 12/26/2016 15:25:00 0.0
2016_12_27_S18 12/26/2016 15:30:00 0.0
2016_12_27_S18 12/26/2016 15:35:00 0.0
2016_12_27_S18 12/26/2016 15:40:00 0.0
2016_12_27_S18 12/26/2016 15:45:00 0.0
2016_12_27_S18 12/26/2016 15:50:00 0.0
2016_12_27_S18 12/26/2016 15:55:00 0.0
2016_12_27_S18 12/26/2016 16:00:00 0.0
2016_12_27_S18 12/26/2016 16:05:00 0.0
2016_12_27_S18 12/26/2016 16:10:00 0.0
2016_12_27_S18 12/26/2016 16:15:00 0.0
2016_12_27_S18 12/26/2016 16:20:00 0.0
2016_12_27_S18 12/26/2016 16:25:00 0.0
2016_12_27_S18 12/26/2016 16:30:00 0.0
2016_12_27_S18 12/26/2016 16:35:00 0.0
2016_12_27_S18 12/26/2016 16:40:00 0.0
2016_12_27_S18 12/26/2016 16:45:00 0.0
2016_12_27_S18 12/26/2016 16:50:00 0.0
2016_12_27_S18 12/26/2016 16:55:00 0.0
2016_12_27_S18 12/26/2016 17:00:00 0.0
2016_12_27_S18 12/26/2016 17:05:00 0.0
2016_12_27_S18 12/26/2016 17:10:00 0.0
2016_12_27_S18 12/26/2016 17:15:00 0.0
2016_12_27_S18 12/26/2016 17:20:00 0.0
2016_12_27_S18 12/26/2016 17:25:00 0.0
2016_12_27_S18 12/26/2016 17:30:00 0.0
2016_12_27_S18 12/26/2016 17:35:00 0.0
2016_12_27_S18 12/26/2016 17:40:00 0.0
2016_12_27_S18 12/26/2016 17:45:00 0.0
2016_12_27_S18 12/26/2016 17:50:00 0.0
2016_12_27_S18 12/26/2016 17:55:00 0.0
2016_12_27_S18 12/26/2016 18:00:00 0.0
2016_12_27_S18 12/26/2016 18:05:00 0.0
2016_12_27_S18 12/26/2016 18:10:00 0.0
2016_12_27_S18 12/26/2016 18:15:00 0.0
2016_12_27_S18 12/26/2016 18:20:00 0.0
2016_12_27_S18 12/26/2016 18:25:00 0.0
2016_12_27_S18 12/26/2016 18:30:00 0.0
2016_12_27_S18 12/26/2016 18:35:00 0.0
2016_12_27_S18 12/26/2016 18:40:00 0.0
2016_12_27_S18 12/26/2016 18:45:00 0.0
2016_12_27_S18 12/26/2016 18:50:00 0.0
2016_12_27_S18 12/26/2016 18:55:00 0.0
2016_12_27_S18 12/26/2016 19:00:00 0.0
2016_12_27_S18 12/26/2016 19:05:00 0.0
2016_12_27_S18 12/26/2016 19:10:00 0.0
2016_12_27_S18 12/26/2016 19:15:00 0.0
2016_12_27_S18 12/26/2016 19:20:00 0.0
2016_12_27_S18 12/26/2016 19:25:00 0.0
2016_12_27_S18 12/26/2016 19:30:00 0.0
2016_12_27_S18 12/26/2016 19:35:00 0.0
2016_12_27_S18 12/26/2016 19:40:00 0.0
2016_12_27_S18 12/26/2016 19:45:00 0.0
2016_12_27_S18 12/26/2016 19:50:00 0.0
2016_12_27_S18 12/26/2016 19:55:00 0.0
2016_12_27_S18 12/26/2016 20:00:00 0.0
2016_12_27_S18 12/26/2016 20:05:00 0.0
2016_12_27_S18 12/26/2016 20:10:00 0.0
2016_12_27_S18 12/26/2016 20:15:00 0.0
2016_12_27_S18 12/26/2016 20:20:00 0.0
2016_12_27_S18 12/26/2016 20:25:00 0.0
2016_12_27_S18 12/26/2016 20:30:00 0.0
2016_12_27_S18 12/26/2016 20:35:00 0.0
2016_12_27_S18 12/26/2016 20:40:00 0.0
2016_12_27_S18 12/26/2016 20:45:00 0.0
2016_12_27_S18 12/26/2016 20:50:00 0.0
2016_12_27_S18 12/26/2016 20:55:00 0.0
2016_12_27_S18 12/26/2016 21:00:00 0.0
2016_12_27_S18 12/26/2016 21:05:00 0.0
2016_12_27_S18 12/26/2016 21:10:00 0.0
2016_12_27_S18 12/26/2016 21:15:00 0.0
2016_12_27_S18 12/26/2016 21:20:00 0.0
2016_12_27_S18 12/26/2016 21:25:00 0.0
2016_12_27_S18 12/26/2016 21:30:00 0.0
2016_12_27_S18 12/26/2016 21:35:00 0.0
2016_12_27_S18 12/26/2016 21:40:00 0.0
2016_12_27_S18 12/26/2016 21:45:00 0.0
2016_12_27_S18 12/26/2016 21:50:00 0.0
2016_12_27_S18 12/26/2016 21:55:00 0.0
2016_12_27_S18 12/26/2016 22:00:00 0.0
2016_12_27_S18 12/26/2016 22:05:00 0.0
2016_12_27_S18 12/26/2016 22:10:00 0.0
2016_12_27_S18 12/26/2016 22:15:00 0.0
2016_12_27_S18 12/26/2016 22:20:00 0.0
2016_12_27_S18 12/26/2016 22:25:00 0.0
2016_12_27_S18 12/26/2016 22:30:00 0.0
2016_12_27_S18 12/26/2016 22:35:00 0.0
2016_12_27_S18 12/26/2016 22:40:00 0.0
2016_12_27_S18 12/26/2016 22:45:00 0.0
2016_12_27_S18 12/26/2016 22:50:00 0.0
2016_12_27_S18 12/26/2016 22:55:00 0.0
2016_12_27_S18 12/26/2016 23:00:00 0.0
2016_12_27_S18 12/26/2016 23:05:00 0.0
2016_12_27_S18 12/26/2016 23:10:00 0.0
2016_12_27_S18 12/26/2016 23:15:00 0.0
2016_12_27_S18 12/26/2016 23:20:00 0.0
2016_12_27_S18 12/26/2016 23:25:00 0.0
2016_12_27_S18 12/26/2016 23:30:00 0.0
2016_12_27_S18 12/26/2016 23:35:00 0.0
2016_12_27_S18 12/26/2016 23:40:00 0.0
2016_12_27_S18 12/26/2016 23:45:00 0.0
2016_12_27_S18 12/26/2016 23:50:00 0.0
2016_12_27_S18 12/26/2016 23:55:00 0.0
2016_12_27_S18 12/27/2016 00:00:00 0.0
2016_12_27_S18 12/27/2016 00:05:00 0.0
2016_12_27_S18 12/27/2016 00:10:00 0.0
2016_12_27_S18 12/27/2016 00:15:00 0.0
2016_12_27_S18 12/27/2016 00:20:00 0.0
2016_12_27_S18 12/27/2016 00:25:00 0.0
2016_12_27_S18 12/27/2016 00:30:00 0.0
2016_12_27_S18 12/27/2016 00:35:00 0.0
2016_12_27_S18 12/27/2016 00:40:00 0.0
2016_12_27_S18 12/27/2016 00:45:00 0.0
2016_12_27_S18 12/27/2016 00:50:00 0.0
2016_12_27_S18 12/27/2016 00:55:00 0.0
2016_12_27_S18 12/27/2016 01:00:00 0.0
2016_12_27_S18 12/27/2016 01:05:00 0.0
2016_12_27_S18 12/27/2016 01:10:00 0.0
2016_12_27_S18 12/27/2016 01:15:00 0.0075
2016_12_27_S18 12/27/2016 01:20:00 0.0149
2016_12_27_S18 12/27/2016 01:25:00 0.0425
2016_12_27_S18 12/27/2016 01:30:00 0.0689
2016_12_27_S18 12/27/2016 01:35:00 0.5735
2016_12_27_S18 12/27/2016 01:40:00 0.3436
2016_12_27_S18 12/27/2016 01:45:00 1.6048
2016_12_27_S18 12/27/2016 01:50:00 1.5586
2016_12_27_S18 12/27/2016 01:55:00 0.6951
2016_12_27_S18 12/27/2016 02:00:00 0.0202
2016_12_27_S18 12/27/2016 02:05:00 0.0092
2016_12_27_S18 12/27/2016 02:10:00 0.0259
2016_12_27_S18 12/27/2016 02:15:00 0.1089
2016_12_27_S18 12/27/2016 02:20:00 0.0525
2016_12_27_S18 12/27/2016 02:25:00 0.1759
2016_12_27_S18 12/27/2016 02:30:00 0.0656
2016_12_27_S18 12/27/2016 02:35:00 0.1334
2016_12_27_S18 12/27/2016 02:40:00 0.2962
2016_12_27_S18 12/27/2016 02:45:00 0.3804
2016_12_27_S18 12/27/2016 02:50:00 0.7451
2016_12_27_S18 12/27/2016 02:55:00 0.4077
2016_12_27_S18 12/27/2016 03:00:00 0.7322
2016_12_27_S18 12/27/2016 03:05:00 0.5952
2016_12_27_S18 12/27/2016 03:10:00 0.4466
2016_12_27_S18 12/27/2016 03:15:00 0.8928
2016_12_27_S18 12/27/2016 03:20:00 1.0171
2016_12_27_S18 12/27/2016 03:25:00 0.4461
2016_12_27_S18 12/27/2016 03:30:00 0.8509
2016_12_27_S18 12/27/2016 03:35:00 0.4103
2016_12_27_S18 12/27/2016 03:40:00 0.3186
2016_12_27_S18 12/27/2016 03:45:00 0.1852
2016_12_27_S18 12/27/2016 03:50:00 0.1763
2016_12_27_S18 12/27/2016 03:55:00 0.4079
2016_12_27_S18 12/27/2016 04:00:00 0.2221
2016_12_27_S18 12/27/2016 04:05:00 0.0937
2016_12_27_S18 12/27/2016 04:10:00 0.3087
2016_12_27_S18 12/27/2016 04:15:00 0.1563
2016_12_27_S18 12/27/2016 04:20:00 0.0503
2016_12_27_S18 12/27/2016 04:25:00 0.0762
2016_12_27_S18 12/27/2016 04:30:00 0.0663
2016_12_27_S18 12/27/2016 04:35:00 0.0357
2016_12_27_S18 12/27/2016 04:40:00 0.0343
2016_12_27_S18 12/27/2016 04:45:00 0.0523
2016_12_27_S18 12/27/2016 04:50:00 0.1468
2016_12_27_S18 12/27/2016 04:55:00 0.3079
2016_12_27_S18 12/27/2016 05:00:00 0.8718
2016_12_27_S18 12/27/2016 05:05:00 0.1328
2016_12_27_S18 12/27/2016 05:10:00 0.245
2016_12_27_S18 12/27/2016 05:15:00 0.2743
2016_12_27_S18 12/27/2016 05:20:00 0.1646
2016_12_27_S18 12/27/2016 05:25:00 0.0381
2016_12_27_S18 12/27/2016 05:30:00 0.0
2016_12_27_S18 12/27/2016 05:35:00 0.0
2016_12_27_S18 12/27/2016 05:40:00 0.0
2016_12_27_S18 12/27/2016 05:45:00 0.0
2016_12_27_S18 12/27/2016 05:50:00 0.0
2016_12_27_S18 12/27/2016 05:55:00 0.0
2016_12_27_S18 12/27/2016 06:00:00 0.0
2016_12_27_S18 12/27/2016 06:05:00 0.0
2016_12_27_S18 12/27/2016 06:10:00 0.0
2016_12_27_S18 12/27/2016 06:15:00 0.0
2016_12_27_S18 12/27/2016 06:20:00 0.0
2016_12_27_S18 12/27/2016 06:25:00 0.0
2016_12_27_S18 12/27/2016 06:30:00 0.0
2016_12_27_S18 12/27/2016 06:35:00 0.0
2016_12_27_S18 12/27/2016 06:40:00 0.0081
2016_12_27_S18 12/27/2016 06:45:00 0.1496
2016_12_27_S18 12/27/2016 06:50:00 0.0
2016_12_27_S18 12/27/2016 06:55:00 0.0582
2016_12_27_S18 12/27/2016 07:00:00 0.2198
2016_12_27_S18 12/27/2016 07:05:00 0.0276
2016_12_27_S18 12/27/2016 07:10:00 0.4829
2016_12_27_S18 12/27/2016 07:15:00 0.8658
2016_12_27_S18 12/27/2016 07:20:00 0.596
2016_12_27_S18 12/27/2016 07:25:00 0.2477
2016_12_27_S18 12/27/2016 07:30:00 0.6439
2016_12_27_S18 12/27/2016 07:35:00 0.3845
2016_12_27_S18 12/27/2016 07:40:00 0.215
2016_12_27_S18 12/27/2016 07:45:00 0.0958
2016_12_27_S18 12/27/2016 07:50:00 0.5926
2016_12_27_S18 12/27/2016 07:55:00 0.9303
2016_12_27_S18 12/27/2016 08:00:00 0.6767
2016_12_27_S18 12/27/2016 08:05:00 0.6587
2016_12_27_S18 12/27/2016 08:10:00 1.0629
2016_12_27_S18 12/27/2016 08:15:00 0.6354
2016_12_27_S18 12/27/2016 08:20:00 0.4593
2016_12_27_S18 12/27/2016 08:25:00 0.1763
2016_12_27_S18 12/27/2016 08:30:00 0.0088
2016_12_27_S18 12/27/2016 08:35:00 0.1196
2016_12_27_S18 12/27/2016 08:40:00 0.3998
2016_12_27_S18 12/27/2016 08:45:00 0.832
2016_12_27_S18 12/27/2016 08:50:00 0.7346
2016_12_27_S18 12/27/2016 08:55:00 0.2859
2016_12_27_S18 12/27/2016 09:00:00 1.6438
2016_12_27_S18 12/27/2016 09:05:00 0.4089
2016_12_27_S18 12/27/2016 09:10:00 0.2705
2016_12_27_S18 12/27/2016 09:15:00 0.5898
2016_12_27_S18 12/27/2016 09:20:00 0.6751
2016_12_27_S18 12/27/2016 09:25:00 0.7353
2016_12_27_S18 12/27/2016 09:30:00 0.2304
2016_12_27_S18 12/27/2016 09:35:00 0.1819
2016_12_27_S18 12/27/2016 09:40:00 0.3885
2016_12_27_S18 12/27/2016 09:45:00 0.4307
2016_12_27_S18 12/27/2016 09:50:00 0.0966
2016_12_27_S18 12/27/2016 09:55:00 0.0
2016_12_27_S18 12/27/2016 10:00:00 0.0755
2016_12_27_S18 12/27/2016 10:05:00 0.7369
2016_12_27_S18 12/27/2016 10:10:00 0.5201
2016_12_27_S18 12/27/2016 10:15:00 0.1693
2016_12_27_S18 12/27/2016 10:20:00 0.0747
2016_12_27_S18 12/27/2016 10:25:00 0.1001
2016_12_27_S18 12/27/2016 10:30:00 0.0387
2016_12_27_S18 12/27/2016 10:35:00 0.0287
2016_12_27_S18 12/27/2016 10:40:00 0.0369
2016_12_27_S18 12/27/2016 10:45:00 0.714
2016_12_27_S18 12/27/2016 10:50:00 0.492
2016_12_27_S18 12/27/2016 10:55:00 0.7687
2016_12_27_S18 12/27/2016 11:00:00 0.4898
2016_12_27_S18 12/27/2016 11:05:00 0.1945
2016_12_27_S18 12/27/2016 11:10:00 0.0635
2016_12_27_S18 12/27/2016 11:15:00 0.1926
2016_12_27_S18 12/27/2016 11:20:00 0.3695
2016_12_27_S18 12/27/2016 11:25:00 0.4895
2016_12_27_S18 12/27/2016 11:30:00 0.6375
2016_12_27_S18 12/27/2016 11:35:00 0.5944
2016_12_27_S18 12/27/2016 11:40:00 0.9685
2016_12_27_S18 12/27/2016 11:45:00 0.5911
2016_12_27_S18 12/27/2016 11:50:00 1.0441
2016_12_27_S18 12/27/2016 11:55:00 0.4925
2016_12_27_S18 12/27/2016 12:00:00 0.3303
2016_12_27_S18 12/27/2016 12:05:00 0.6355
2016_12_27_S18 12/27/2016 12:10:00 0.1986
2016_12_27_S18 12/27/2016 12:15:00 0.3244
2016_12_27_S18 12/27/2016 12:20:00 0.2071
2016_12_27_S18 12/27/2016 12:25:00 0.1753
2016_12_27_S18 12/27/2016 12:30:00 0.2062
2016_12_27_S18 12/27/2016 12:35:00 0.0404
2016_12_27_S18 12/27/2016 12:40:00 0.0731
2016_12_27_S18 12/27/2016 12:45:00 0.013
2016_12_27_S18 12/27/2016 12:50:00 0.0054
2016_12_27_S18 12/27/2016 12:55:00 0.0036
2016_12_27_S18 12/27/2016 13:00:00 0.0825
2016_12_27_S18 12/27/2016 13:05:00 0.0086
2016_12_27_S18 12/27/2016 13:10:00 0.0
2016_12_27_S18 12/27/2016 13:15:00 0.0
2016_12_27_S18 12/27/2016 13:20:00 0.0
2016_12_27_S18 12/27/2016 13:25:00 0.0033
2016_12_27_S18 12/27/2016 13:30:00 0.0674
2016_12_27_S18 12/27/2016 13:35:00 0.1555
2016_12_27_S18 12/27/2016 13:40:00 0.1943
2016_12_27_S18 12/27/2016 13:45:00 0.1714
2016_12_27_S18 12/27/2016 13:50:00 0.0893
2016_12_27_S18 12/27/2016 13:55:00 0.0208
2016_12_27_S18 12/27/2016 14:00:00 0.1019
2016_12_27_S18 12/27/2016 14:05:00 0.0857
2016_12_27_S18 12/27/2016 14:10:00 0.0276
2016_12_27_S18 12/27/2016 14:15:00 0.0001
2016_12_27_S18 12/27/2016 14:20:00 0.0123
2016_12_27_S18 12/27/2016 14:25:00 0.0225
2016_12_27_S18 12/27/2016 14:30:00 0.0074
2016_12_27_S18 12/27/2016 14:35:00 0.0
2016_12_27_S18 12/27/2016 14:40:00 0.0
2016_12_27_S18 12/27/2016 14:45:00 0.0
2016_12_27_S18 12/27/2016 14:50:00 0.0
2016_12_27_S18 12/27/2016 14:55:00 0.0
2016_12_27_S18 12/27/2016 15:00:00 0.0
2016_12_27_S18 12/27/2016 15:05:00 0.0
2016_12_27_S18 12/27/2016 15:10:00 0.0
2016_12_27_S18 12/27/2016 15:15:00 0.0
2016_12_27_S18 12/27/2016 15:20:00 0.0008
2016_12_27_S18 12/27/2016 15:25:00 0.004
2016_12_27_S18 12/27/2016 15:30:00 0.0
2016_12_27_S18 12/27/2016 15:35:00 0.0
2016_12_27_S18 12/27/2016 15:40:00 0.0
2016_12_27_S18 12/27/2016 15:45:00 0.0
2016_12_27_S18 12/27/2016 15:50:00 0.0
2016_12_27_S18 12/27/2016 15:55:00 0.0
2016_12_27_S18 12/27/2016 16:00:00 0.039
2016_12_27_S18 12/27/2016 16:05:00 0.0438
2016_12_27_S18 12/27/2016 16:10:00 0.0
2016_12_27_S18 12/27/2016 16:15:00 0.0049
2016_12_27_S18 12/27/2016 16:20:00 0.0
2016_12_27_S18 12/27/2016 16:25:00 0.0
2016_12_27_S18 12/27/2016 16:30:00 0.0
2016_12_27_S18 12/27/2016 16:35:00 0.0
2016_12_27_S18 12/27/2016 16:40:00 0.2736
2016_12_27_S18 12/27/2016 16:45:00 0.0033
2016_12_27_S18 12/27/2016 16:50:00 0.0
2016_12_27_S18 12/27/2016 16:55:00 0.0
2016_12_27_S18 12/27/2016 17:00:00 0.0
2016_12_27_S18 12/27/2016 17:05:00 0.0
2016_12_27_S18 12/27/2016 17:10:00 0.0
2016_12_27_S18 12/27/2016 17:15:00 0.0
2016_12_27_S18 12/27/2016 17:20:00 0.0
2016_12_27_S18 12/27/2016 17:25:00 0.0
2016_12_27_S18 12/27/2016 17:30:00 0.0
2016_12_27_S18 12/27/2016 17:35:00 0.0
2016_12_27_S18 12/27/2016 17:40:00 0.0354
2016_12_27_S18 12/27/2016 17:45:00 0.1929
2016_12_27_S18 12/27/2016 17:50:00 0.0705
2016_12_27_S18 12/27/2016 17:55:00 0.0061
2016_12_27_S18 12/27/2016 18:00:00 0.0
2016_12_27_S18 12/27/2016 18:05:00 0.0
2016_12_27_S18 12/27/2016 18:10:00 0.0
2016_12_27_S18 12/27/2016 18:15:00 0.0
2016_12_27_S18 12/27/2016 18:20:00 0.0046
2016_12_27_S18 12/27/2016 18:25:00 5.5336
2016_12_27_S18 12/27/2016 18:30:00 0.037
2016_12_27_S18 12/27/2016 18:35:00 0.0594
2016_12_27_S18 12/27/2016 18:40:00 0.0397
2016_12_27_S18 12/27/2016 18:45:00 0.0
2016_12_27_S18 12/27/2016 18:50:00 0.0
2016_12_27_S18 12/27/2016 18:55:00 0.0
2016_12_27_S18 12/27/2016 19:00:00 0.0
2016_12_27_S18 12/27/2016 19:05:00 0.0
2016_12_27_S18 12/27/2016 19:10:00 0.0133
2016_12_27_S18 12/27/2016 19:15:00 0.2024
2016_12_27_S18 12/27/2016 19:20:00 0.0001
2016_12_27_S18 12/27/2016 19:25:00 0.0
2016_12_27_S18 12/27/2016 19:30:00 0.0095
2016_12_27_S18 12/27/2016 19:35:00 0.192
2016_12_27_S18 12/27/2016 19:40:00 0.1574
2016_12_27_S18 12/27/2016 19:45:00 2.2374
2016_12_27_S18 12/27/2016 19:50:00 2.6712
2016_12_27_S18 12/27/2016 19:55:00 1.951
2016_12_27_S18 12/27/2016 20:00:00 0.1347
2016_12_27_S18 12/27/2016 20:05:00 0.0057
2016_12_27_S18 12/27/2016 20:10:00 0.0
2016_12_27_S18 12/27/2016 20:15:00 0.0
2016_12_27_S18 12/27/2016 20:20:00 0.0
2016_12_27_S18 12/27/2016 20:25:00 0.0004
2016_12_27_S18 12/27/2016 20:30:00 0.0006
2016_12_27_S18 12/27/2016 20:35:00 0.0005
2016_12_27_S18 12/27/2016 20:40:00 0.0
2016_12_27_S18 12/27/2016 20:45:00 0.0
2016_12_27_S18 12/27/2016 20:50:00 0.0
2016_12_27_S18 12/27/2016 20:55:00 0.0
2016_12_27_S18 12/27/2016 21:00:00 0.0
2016_12_27_S18 12/27/2016 21:05:00 0.0
2016_12_27_S18 12/27/2016 21:10:00 0.0
2016_12_27_S18 12/27/2016 21:15:00 0.0
2016_12_27_S18 12/27/2016 21:20:00 0.0
2016_12_27_S18 12/27/2016 21:25:00 0.0
2016_12_27_S18 12/27/2016 21:30:00 0.0
2016_12_27_S18 12/27/2016 21:35:00 0.0
2016_12_27_S18 12/27/2016 21:40:00 0.0
2016_12_27_S18 12/27/2016 21:45:00 0.0
2016_12_27_S18 12/27/2016 21:50:00 0.0
2016_12_27_S18 12/27/2016 21:55:00 0.0
2016_12_27_S18 12/27/2016 22:00:00 0.0
2016_12_27_S18 12/27/2016 22:05:00 0.0
2016_12_27_S18 12/27/2016 22:10:00 0.0
2016_12_27_S18 12/27/2016 22:15:00 0.0069
2016_12_27_S18 12/27/2016 22:20:00 0.0
2016_12_27_S18 12/27/2016 22:25:00 0.001
2016_12_27_S18 12/27/2016 22:30:00 0.0427
2016_12_27_S18 12/27/2016 22:35:00 0.9691
2016_12_27_S18 12/27/2016 22:40:00 0.0566
2016_12_27_S18 12/27/2016 22:45:00 0.0
2016_12_27_S18 12/27/2016 22:50:00 0.0054
2016_12_27_S18 12/27/2016 22:55:00 0.0051
2016_12_27_S18 12/27/2016 23:00:00 0.0001
2016_12_27_S18 12/27/2016 23:05:00 0.0205
2016_12_27_S18 12/27/2016 23:10:00 0.0073
2016_12_27_S18 12/27/2016 23:15:00 0.0005
2016_12_27_S18 12/27/2016 23:20:00 0.0041
2016_12_27_S18 12/27/2016 23:25:00 0.0006
2016_12_27_S18 12/27/2016 23:30:00 0.014
2016_12_27_S18 12/27/2016 23:35:00 0.0
2016_12_27_S18 12/27/2016 23:40:00 0.0006
2016_12_27_S18 12/27/2016 23:45:00 0.0
2016_12_27_S18 12/27/2016 23:50:00 0.0
2016_12_27_S18 12/27/2016 23:55:00 0.0
2016_12_27_S18 12/28/2016 00:00:00 0.0
2016_12_27_S18 12/28/2016 00:05:00 0.0
2016_12_27_S18 12/28/2016 00:10:00 0.0
2016_12_27_S18 12/28/2016 00:15:00 0.0
2016_12_27_S18 12/28/2016 00:20:00 0.0
2016_12_27_S18 12/28/2016 00:25:00 0.0
2016_12_27_S18 12/28/2016 00:30:00 0.0
2016_12_27_S18 12/28/2016 00:35:00 0.0
2016_12_27_S18 12/28/2016 00:40:00 0.0
2016_12_27_S18 12/28/2016 00:45:00 0.0
2016_12_27_S18 12/28/2016 00:50:00 0.0
2016_12_27_S18 12/28/2016 00:55:00 0.0
2016_12_27_S18 12/28/2016 01:00:00 0.0
2016_12_27_S18 12/28/2016 01:05:00 0.0
2016_12_27_S18 12/28/2016 01:10:00 0.0
2016_12_27_S18 12/28/2016 01:15:00 0.0
2016_12_27_S18 12/28/2016 01:20:00 0.0
2016_12_27_S18 12/28/2016 01:25:00 0.0
2016_12_27_S18 12/28/2016 01:30:00 0.0
2016_12_27_S18 12/28/2016 01:35:00 0.0
2016_12_27_S18 12/28/2016 01:40:00 0.0
2016_12_27_S18 12/28/2016 01:45:00 0.0
2016_12_27_S18 12/28/2016 01:50:00 0.0
2016_12_27_S18 12/28/2016 01:55:00 0.0
2016_12_27_S18 12/28/2016 02:00:00 0.0
2016_12_27_S18 12/28/2016 02:05:00 0.0
2016_12_27_S18 12/28/2016 02:10:00 0.0
2016_12_27_S18 12/28/2016 02:15:00 0.0
2016_12_27_S18 12/28/2016 02:20:00 0.0
2016_12_27_S18 12/28/2016 02:25:00 0.0
2016_12_27_S18 12/28/2016 02:30:00 0.0
2016_12_27_S18 12/28/2016 02:35:00 0.0
2016_12_27_S18 12/28/2016 02:40:00 0.0
2016_12_27_S18 12/28/2016 02:45:00 0.0
2016_12_27_S18 12/28/2016 02:50:00 0.0
2016_12_27_S18 12/28/2016 02:55:00 0.0
2016_12_27_S18 12/28/2016 03:00:00 0.0
2016_12_27_S18 12/28/2016 03:05:00 0.0
2016_12_27_S18 12/28/2016 03:10:00 0.0
2016_12_27_S18 12/28/2016 03:15:00 0.0
2016_12_27_S18 12/28/2016 03:20:00 0.0
2016_12_27_S18 12/28/2016 03:25:00 0.0
2016_12_27_S18 12/28/2016 03:30:00 0.0
2016_12_27_S18 12/28/2016 03:35:00 0.0
2016_12_27_S18 12/28/2016 03:40:00 0.0
2016_12_27_S18 12/28/2016 03:45:00 0.0
2016_12_27_S18 12/28/2016 03:50:00 0.0
2016_12_27_S18 12/28/2016 03:55:00 0.0
2016_12_27_S18 12/28/2016 04:00:00 0.0
2016_12_27_S18 12/28/2016 04:05:00 0.0
2016_12_27_S18 12/28/2016 04:10:00 0.0
2016_12_27_S18 12/28/2016 04:15:00 0.0
2016_12_27_S18 12/28/2016 04:20:00 0.0
2016_12_27_S18 12/28/2016 04:25:00 0.0
2016_12_27_S18 12/28/2016 04:30:00 0.0
2016_12_27_S18 12/28/2016 04:35:00 0.0
2016_12_27_S18 12/28/2016 04:40:00 0.0
2016_12_27_S18 12/28/2016 04:45:00 0.0
2016_12_27_S18 12/28/2016 04:50:00 0.0
2016_12_27_S18 12/28/2016 04:55:00 0.0
2016_12_27_S18 12/28/2016 05:00:00 0.0
2016_12_27_S18 12/28/2016 05:05:00 0.0
2016_12_27_S18 12/28/2016 05:10:00 0.0
2016_12_27_S18 12/28/2016 05:15:00 0.0
2016_12_27_S18 12/28/2016 05:20:00 0.0
2016_12_27_S18 12/28/2016 05:25:00 0.0
2016_12_27_S18 12/28/2016 05:30:00 0.0
2016_12_27_S18 12/28/2016 05:35:00 0.0
2016_12_27_S18 12/28/2016 05:40:00 0.0
2016_12_27_S18 12/28/2016 05:45:00 0.0
2016_12_27_S18 12/28/2016 05:50:00 0.0
2016_12_27_S18 12/28/2016 05:55:00 0.0
2016_12_27_S18 12/28/2016 06:00:00 0.0
2016_12_27_S18 12/28/2016 06:05:00 0.0
2016_12_27_S18 12/28/2016 06:10:00 0.0
2016_12_27_S18 12/28/2016 06:15:00 0.0
2016_12_27_S18 12/28/2016 06:20:00 0.0
2016_12_27_S18 12/28/2016 06:25:00 0.0
2016_12_27_S18 12/28/2016 06:30:00 0.0
2016_12_27_S18 12/28/2016 06:35:00 0.0
2016_12_27_S18 12/28/2016 06:40:00 0.0
2016_12_27_S18 12/28/2016 06:45:00 0.0
2016_12_27_S18 12/28/2016 06:50:00 0.0
2016_12_27_S18 12/28/2016 06:55:00 0.0
2016_12_27_S18 12/28/2016 07:00:00 0.0
2016_12_27_S18 12/28/2016 07:05:00 0.0
2016_12_27_S18 12/28/2016 07:10:00 0.0
2016_12_27_S18 12/28/2016 07:15:00 0.0
2016_12_27_S18 12/28/2016 07:20:00 0.0
2016_12_27_S18 12/28/2016 07:25:00 0.0
2016_12_27_S18 12/28/2016 07:30:00 0.0
2016_12_27_S18 12/28/2016 07:35:00 0.0
2016_12_27_S18 12/28/2016 07:40:00 0.0
2016_12_27_S18 12/28/2016 07:45:00 0.0
2016_12_27_S18 12/28/2016 07:50:00 0.0
2016_12_27_S18 12/28/2016 07:55:00 0.0
2016_12_27_S18 12/28/2016 08:00:00 0.0

2016_12_27_S19 12/26/2016 08:00:00 0.0
2016_12_27_S19 12/26/2016 08:05:00 0.0
2016_12_27_S19 12/26/2016 08:10:00 0.0
2016_12_27_S19 12/26/2016 08:15:00 0.0
2016_12_27_S19 12/26/2016 08:20:00 0.0
2016_12_27_S19 12/26/2016 08:25:00 0.0
2016_12_27_S19 12/26/2016 08:30:00 0.0
2016_12_27_S19 12/26/2016 08:35:00 0.0
2016_12_27_S19 12/26/2016 08:40:00 0.0
2016_12_27_S19 12/26/2016 08:45:00 0.0
2016_12_27_S19 12/26/2016 08:50:00 0.0
2016_12_27_S19 12/26/2016 08:55:00 0.0
2016_12_27_S19 12/26/2016 09:00:00 0.0
2016_12_27_S19 12/26/2016 09:05:00 0.0001
2016_12_27_S19 12/26/2016 09:10:00 0.0223
2016_12_27_S19 12/26/2016 09:15:00 0.0337
2016_12_27_S19 12/26/2016 09:20:00 0.031
2016_12_27_S19 12/26/2016 09:25:00 0.0169
2016_12_27_S19 12/26/2016 09:30:00 0.0
2016_12_27_S19 12/26/2016 09:35:00 0.0
2016_12_27_S19 12/26/2016 09:40:00 0.0
2016_12_27_S19 12/26/2016 09:45:00 0.0
2016_12_27_S19 12/26/2016 09:50:00 0.0
2016_12_27_S19 12/26/2016 09:55:00 0.0
2016_12_27_S19 12/26/2016 10:00:00 0.0
2016_12_27_S19 12/26/2016 10:05:00 0.0
2016_12_27_S19 12/26/2016 10:10:00 0.0
2016_12_27_S19 12/26/2016 10:15:00 0.0
2016_12_27_S19 12/26/2016 10:20:00 0.0027
2016_12_27_S19 12/26/2016 10:25:00 0.0
2016_12_27_S19 12/26/2016 10:30:00 0.0
2016_12_27_S19 12/26/2016 10:35:00 0.0
2016_12_27_S19 12/26/2016 10:40:00 0.0
2016_12_27_S19 12/26/2016 10:45:00 0.0
2016_12_27_S19 12/26/2016 10:50:00 0.0
2016_12_27_S19 12/26/2016 10:55:00 0.0003
2016_12_27_S19 12/26/2016 11:00:00 0.001
2016_12_27_S19 12/26/2016 11:05:00 0.0
2016_12_27_S19 12/26/2016 11:10:00 0.0
2016_12_27_S19 12/26/2016 11:15:00 0.0
2016_12_27_S19 12/26/2016 11:20:00 0.0
2016_12_27_S19 12/26/2016 11:25:00 0.0
2016_12_27_S19 12/26/2016 11:30:00 0.0
2016_12_27_S19 12/26/2016 11:35:00 0.0
2016_12_27_S19 12/26/2016 11:40:00 0.0
2016_12_27_S19 12/26/2016 11:45:00 0.0
2016_12_27_S19 12/26/2016 11:50:00 0.0
2016_12_27_S19 12/26/2016 11:55:00 0.0003
2016_12_27_S19 12/26/2016 12:00:00 0.0817
2016_12_27_S19 12/26/2016 12:05:00 0.1654
2016_12_27_S19 12/26/2016 12:10:00 0.1072
2016_12_27_S19 12/26/2016 12:15:00 0.0128
2016_12_27_S19 12/26/2016 12:20:00 0.0
2016_12_27_S19 12/26/2016 12:25:00 0.0
2016_12_27_S19 12/26/2016 12:30:00 0.0
2016_12_27_S19 12/26/2016 12:35:00 0.0023
2016_12_27_S19 12/26/2016 12:40:00 0.0317
2016_12_27_S19 12/26/2016 12:45:00 0.1355
2016_12_27_S19 12/26/2016 12:50:00 0.0
2016_12_27_S19 12/26/2016 12:55:00 0.0
2016_12_27_S19 12/26/2016 13:00:00 0.0
2016_12_27_S19 12/26/2016 13:05:00 0.0
2016_12_27_S19 12/26/2016 13:10:00 0.0
2016_12_27_S19 12/26/2016 13:15:00 0.0
2016_12_27_S19 12/26/2016 13:20:00 0.0
2016_12_27_S19 12/26/2016 13:25:00 0.0
2016_12_27_S19 12/26/2016 13:30:00 0.0
2016_12_27_S19 12/26/2016 13:35:00 0.0
2016_12_27_S19 12/26/2016 13:40:00 0.0
2016_12_27_S19 12/26/2016 13:45:00 0.0
2016_12_27_S19 12/26/2016 13:50:00 0.0
2016_12_27_S19 12/26/2016 13:55:00 0.0
2016_12_27_S19 12/26/2016 14:00:00 0.0
2016_12_27_S19 12/26/2016 14:05:00 0.0
2016_12_27_S19 12/26/2016 14:10:00 0.0
2016_12_27_S19 12/26/2016 14:15:00 0.0
2016_12_27_S19 12/26/2016 14:20:00 0.0
2016_12_27_S19 12/26/2016 14:25:00 0.0
2016_12_27_S19 12/26/2016 14:30:00 0.0
2016_12_27_S19 12/26/2016 14:35:00 0.0
2016_12_27_S19 12/26/2016 14:40:00 0.0
2016_12_27_S19 12/26/2016 14:45:00 0.0
2016_12_27_S19 12/26/2016 14:50:00 0.0
2016_12_27_S19 12/26/2016 14:55:00 0.0
2016_12_27_S19 12/26/2016 15:00:00 0.0
2016_12_27_S19 12/26/2016 15:05:00 0.0
2016_12_27_S19 12/26/2016 15:10:00 0.0
2016_12_27_S19 12/26/2016 15:15:00 0.0
2016_12_27_S19 12/26/2016 15:20:00 0.0
2016_12_27_S19 12/26/2016 15:25:00 0.0
2016_12_27_S19 12/26/2016 15:30:00 0.0
2016_12_27_S19 12/26/2016 15:35:00 0.0
2016_12_27_S19 12/26/2016 15:40:00 0.0
2016_12_27_S19 12/26/2016 15:45:00 0.0
2016_12_27_S19 12/26/2016 15:50:00 0.0
2016_12_27_S19 12/26/2016 15:55:00 0.0
2016_12_27_S19 12/26/2016 16:00:00 0.0
2016_12_27_S19 12/26/2016 16:05:00 0.0
2016_12_27_S19 12/26/2016 16:10:00 0.0
2016_12_27_S19 12/26/2016 16:15:00 0.0
2016_12_27_S19 12/26/2016 16:20:00 0.0
2016_12_27_S19 12/26/2016 16:25:00 0.0
2016_12_27_S19 12/26/2016 16:30:00 0.0
2016_12_27_S19 12/26/2016 16:35:00 0.0
2016_12_27_S19 12/26/2016 16:40:00 0.0
2016_12_27_S19 12/26/2016 16:45:00 0.0
2016_12_27_S19 12/26/2016 16:50:00 0.0
2016_12_27_S19 12/26/2016 16:55:00 0.0
2016_12_27_S19 12/26/2016 17:00:00 0.0
2016_12_27_S19 12/26/2016 17:05:00 0.0
2016_12_27_S19 12/26/2016 17:10:00 0.0
2016_12_27_S19 12/26/2016 17:15:00 0.0
2016_12_27_S19 12/26/2016 17:20:00 0.0
2016_12_27_S19 12/26/2016 17:25:00 0.0
2016_12_27_S19 12/26/2016 17:30:00 0.0
2016_12_27_S19 12/26/2016 17:35:00 0.0
2016_12_27_S19 12/26/2016 17:40:00 0.0
2016_12_27_S19 12/26/2016 17:45:00 0.0
2016_12_27_S19 12/26/2016 17:50:00 0.0
2016_12_27_S19 12/26/2016 17:55:00 0.0
2016_12_27_S19 12/26/2016 18:00:00 0.0
2016_12_27_S19 12/26/2016 18:05:00 0.0
2016_12_27_S19 12/26/2016 18:10:00 0.0
2016_12_27_S19 12/26/2016 18:15:00 0.0
2016_12_27_S19 12/26/2016 18:20:00 0.0
2016_12_27_S19 12/26/2016 18:25:00 0.0
2016_12_27_S19 12/26/2016 18:30:00 0.0
2016_12_27_S19 12/26/2016 18:35:00 0.0
2016_12_27_S19 12/26/2016 18:40:00 0.0
2016_12_27_S19 12/26/2016 18:45:00 0.0
2016_12_27_S19 12/26/2016 18:50:00 0.0
2016_12_27_S19 12/26/2016 18:55:00 0.0
2016_12_27_S19 12/26/2016 19:00:00 0.0
2016_12_27_S19 12/26/2016 19:05:00 0.0
2016_12_27_S19 12/26/2016 19:10:00 0.0
2016_12_27_S19 12/26/2016 19:15:00 0.0
2016_12_27_S19 12/26/2016 19:20:00 0.0
2016_12_27_S19 12/26/2016 19:25:00 0.0
2016_12_27_S19 12/26/2016 19:30:00 0.0
2016_12_27_S19 12/26/2016 19:35:00 0.0
2016_12_27_S19 12/26/2016 19:40:00 0.0
2016_12_27_S19 12/26/2016 19:45:00 0.0
2016_12_27_S19 12/26/2016 19:50:00 0.0
2016_12_27_S19 12/26/2016 19:55:00 0.0
2016_12_27_S19 12/26/2016 20:00:00 0.0
2016_12_27_S19 12/26/2016 20:05:00 0.0
2016_12_27_S19 12/26/2016 20:10:00 0.0
2016_12_27_S19 12/26/2016 20:15:00 0.0
2016_12_27_S19 12/26/2016 20:20:00 0.0
2016_12_27_S19 12/26/2016 20:25:00 0.0
2016_12_27_S19 12/26/2016 20:30:00 0.0
2016_12_27_S19 12/26/2016 20:35:00 0.0
2016_12_27_S19 12/26/2016 20:40:00 0.0
2016_12_27_S19 12/26/2016 20:45:00 0.0
2016_12_27_S19 12/26/2016 20:50:00 0.0
2016_12_27_S19 12/26/2016 20:55:00 0.0
2016_12_27_S19 12/26/2016 21:00:00 0.0
2016_12_27_S19 12/26/2016 21:05:00 0.0
2016_12_27_S19 12/26/2016 21:10:00 0.0
2016_12_27_S19 12/26/2016 21:15:00 0.0
2016_12_27_S19 12/26/2016 21:20:00 0.0
2016_12_27_S19 12/26/2016 21:25:00 0.0
2016_12_27_S19 12/26/2016 21:30:00 0.0
2016_12_27_S19 12/26/2016 21:35:00 0.0
2016_12_27_S19 12/26/2016 21:40:00 0.0
2016_12_27_S19 12/26/2016 21:45:00 0.0
2016_12_27_S19 12/26/2016 21:50:00 0.0
2016_12_27_S19 12/26/2016 21:55:00 0.0
2016_12_27_S19 12/26/2016 22:00:00 0.0
2016_12_27_S19 12/26/2016 22:05:00 0.0
2016_12_27_S19 12/26/2016 22:10:00 0.0
2016_12_27_S19 12/26/2016 22:15:00 0.0
2016_12_27_S19 12/26/2016 22:20:00 0.0
2016_12_27_S19 12/26/2016 22:25:00 0.0
2016_12_27_S19 12/26/2016 22:30:00 0.0
2016_12_27_S19 12/26/2016 22:35:00 0.0
2016_12_27_S19 12/26/2016 22:40:00 0.0
2016_12_27_S19 12/26/2016 22:45:00 0.0
2016_12_27_S19 12/26/2016 22:50:00 0.0
2016_12_27_S19 12/26/2016 22:55:00 0.0
2016_12_27_S19 12/26/2016 23:00:00 0.0
2016_12_27_S19 12/26/2016 23:05:00 0.0
2016_12_27_S19 12/26/2016 23:10:00 0.0
2016_12_27_S19 12/26/2016 23:15:00 0.0
2016_12_27_S19 12/26/2016 23:20:00 0.0
2016_12_27_S19 12/26/2016 23:25:00 0.0
2016_12_27_S19 12/26/2016 23:30:00 0.0
2016_12_27_S19 12/26/2016 23:35:00 0.0
2016_12_27_S19 12/26/2016 23:40:00 0.0
2016_12_27_S19 12/26/2016 23:45:00 0.0
2016_12_27_S19 12/26/2016 23:50:00 0.0
2016_12_27_S19 12/26/2016 23:55:00 0.0
2016_12_27_S19 12/27/2016 00:00:00 0.0
2016_12_27_S19 12/27/2016 00:05:00 0.0
2016_12_27_S19 12/27/2016 00:10:00 0.0
2016_12_27_S19 12/27/2016 00:15:00 0.0
2016_12_27_S19 12/27/2016 00:20:00 0.0
2016_12_27_S19 12/27/2016 00:25:00 0.0
2016_12_27_S19 12/27/2016 00:30:00 0.0
2016_12_27_S19 12/27/2016 00:35:00 0.0
2016_12_27_S19 12/27/2016 00:40:00 0.0
2016_12_27_S19 12/27/2016 00:45:00 0.0
2016_12_27_S19 12/27/2016 00:50:00 0.0
2016_12_27_S19 12/27/2016 00:55:00 0.0
2016_12_27_S19 12/27/2016 01:00:00 0.0027
2016_12_27_S19 12/27/2016 01:05:00 0.0
2016_12_27_S19 12/27/2016 01:10:00 0.0
2016_12_27_S19 12/27/2016 01:15:00 0.0124
2016_12_27_S19 12/27/2016 01:20:00 0.0111
2016_12_27_S19 12/27/2016 01:25:00 0.0401
2016_12_27_S19 12/27/2016 01:30:00 0.1116
2016_12_27_S19 12/27/2016 01:35:00 0.8861
2016_12_27_S19 12/27/2016 01:40:00 0.3108
2016_12_27_S19 12/27/2016 01:45:00 1.3173
2016_12_27_S19 12/27/2016 01:50:00 1.9189
2016_12_27_S19 12/27/2016 01:55:00 0.725
2016_12_27_S19 12/27/2016 02:00:00 0.0294
2016_12_27_S19 12/27/2016 02:05:00 0.0136
2016_12_27_S19 12/27/2016 02:10:00 0.024
2016_12_27_S19 12/27/2016 02:15:00 0.1271
2016_12_27_S19 12/27/2016 02:20:00 0.0747
2016_12_27_S19 12/27/2016 02:25:00 0.1156
2016_12_27_S19 12/27/2016 02:30:00 0.1198
2016_12_27_S19 12/27/2016 02:35:00 0.1467
2016_12_27_S19 12/27/2016 02:40:00 0.3421
2016_12_27_S19 12/27/2016 02:45:00 0.2855
2016_12_27_S19 12/27/2016 02:50:00 0.6137
2016_12_27_S19 12/27/2016 02:55:00 0.421
2016_12_27_S19 12/27/2016 03:00:00 0.7014
2016_12_27_S19 12/27/2016 03:05:00 0.4937
2016_12_27_S19 12/27/2016 03:10:00 0.3918
2016_12_27_S19 12/27/2016 03:15:00 0.8073
2016_12_27_S19 12/27/2016 03:20:00 1.0852
2016_12_27_S19 12/27/2016 03:25:00 0.4807
2016_12_27_S19 12/27/2016 03:30:00 0.7578
2016_12_27_S19 12/27/2016 03:35:00 0.4338
2016_12_27_S19 12/27/2016 03:40:00 0.3252
2016_12_27_S19 12/27/2016 03:45:00 0.1878
2016_12_27_S19 12/27/2016 03:50:00 0.176
2016_12_27_S19 12/27/2016 03:55:00 0.3728
2016_12_27_S19 12/27/2016 04:00:00 0.1965
2016_12_27_S19 12/27/2016 04:05:00 0.0947
2016_12_27_S19 12/27/2016 04:10:00 0.3004
2016_12_27_S19 12/27/2016 04:15:00 0.165
2016_12_27_S19 12/27/2016 04:20:00 0.0456
2016_12_27_S19 12/27/2016 04:25:00 0.0814
2016_12_27_S19 12/27/2016 04:30:00 0.0651
2016_12_27_S19 12/27/2016 04:35:00 0.0458
2016_12_27_S19 12/27/2016 04:40:00 0.0317
2016_12_27_S19 12/27/2016 04:45:00 0.0428
2016_12_27_S19 12/27/2016 04:50:00 0.1457
2016_12_27_S19 12/27/2016 04:55:00 0.3053
2016_12_27_S19 12/27/2016 05:00:00 0.5177
2016_12_27_S19 12/27/2016 05:05:00 0.1532
2016_12_27_S19 12/27/2016 05:10:00 0.2789
2016_12_27_S19 12/27/2016 05:15:00 0.2877
2016_12_27_S19 12/27/2016 05:20:00 0.1994
2016_12_27_S19 12/27/2016 05:25:00 0.0431
2016_12_27_S19 12/27/2016 05:30:00 0.0
2016_12_27_S19 12/27/2016 05:35:00 0.0
2016_12_27_S19 12/27/2016 05:40:00 0.0
2016_12_27_S19 12/27/2016 05:45:00 0.0
2016_12_27_S19 12/27/2016 05:50:00 0.0
2016_12_27_S19 12/27/2016 05:55:00 0.0
2016_12_27_S19 12/27/2016 06:00:00 0.0
2016_12_27_S19 12/27/2016 06:05:00 0.0
2016_12_27_S19 12/27/2016 06:10:00 0.0
2016_12_27_S19 12/27/2016 06:15:00 0.0
2016_12_27_S19 12/27/2016 06:20:00 0.0
2016_12_27_S19 12/27/2016 06:25:00 0.0
2016_12_27_S19 12/27/2016 06:30:00 0.0
2016_12_27_S19 12/27/2016 06:35:00 0.0
2016_12_27_S19 12/27/2016 06:40:00 0.0076
2016_12_27_S19 12/27/2016 06:45:00 0.1911
2016_12_27_S19 12/27/2016 06:50:00 0.0
2016_12_27_S19 12/27/2016 06:55:00 0.0331
2016_12_27_S19 12/27/2016 07:00:00 0.2194
2016_12_27_S19 12/27/2016 07:05:00 0.0491
2016_12_27_S19 12/27/2016 07:10:00 0.3915
2016_12_27_S19 12/27/2016 07:15:00 0.5989
2016_12_27_S19 12/27/2016 07:20:00 0.5206
2016_12_27_S19 12/27/2016 07:25:00 0.321
2016_12_27_S19 12/27/2016 07:30:00 0.7119
2016_12_27_S19 12/27/2016 07:35:00 0.3727
2016_12_27_S19 12/27/2016 07:40:00 0.1849
2016_12_27_S19 12/27/2016 07:45:00 0.143
2016_12_27_S19 12/27/2016 07:50:00 0.9754
2016_12_27_S19 12/27/2016 07:55:00 1.0035
2016_12_27_S19 12/27/2016 08:00:00 0.6305
2016_12_27_S19 12/27/2016 08:05:00 0.6063
2016_12_27_S19 12/27/2016 08:10:00 0.7458
2016_12_27_S19 12/27/2016 08:15:00 0.4999
2016_12_27_S19 12/27/2016 08:20:00 0.4003
2016_12_27_S19 12/27/2016 08:25:00 0.2737
2016_12_27_S19 12/27/2016 08:30:00 0.0344
2016_12_27_S19 12/27/2016 08:35:00 0.1173
2016_12_27_S19 12/27/2016 08:40:00 0.5025
2016_12_27_S19 12/27/2016 08:45:00 0.9119
2016_12_27_S19 12/27/2016 08:50:00 0.7575
2016_12_27_S19 12/27/2016 08:55:00 0.3085
2016_12_27_S19 12/27/2016 09:00:00 1.5458
2016_12_27_S19 12/27/2016 09:05:00 0.3461
2016_12_27_S19 12/27/2016 09:10:00 0.4445
2016_12_27_S19 12/27/2016 09:15:00 0.4631
2016_12_27_S19 12/27/2016 09:20:00 0.6894
2016_12_27_S19 12/27/2016 09:25:00 1.0985
2016_12_27_S19 12/27/2016 09:30:00 0.1788
2016_12_27_S19 12/27/2016 09:35:00 0.1954
2016_12_27_S19 12/27/2016 09:40:00 0.3487
2016_12_27_S19 12/27/2016 09:45:00 0.3949
2016_12_27_S19 12/27/2016 09:50:00 0.1532
2016_12_27_S19 12/27/2016 09:55:00 0.0
2016_12_27_S19 12/27/2016 10:00:00 0.0469
2016_12_27_S19 12/27/2016 10:05:00 0.5999
2016_12_27_S19 12/27/2016 10:10:00 0.7014
2016_12_27_S19 12/27/2016 10:15:00 0.2315
2016_12_27_S19 12/27/2016 10:20:00 0.0729
2016_12_27_S19 12/27/2016 10:25:00 0.0921
2016_12_27_S19 12/27/2016 10:30:00 0.0369
2016_12_27_S19 12/27/2016 10:35:00 0.0254
2016_12_27_S19 12/27/2016 10:40:00 0.0261
2016_12_27_S19 12/27/2016 10:45:00 0.7288
2016_12_27_S19 12/27/2016 10:50:00 0.6013
2016_12_27_S19 12/27/2016 10:55:00 0.9123
2016_12_27_S19 12/27/2016 11:00:00 0.4784
2016_12_27_S19 12/27/2016 11:05:00 0.2181
2016_12_27_S19 12/27/2016 11:10:00 0.0771
2016_12_27_S19 12/27/2016 11:15:00 0.1916
2016_12_27_S19 12/27/2016 11:20:00 0.2641
2016_12_27_S19 12/27/2016 11:25:00 0.6456
2016_12_27_S19 12/27/2016 11:30:00 0.4817
2016_12_27_S19 12/27/2016 11:35:00 0.611
2016_12_27_S19 12/27/2016 11:40:00 0.9597
2016_12_27_S19 12/27/2016 11:45:00 0.6073
2016_12_27_S19 12/27/2016 11:50:00 1.467
2016_12_27_S19 12/27/2016 11:55:00 0.5955
2016_12_27_S19 12/27/2016 12:00:00 0.3556
2016_12_27_S19 12/27/2016 12:05:00 0.629
2016_12_27_S19 12/27/2016 12:10:00 0.1572
2016_12_27_S19 12/27/2016 12:15:00 0.339
2016_12_27_S19 12/27/2016 12:20:00 0.2188
2016_12_27_S19 12/27/2016 12:25:00 0.129
2016_12_27_S19 12/27/2016 12:30:00 0.23
2016_12_27_S19 12/27/2016 12:35:00 0.0466
2016_12_27_S19 12/27/2016 12:40:00 0.0573
2016_12_27_S19 12/27/2016 12:45:00 0.0178
2016_12_27_S19 12/27/2016 12:50:00 0.0109
2016_12_27_S19 12/27/2016 12:55:00 0.0041
2016_12_27_S19 12/27/2016 13:00:00 0.0785
2016_12_27_S19 12/27/2016 13:05:00 0.0143
2016_12_27_S19 12/27/2016 13:10:00 0.0
2016_12_27_S19 12/27/2016 13:15:00 0.0
2016_12_27_S19 12/27/2016 13:20:00 0.0
2016_12_27_S19 12/27/2016 13:25:00 0.0009
2016_12_27_S19 12/27/2016 13:30:00 0.0928
2016_12_27_S19 12/27/2016 13:35:00 0.1653
2016_12_27_S19 12/27/2016 13:40:00 0.2178
2016_12_27_S19 12/27/2016 13:45:00 0.14
2016_12_27_S19 12/27/2016 13:50:00 0.1514
2016_12_27_S19 12/27/2016 13:55:00 0.0154
2016_12_27_S19 12/27/2016 14:00:00 0.0845
2016_12_27_S19 12/27/2016 14:05:00 0.083
2016_12_27_S19 12/27/2016 14:10:00 0.0336
2016_12_27_S19 12/27/2016 14:15:00 0.0
2016_12_27_S19 12/27/2016 14:20:00 0.014
2016_12_27_S19 12/27/2016 14:25:00 0.0197
2016_12_27_S19 12/27/2016 14:30:00 0.0131
2016_12_27_S19 12/27/2016 14:35:00 0.0
2016_12_27_S19 12/27/2016 14:40:00 0.0
2016_12_27_S19 12/27/2016 14:45:00 0.0
2016_12_27_S19 12/27/2016 14:50:00 0.0
2016_12_27_S19 12/27/2016 14:55:00 0.0
2016_12_27_S19 12/27/2016 15:00:00 0.0
2016_12_27_S19 12/27/2016 15:05:00 0.0
2016_12_27_S19 12/27/2016 15:10:00 0.0
2016_12_27_S19 12/27/2016 15:15:00 0.0
2016_12_27_S19 12/27/2016 15:20:00 0.0012
2016_12_27_S19 12/27/2016 15:25:00 0.0039
2016_12_27_S19 12/27/2016 15:30:00 0.0
2016_12_27_S19 12/27/2016 15:35:00 0.0
2016_12_27_S19 12/27/2016 15:40:00 0.0
2016_12_27_S19 12/27/2016 15:45:00 0.0
2016_12_27_S19 12/27/2016 15:50:00 0.0
2016_12_27_S19 12/27/2016 15:55:00 0.0
2016_12_27_S19 12/27/2016 16:00:00 0.0973
2016_12_27_S19 12/27/2016 16:05:00 0.0547
2016_12_27_S19 12/27/2016 16:10:00 0.0
2016_12_27_S19 12/27/2016 16:15:00 0.0031
2016_12_27_S19 12/27/2016 16:20:00 0.0026
2016_12_27_S19 12/27/2016 16:25:00 0.0
2016_12_27_S19 12/27/2016 16:30:00 0.0
2016_12_27_S19 12/27/2016 16:35:00 0.0
2016_12_27_S19 12/27/2016 16:40:00 0.1604
2016_12_27_S19 12/27/2016 16:45:00 0.0
2016_12_27_S19 12/27/2016 16:50:00 0.0
2016_12_27_S19 12/27/2016 16:55:00 0.0
2016_12_27_S19 12/27/2016 17:00:00 0.0
2016_12_27_S19 12/27/2016 17:05:00 0.0
2016_12_27_S19 12/27/2016 17:10:00 0.0
2016_12_27_S19 12/27/2016 17:15:00 0.0
2016_12_27_S19 12/27/2016 17:20:00 0.0
2016_12_27_S19 12/27/2016 17:25:00 0.0
2016_12_27_S19 12/27/2016 17:30:00 0.0
2016_12_27_S19 12/27/2016 17:35:00 0.0
2016_12_27_S19 12/27/2016 17:40:00 0.0284
2016_12_27_S19 12/27/2016 17:45:00 0.1421
2016_12_27_S19 12/27/2016 17:50:00 0.0899
2016_12_27_S19 12/27/2016 17:55:00 0.0204
2016_12_27_S19 12/27/2016 18:00:00 0.0008
2016_12_27_S19 12/27/2016 18:05:00 0.0
2016_12_27_S19 12/27/2016 18:10:00 0.0
2016_12_27_S19 12/27/2016 18:15:00 0.0
2016_12_27_S19 12/27/2016 18:20:00 0.0037
2016_12_27_S19 12/27/2016 18:25:00 5.2735
2016_12_27_S19 12/27/2016 18:30:00 0.0305
2016_12_27_S19 12/27/2016 18:35:00 0.0411
2016_12_27_S19 12/27/2016 18:40:00 0.0285
2016_12_27_S19 12/27/2016 18:45:00 0.0
2016_12_27_S19 12/27/2016 18:50:00 0.0
2016_12_27_S19 12/27/2016 18:55:00 0.0
2016_12_27_S19 12/27/2016 19:00:00 0.0
2016_12_27_S19 12/27/2016 19:05:00 0.0
2016_12_27_S19 12/27/2016 19:10:00 0.0522
2016_12_27_S19 12/27/2016 19:15:00 0.3945
2016_12_27_S19 12/27/2016 19:20:00 0.0
2016_12_27_S19 12/27/2016 19:25:00 0.0
2016_12_27_S19 12/27/2016 19:30:00 0.0098
2016_12_27_S19 12/27/2016 19:35:00 0.2172
2016_12_27_S19 12/27/2016 19:40:00 0.5159
2016_12_27_S19 12/27/2016 19:45:00 2.7593
2016_12_27_S19 12/27/2016 19:50:00 2.8055
2016_12_27_S19 12/27/2016 19:55:00 1.7812
2016_12_27_S19 12/27/2016 20:00:00 0.1343
2016_12_27_S19 12/27/2016 20:05:00 0.0066
2016_12_27_S19 12/27/2016 20:10:00 0.0
2016_12_27_S19 12/27/2016 20:15:00 0.0
2016_12_27_S19 12/27/2016 20:20:00 0.0
2016_12_27_S19 12/27/2016 20:25:00 0.001
2016_12_27_S19 12/27/2016 20:30:00 0.0
2016_12_27_S19 12/27/2016 20:35:00 0.0013
2016_12_27_S19 12/27/2016 20:40:00 0.0
2016_12_27_S19 12/27/2016 20:45:00 0.0
2016_12_27_S19 12/27/2016 20:50:00 0.0
2016_12_27_S19 12/27/2016 20:55:00 0.0
2016_12_27_S19 12/27/2016 21:00:00 0.0
2016_12_27_S19 12/27/2016 21:05:00 0.0
2016_12_27_S19 12/27/2016 21:10:00 0.0
2016_12_27_S19 12/27/2016 21:15:00 0.0
2016_12_27_S19 12/27/2016 21:20:00 0.0
2016_12_27_S19 12/27/2016 21:25:00 0.0
2016_12_27_S19 12/27/2016 21:30:00 0.0
2016_12_27_S19 12/27/2016 21:35:00 0.0
2016_12_27_S19 12/27/2016 21:40:00 0.0
2016_12_27_S19 12/27/2016 21:45:00 0.0
2016_12_27_S19 12/27/2016 21:50:00 0.0
2016_12_27_S19 12/27/2016 21:55:00 0.0
2016_12_27_S19 12/27/2016 22:00:00 0.0
2016_12_27_S19 12/27/2016 22:05:00 0.0
2016_12_27_S19 12/27/2016 22:10:00 0.0
2016_12_27_S19 12/27/2016 22:15:00 0.0155
2016_12_27_S19 12/27/2016 22:20:00 0.0
2016_12_27_S19 12/27/2016 22:25:00 0.0039
2016_12_27_S19 12/27/2016 22:30:00 0.0445
2016_12_27_S19 12/27/2016 22:35:00 0.7006
2016_12_27_S19 12/27/2016 22:40:00 0.0583
2016_12_27_S19 12/27/2016 22:45:00 0.0
2016_12_27_S19 12/27/2016 22:50:00 0.0137
2016_12_27_S19 12/27/2016 22:55:00 0.0011
2016_12_27_S19 12/27/2016 23:00:00 0.0
2016_12_27_S19 12/27/2016 23:05:00 0.0106
2016_12_27_S19 12/27/2016 23:10:00 0.0029
2016_12_27_S19 12/27/2016 23:15:00 0.0001
2016_12_27_S19 12/27/2016 23:20:00 0.0043
2016_12_27_S19 12/27/2016 23:25:00 0.0057
2016_12_27_S19 12/27/2016 23:30:00 0.0285
2016_12_27_S19 12/27/2016 23:35:00 0.0
2016_12_27_S19 12/27/2016 23:40:00 0.0
2016_12_27_S19 12/27/2016 23:45:00 0.0
2016_12_27_S19 12/27/2016 23:50:00 0.0
2016_12_27_S19 12/27/2016 23:55:00 0.0
2016_12_27_S19 12/28/2016 00:00:00 0.0
2016_12_27_S19 12/28/2016 00:05:00 0.0
2016_12_27_S19 12/28/2016 00:10:00 0.0
2016_12_27_S19 12/28/2016 00:15:00 0.0
2016_12_27_S19 12/28/2016 00:20:00 0.0
2016_12_27_S19 12/28/2016 00:25:00 0.0
2016_12_27_S19 12/28/2016 00:30:00 0.0
2016_12_27_S19 12/28/2016 00:35:00 0.0
2016_12_27_S19 12/28/2016 00:40:00 0.0
2016_12_27_S19 12/28/2016 00:45:00 0.0
2016_12_27_S19 12/28/2016 00:50:00 0.0
2016_12_27_S19 12/28/2016 00:55:00 0.0
2016_12_27_S19 12/28/2016 01:00:00 0.0
2016_12_27_S19 12/28/2016 01:05:00 0.0
2016_12_27_S19 12/28/2016 01:10:00 0.0
2016_12_27_S19 12/28/2016 01:15:00 0.0
2016_12_27_S19 12/28/2016 01:20:00 0.0
2016_12_27_S19 12/28/2016 01:25:00 0.0
2016_12_27_S19 12/28/2016 01:30:00 0.0
2016_12_27_S19 12/28/2016 01:35:00 0.0
2016_12_27_S19 12/28/2016 01:40:00 0.0
2016_12_27_S19 12/28/2016 01:45:00 0.0
2016_12_27_S19 12/28/2016 01:50:00 0.0
2016_12_27_S19 12/28/2016 01:55:00 0.0
2016_12_27_S19 12/28/2016 02:00:00 0.0
2016_12_27_S19 12/28/2016 02:05:00 0.0
2016_12_27_S19 12/28/2016 02:10:00 0.0
2016_12_27_S19 12/28/2016 02:15:00 0.0
2016_12_27_S19 12/28/2016 02:20:00 0.0
2016_12_27_S19 12/28/2016 02:25:00 0.0
2016_12_27_S19 12/28/2016 02:30:00 0.0
2016_12_27_S19 12/28/2016 02:35:00 0.0
2016_12_27_S19 12/28/2016 02:40:00 0.0
2016_12_27_S19 12/28/2016 02:45:00 0.0
2016_12_27_S19 12/28/2016 02:50:00 0.0
2016_12_27_S19 12/28/2016 02:55:00 0.0
2016_12_27_S19 12/28/2016 03:00:00 0.0
2016_12_27_S19 12/28/2016 03:05:00 0.0
2016_12_27_S19 12/28/2016 03:10:00 0.0
2016_12_27_S19 12/28/2016 03:15:00 0.0
2016_12_27_S19 12/28/2016 03:20:00 0.0
2016_12_27_S19 12/28/2016 03:25:00 0.0
2016_12_27_S19 12/28/2016 03:30:00 0.0
2016_12_27_S19 12/28/2016 03:35:00 0.0
2016_12_27_S19 12/28/2016 03:40:00 0.0
2016_12_27_S19 12/28/2016 03:45:00 0.0
2016_12_27_S19 12/28/2016 03:50:00 0.0
2016_12_27_S19 12/28/2016 03:55:00 0.0
2016_12_27_S19 12/28/2016 04:00:00 0.0
2016_12_27_S19 12/28/2016 04:05:00 0.0
2016_12_27_S19 12/28/2016 04:10:00 0.0
2016_12_27_S19 12/28/2016 04:15:00 0.0
2016_12_27_S19 12/28/2016 04:20:00 0.0
2016_12_27_S19 12/28/2016 04:25:00 0.0
2016_12_27_S19 12/28/2016 04:30:00 0.0
2016_12_27_S19 12/28/2016 04:35:00 0.0
2016_12_27_S19 12/28/2016 04:40:00 0.0
2016_12_27_S19 12/28/2016 04:45:00 0.0
2016_12_27_S19 12/28/2016 04:50:00 0.0
2016_12_27_S19 12/28/2016 04:55:00 0.0
2016_12_27_S19 12/28/2016 05:00:00 0.0
2016_12_27_S19 12/28/2016 05:05:00 0.0
2016_12_27_S19 12/28/2016 05:10:00 0.0
2016_12_27_S19 12/28/2016 05:15:00 0.0
2016_12_27_S19 12/28/2016 05:20:00 0.0
2016_12_27_S19 12/28/2016 05:25:00 0.0
2016_12_27_S19 12/28/2016 05:30:00 0.0
2016_12_27_S19 12/28/2016 05:35:00 0.0
2016_12_27_S19 12/28/2016 05:40:00 0.0
2016_12_27_S19 12/28/2016 05:45:00 0.0
2016_12_27_S19 12/28/2016 05:50:00 0.0
2016_12_27_S19 12/28/2016 05:55:00 0.0
2016_12_27_S19 12/28/2016 06:00:00 0.0
2016_12_27_S19 12/28/2016 06:05:00 0.0
2016_12_27_S19 12/28/2016 06:10:00 0.0
2016_12_27_S19 12/28/2016 06:15:00 0.0
2016_12_27_S19 12/28/2016 06:20:00 0.0
2016_12_27_S19 12/28/2016 06:25:00 0.0
2016_12_27_S19 12/28/2016 06:30:00 0.0
2016_12_27_S19 12/28/2016 06:35:00 0.0
2016_12_27_S19 12/28/2016 06:40:00 0.0
2016_12_27_S19 12/28/2016 06:45:00 0.0
2016_12_27_S19 12/28/2016 06:50:00 0.0
2016_12_27_S19 12/28/2016 06:55:00 0.0
2016_12_27_S19 12/28/2016 07:00:00 0.0
2016_12_27_S19 12/28/2016 07:05:00 0.0
2016_12_27_S19 12/28/2016 07:10:00 0.0
2016_12_27_S19 12/28/2016 07:15:00 0.0
2016_12_27_S19 12/28/2016 07:20:00 0.0
2016_12_27_S19 12/28/2016 07:25:00 0.0
2016_12_27_S19 12/28/2016 07:30:00 0.0
2016_12_27_S19 12/28/2016 07:35:00 0.0
2016_12_27_S19 12/28/2016 07:40:00 0.0
2016_12_27_S19 12/28/2016 07:45:00 0.0
2016_12_27_S19 12/28/2016 07:50:00 0.0
2016_12_27_S19 12/28/2016 07:55:00 0.0
2016_12_27_S19 12/28/2016 08:00:00 0.0

2016_12_27_S20 12/26/2016 08:00:00 0.0
2016_12_27_S20 12/26/2016 08:05:00 0.0
2016_12_27_S20 12/26/2016 08:10:00 0.0
2016_12_27_S20 12/26/2016 08:15:00 0.0
2016_12_27_S20 12/26/2016 08:20:00 0.0
2016_12_27_S20 12/26/2016 08:25:00 0.0
2016_12_27_S20 12/26/2016 08:30:00 0.0
2016_12_27_S20 12/26/2016 08:35:00 0.0
2016_12_27_S20 12/26/2016 08:40:00 0.0
2016_12_27_S20 12/26/2016 08:45:00 0.0
2016_12_27_S20 12/26/2016 08:50:00 0.0
2016_12_27_S20 12/26/2016 08:55:00 0.0
2016_12_27_S20 12/26/2016 09:00:00 0.0
2016_12_27_S20 12/26/2016 09:05:00 0.0
2016_12_27_S20 12/26/2016 09:10:00 0.0307
2016_12_27_S20 12/26/2016 09:15:00 0.0269
2016_12_27_S20 12/26/2016 09:20:00 0.024
2016_12_27_S20 12/26/2016 09:25:00 0.0273
2016_12_27_S20 12/26/2016 09:30:00 0.0
2016_12_27_S20 12/26/2016 09:35:00 0.0
2016_12_27_S20 12/26/2016 09:40:00 0.0
2016_12_27_S20 12/26/2016 09:45:00 0.0
2016_12_27_S20 12/26/2016 09:50:00 0.0
2016_12_27_S20 12/26/2016 09:55:00 0.0
2016_12_27_S20 12/26/2016 10:00:00 0.0
2016_12_27_S20 12/26/2016 10:05:00 0.0
2016_12_27_S20 12/26/2016 10:10:00 0.0
2016_12_27_S20 12/26/2016 10:15:00 0.0
2016_12_27_S20 12/26/2016 10:20:00 0.0033
2016_12_27_S20 12/26/2016 10:25:00 0.0
2016_12_27_S20 12/26/2016 10:30:00 0.0
2016_12_27_S20 12/26/2016 10:35:00 0.0
2016_12_27_S20 12/26/2016 10:40:00 0.0
2016_12_27_S20 12/26/2016 10:45:00 0.0
2016_12_27_S20 12/26/2016 10:50:00 0.0
2016_12_27_S20 12/26/2016 10:55:00 0.0
2016_12_27_S20 12/26/2016 11:00:00 0.0
2016_12_27_S20 12/26/2016 11:05:00 0.0
2016_12_27_S20 12/26/2016 11:10:00 0.0
2016_12_27_S20 12/26/2016 11:15:00 0.0
2016_12_27_S20 12/26/2016 11:20:00 0.0
2016_12_27_S20 12/26/2016 11:25:00 0.0
2016_12_27_S20 12/26/2016 11:30:00 0.0
2016_12_27_S20 12/26/2016 11:35:00 0.0
2016_12_27_S20 12/26/2016 11:40:00 0.0
2016_12_27_S20 12/26/2016 11:45:00 0.0
2016_12_27_S20 12/26/2016 11:50:00 0.0
2016_12_27_S20 12/26/2016 11:55:00 0.0
2016_12_27_S20 12/26/2016 12:00:00 0.1448
2016_12_27_S20 12/26/2016 12:05:00 0.1635
2016_12_27_S20 12/26/2016 12:10:00 0.1113
2016_12_27_S20 12/26/2016 12:15:00 0.0194
2016_12_27_S20 12/26/2016 12:20:00 0.0
2016_12_27_S20 12/26/2016 12:25:00 0.0
2016_12_27_S20 12/26/2016 12:30:00 0.0
2016_12_27_S20 12/26/2016 12:35:00 0.0019
2016_12_27_S20 12/26/2016 12:40:00 0.0396
2016_12_27_S20 12/26/2016 12:45:00 0.0956
2016_12_27_S20 12/26/2016 12:50:00 0.0
2016_12_27_S20 12/26/2016 12:55:00 0.0
2016_12_27_S20 12/26/2016 13:00:00 0.0
2016_12_27_S20 12/26/2016 13:05:00 0.0
2016_12_27_S20 12/26/2016 13:10:00 0.0
2016_12_27_S20 12/26/2016 13:15:00 0.0
2016_12_27_S20 12/26/2016 13:20:00 0.0
2016_12_27_S20 12/26/2016 13:25:00 0.0
2016_12_27_S20 12/26/2016 13:30:00 0.0
2016_12_27_S20 12/26/2016 13:35:00 0.0
2016_12_27_S20 12/26/2016 13:40:00 0.0
2016_12_27_S20 12/26/2016 13:45:00 0.0
2016_12_27_S20 12/26/2016 13:50:00 0.0
2016_12_27_S20 12/26/2016 13:55:00 0.0
2016_12_27_S20 12/26/2016 14:00:00 0.0
2016_12_27_S20 12/26/2016 14:05:00 0.0
2016_12_27_S20 12/26/2016 14:10:00 0.0
2016_12_27_S20 12/26/2016 14:15:00 0.0
2016_12_27_S20 12/26/2016 14:20:00 0.0
2016_12_27_S20 12/26/2016 14:25:00 0.0
2016_12_27_S20 12/26/2016 14:30:00 0.0
2016_12_27_S20 12/26/2016 14:35:00 0.0
2016_12_27_S20 12/26/2016 14:40:00 0.0
2016_12_27_S20 12/26/2016 14:45:00 0.0
2016_12_27_S20 12/26/2016 14:50:00 0.0
2016_12_27_S20 12/26/2016 14:55:00 0.0
2016_12_27_S20 12/26/2016 15:00:00 0.0
2016_12_27_S20 12/26/2016 15:05:00 0.0
2016_12_27_S20 12/26/2016 15:10:00 0.0
2016_12_27_S20 12/26/2016 15:15:00 0.0
2016_12_27_S20 12/26/2016 15:20:00 0.0
2016_12_27_S20 12/26/2016 15:25:00 0.0
2016_12_27_S20 12/26/2016 15:30:00 0.0
2016_12_27_S20 12/26/2016 15:35:00 0.0
2016_12_27_S20 12/26/2016 15:40:00 0.0
2016_12_27_S20 12/26/2016 15:45:00 0.0
2016_12_27_S20 12/26/2016 15:50:00 0.0
2016_12_27_S20 12/26/2016 15:55:00 0.0
2016_12_27_S20 12/26/2016 16:00:00 0.0
2016_12_27_S20 12/26/2016 16:05:00 0.0
2016_12_27_S20 12/26/2016 16:10:00 0.0
2016_12_27_S20 12/26/2016 16:15:00 0.0
2016_12_27_S20 12/26/2016 16:20:00 0.0
2016_12_27_S20 12/26/2016 16:25:00 0.0
2016_12_27_S20 12/26/2016 16:30:00 0.0
2016_12_27_S20 12/26/2016 16:35:00 0.0
2016_12_27_S20 12/26/2016 16:40:00 0.0
2016_12_27_S20 12/26/2016 16:45:00 0.0
2016_12_27_S20 12/26/2016 16:50:00 0.0
2016_12_27_S20 12/26/2016 16:55:00 0.0
2016_12_27_S20 12/26/2016 17:00:00 0.0
2016_12_27_S20 12/26/2016 17:05:00 0.0
2016_12_27_S20 12/26/2016 17:10:00 0.0
2016_12_27_S20 12/26/2016 17:15:00 0.0
2016_12_27_S20 12/26/2016 17:20:00 0.0
2016_12_27_S20 12/26/2016 17:25:00 0.0
2016_12_27_S20 12/26/2016 17:30:00 0.0
2016_12_27_S20 12/26/2016 17:35:00 0.0
2016_12_27_S20 12/26/2016 17:40:00 0.0
2016_12_27_S20 12/26/2016 17:45:00 0.0
2016_12_27_S20 12/26/2016 17:50:00 0.0
2016_12_27_S20 12/26/2016 17:55:00 0.0
2016_12_27_S20 12/26/2016 18:00:00 0.0
2016_12_27_S20 12/26/2016 18:05:00 0.0
2016_12_27_S20 12/26/2016 18:10:00 0.0
2016_12_27_S20 12/26/2016 18:15:00 0.0
2016_12_27_S20 12/26/2016 18:20:00 0.0
2016_12_27_S20 12/26/2016 18:25:00 0.0
2016_12_27_S20 12/26/2016 18:30:00 0.0
2016_12_27_S20 12/26/2016 18:35:00 0.0
2016_12_27_S20 12/26/2016 18:40:00 0.0
2016_12_27_S20 12/26/2016 18:45:00 0.0
2016_12_27_S20 12/26/2016 18:50:00 0.0
2016_12_27_S20 12/26/2016 18:55:00 0.0
2016_12_27_S20 12/26/2016 19:00:00 0.0
2016_12_27_S20 12/26/2016 19:05:00 0.0
2016_12_27_S20 12/26/2016 19:10:00 0.0
2016_12_27_S20 12/26/2016 19:15:00 0.0
2016_12_27_S20 12/26/2016 19:20:00 0.0
2016_12_27_S20 12/26/2016 19:25:00 0.0
2016_12_27_S20 12/26/2016 19:30:00 0.0
2016_12_27_S20 12/26/2016 19:35:00 0.0
2016_12_27_S20 12/26/2016 19:40:00 0.0
2016_12_27_S20 12/26/2016 19:45:00 0.0
2016_12_27_S20 12/26/2016 19:50:00 0.0
2016_12_27_S20 12/26/2016 19:55:00 0.0
2016_12_27_S20 12/26/2016 20:00:00 0.0
2016_12_27_S20 12/26/2016 20:05:00 0.0
2016_12_27_S20 12/26/2016 20:10:00 0.0
2016_12_27_S20 12/26/2016 20:15:00 0.0
2016_12_27_S20 12/26/2016 20:20:00 0.0
2016_12_27_S20 12/26/2016 20:25:00 0.0
2016_12_27_S20 12/26/2016 20:30:00 0.0
2016_12_27_S20 12/26/2016 20:35:00 0.0
2016_12_27_S20 12/26/2016 20:40:00 0.0
2016_12_27_S20 12/26/2016 20:45:00 0.0
2016_12_27_S20 12/26/2016 20:50:00 0.0
2016_12_27_S20 12/26/2016 20:55:00 0.0
2016_12_27_S20 12/26/2016 21:00:00 0.0
2016_12_27_S20 12/26/2016 21:05:00 0.0
2016_12_27_S20 12/26/2016 21:10:00 0.0
2016_12_27_S20 12/26/2016 21:15:00 0.0
2016_12_27_S20 12/26/2016 21:20:00 0.0
2016_12_27_S20 12/26/2016 21:25:00 0.0
2016_12_27_S20 12/26/2016 21:30:00 0.0
2016_12_27_S20 12/26/2016 21:35:00 0.0
2016_12_27_S20 12/26/2016 21:40:00 0.0
2016_12_27_S20 12/26/2016 21:45:00 0.0
2016_12_27_S20 12/26/2016 21:50:00 0.0
2016_12_27_S20 12/26/2016 21:55:00 0.0
2016_12_27_S20 12/26/2016 22:00:00 0.0
2016_12_27_S20 12/26/2016 22:05:00 0.0
2016_12_27_S20 12/26/2016 22:10:00 0.0
2016_12_27_S20 12/26/2016 22:15:00 0.0
2016_12_27_S20 12/26/2016 22:20:00 0.0
2016_12_27_S20 12/26/2016 22:25:00 0.0
2016_12_27_S20 12/26/2016 22:30:00 0.0
2016_12_27_S20 12/26/2016 22:35:00 0.0
2016_12_27_S20 12/26/2016 22:40:00 0.0
2016_12_27_S20 12/26/2016 22:45:00 0.0
2016_12_27_S20 12/26/2016 22:50:00 0.0
2016_12_27_S20 12/26/2016 22:55:00 0.0
2016_12_27_S20 12/26/2016 23:00:00 0.0
2016_12_27_S20 12/26/2016 23:05:00 0.0
2016_12_27_S20 12/26/2016 23:10:00 0.0
2016_12_27_S20 12/26/2016 23:15:00 0.0
2016_12_27_S20 12/26/2016 23:20:00 0.0
2016_12_27_S20 12/26/2016 23:25:00 0.0
2016_12_27_S20 12/26/2016 23:30:00 0.0
2016_12_27_S20 12/26/2016 23:35:00 0.0
2016_12_27_S20 12/26/2016 23:40:00 0.0
2016_12_27_S20 12/26/2016 23:45:00 0.0
2016_12_27_S20 12/26/2016 23:50:00 0.0
2016_12_27_S20 12/26/2016 23:55:00 0.0
2016_12_27_S20 12/27/2016 00:00:00 0.0
2016_12_27_S20 12/27/2016 00:05:00 0.0
2016_12_27_S20 12/27/2016 00:10:00 0.0
2016_12_27_S20 12/27/2016 00:15:00 0.0
2016_12_27_S20 12/27/2016 00:20:00 0.0
2016_12_27_S20 12/27/2016 00:25:00 0.0
2016_12_27_S20 12/27/2016 00:30:00 0.0
2016_12_27_S20 12/27/2016 00:35:00 0.0
2016_12_27_S20 12/27/2016 00:40:00 0.0
2016_12_27_S20 12/27/2016 00:45:00 0.0
2016_12_27_S20 12/27/2016 00:50:00 0.0
2016_12_27_S20 12/27/2016 00:55:00 0.0
2016_12_27_S20 12/27/2016 01:00:00 0.0019
2016_12_27_S20 12/27/2016 01:05:00 0.0
2016_12_27_S20 12/27/2016 01:10:00 0.0
2016_12_27_S20 12/27/2016 01:15:00 0.0132
2016_12_27_S20 12/27/2016 01:20:00 0.0094
2016_12_27_S20 12/27/2016 01:25:00 0.0553
2016_12_27_S20 12/27/2016 01:30:00 0.1519
2016_12_27_S20 12/27/2016 01:35:00 1.0043
2016_12_27_S20 12/27/2016 01:40:00 0.2742
2016_12_27_S20 12/27/2016 01:45:00 1.0387
2016_12_27_S20 12/27/2016 01:50:00 1.851
2016_12_27_S20 12/27/2016 01:55:00 0.7344
2016_12_27_S20 12/27/2016 02:00:00 0.0562
2016_12_27_S20 12/27/2016 02:05:00 0.0173
2016_12_27_S20 12/27/2016 02:10:00 0.0241
2016_12_27_S20 12/27/2016 02:15:00 0.1325
2016_12_27_S20 12/27/2016 02:20:00 0.1174
2016_12_27_S20 12/27/2016 02:25:00 0.0931
2016_12_27_S20 12/27/2016 02:30:00 0.163
2016_12_27_S20 12/27/2016 02:35:00 0.1439
2016_12_27_S20 12/27/2016 02:40:00 0.2992
2016_12_27_S20 12/27/2016 02:45:00 0.234
2016_12_27_S20 12/27/2016 02:50:00 0.5352
2016_12_27_S20 12/27/2016 02:55:00 0.3695
2016_12_27_S20 12/27/2016 03:00:00 0.5738
2016_12_27_S20 12/27/2016 03:05:00 0.4213
2016_12_27_S20 12/27/2016 03:10:00 0.355
2016_12_27_S20 12/27/2016 03:15:00 0.6863
2016_12_27_S20 12/27/2016 03:20:00 1.1754
2016_12_27_S20 12/27/2016 03:25:00 0.6258
2016_12_27_S20 12/27/2016 03:30:00 0.8492
2016_12_27_S20 12/27/2016 03:35:00 0.4045
2016_12_27_S20 12/27/2016 03:40:00 0.3359
2016_12_27_S20 12/27/2016 03:45:00 0.1747
2016_12_27_S20 12/27/2016 03:50:00 0.1658
2016_12_27_S20 12/27/2016 03:55:00 0.4325
2016_12_27_S20 12/27/2016 04:00:00 0.1888
2016_12_27_S20 12/27/2016 04:05:00 0.1052
2016_12_27_S20 12/27/2016 04:10:00 0.2834
2016_12_27_S20 12/27/2016 04:15:00 0.1326
2016_12_27_S20 12/27/2016 04:20:00 0.0377
2016_12_27_S20 12/27/2016 04:25:00 0.0732
2016_12_27_S20 12/27/2016 04:30:00 0.0404
2016_12_27_S20 12/27/2016 04:35:00 0.0581
2016_12_27_S20 12/27/2016 04:40:00 0.0328
2016_12_27_S20 12/27/2016 04:45:00 0.0411
2016_12_27_S20 12/27/2016 04:50:00 0.1404
2016_12_27_S20 12/27/2016 04:55:00 0.3578
2016_12_27_S20 12/27/2016 05:00:00 0.3325
2016_12_27_S20 12/27/2016 05:05:00 0.1716
2016_12_27_S20 12/27/2016 05:10:00 0.2433
2016_12_27_S20 12/27/2016 05:15:00 0.2396
2016_12_27_S20 12/27/2016 05:20:00 0.1978
2016_12_27_S20 12/27/2016 05:25:00 0.0386
2016_12_27_S20 12/27/2016 05:30:00 0.0
2016_12_27_S20 12/27/2016 05:35:00 0.0
2016_12_27_S20 12/27/2016 05:40:00 0.0
2016_12_27_S20 12/27/2016 05:45:00 0.0
2016_12_27_S20 12/27/2016 05:50:00 0.0
2016_12_27_S20 12/27/2016 05:55:00 0.0
2016_12_27_S20 12/27/2016 06:00:00 0.0
2016_12_27_S20 12/27/2016 06:05:00 0.0
2016_12_27_S20 12/27/2016 06:10:00 0.0
2016_12_27_S20 12/27/2016 06:15:00 0.0
2016_12_27_S20 12/27/2016 06:20:00 0.0
2016_12_27_S20 12/27/2016 06:25:00 0.0
2016_12_27_S20 12/27/2016 06:30:00 0.0
2016_12_27_S20 12/27/2016 06:35:00 0.0
2016_12_27_S20 12/27/2016 06:40:00 0.0053
2016_12_27_S20 12/27/2016 06:45:00 0.1307
2016_12_27_S20 12/27/2016 06:50:00 0.0006
2016_12_27_S20 12/27/2016 06:55:00 0.0269
2016_12_27_S20 12/27/2016 07:00:00 0.2209
2016_12_27_S20 12/27/2016 07:05:00 0.0809
2016_12_27_S20 12/27/2016 07:10:00 0.3963
2016_12_27_S20 12/27/2016 07:15:00 0.5238
2016_12_27_S20 12/27/2016 07:20:00 0.4892
2016_12_27_S20 12/27/2016 07:25:00 0.3224
2016_12_27_S20 12/27/2016 07:30:00 0.6917
2016_12_27_S20 12/27/2016 07:35:00 0.3606
2016_12_27_S20 12/27/2016 07:40:00 0.1707
2016_12_27_S20 12/27/2016 07:45:00 0.2566
2016_12_27_S20 12/27/2016 07:50:00 1.0213
2016_12_27_S20 12/27/2016 07:55:00 1.0963
2016_12_27_S20 12/27/2016 08:00:00 0.676
2016_12_27_S20 12/27/2016 08:05:00 0.4252
2016_12_27_S20 12/27/2016 08:10:00 0.5631
2016_12_27_S20 12/27/2016 08:15:00 0.4063
2016_12_27_S20 12/27/2016 08:20:00 0.4
2016_12_27_S20 12/27/2016 08:25:00 0.319
2016_12_27_S20 12/27/2016 08:30:00 0.0403
2016_12_27_S20 12/27/2016 08:35:00 0.123
2016_12_27_S20 12/27/2016 08:40:00 0.5044
2016_12_27_S20 12/27/2016 08:45:00 1.0161
2016_12_27_S20 12/27/2016 08:50:00 0.9174
2016_12_27_S20 12/27/2016 08:55:00 0.4927
2016_12_27_S20 12/27/2016 09:00:00 1.2545
2016_12_27_S20 12/27/2016 09:05:00 0.3877
2016_12_27_S20 12/27/2016 09:10:00 0.596
2016_12_27_S20 12/27/2016 09:15:00 0.3857
2016_12_27_S20 12/27/2016 09:20:00 0.8015
2016_12_27_S20 12/27/2016 09:25:00 1.1086
2016_12_27_S20 12/27/2016 09:30:00 0.1485
2016_12_27_S20 12/27/2016 09:35:00 0.1902
2016_12_27_S20 12/27/2016 09:40:00 0.3061
2016_12_27_S20 12/27/2016 09:45:00 0.403
2016_12_27_S20 12/27/2016 09:50:00 0.1987
2016_12_27_S20 12/27/2016 09:55:00 0.0
2016_12_27_S20 12/27/2016 10:00:00 0.0297
2016_12_27_S20 12/27/2016 10:05:00 0.5191
2016_12_27_S20 12/27/2016 10:10:00 0.7468
2016_12_27_S20 12/27/2016 10:15:00 0.2292
2016_12_27_S20 12/27/2016 10:20:00 0.0704
2016_12_27_S20 12/27/2016 10:25:00 0.106
2016_12_27_S20 12/27/2016 10:30:00 0.0322
2016_12_27_S20 12/27/2016 10:35:00 0.032
2016_12_27_S20 12/27/2016 10:40:00 0.0176
2016_12_27_S20 12/27/2016 10:45:00 0.7289
2016_12_27_S20 12/27/2016 10:50:00 0.5794
2016_12_27_S20 12/27/2016 10:55:00 0.8637
2016_12_27_S20 12/27/2016 11:00:00 0.4289
2016_12_27_S20 12/27/2016 11:05:00 0.2311
2016_12_27_S20 12/27/2016 11:10:00 0.0861
2016_12_27_S20 12/27/2016 11:15:00 0.1681
2016_12_27_S20 12/27/2016 11:20:00 0.1969
2016_12_27_S20 12/27/2016 11:25:00 0.6477
2016_12_27_S20 12/27/2016 11:30:00 0.4469
2016_12_27_S20 12/27/2016 11:35:00 0.5834
2016_12_27_S20 12/27/2016 11:40:00 0.8246
2016_12_27_S20 12/27/2016 11:45:00 0.6794
2016_12_27_S20 12/27/2016 11:50:00 1.7324
2016_12_27_S20 12/27/2016 11:55:00 0.8884
2016_12_27_S20 12/27/2016 12:00:00 0.3642
2016_12_27_S20 12/27/2016 12:05:00 0.6439
2016_12_27_S20 12/27/2016 12:10:00 0.1276
2016_12_27_S20 12/27/2016 12:15:00 0.3812
2016_12_27_S20 12/27/2016 12:20:00 0.2089
2016_12_27_S20 12/27/2016 12:25:00 0.1048
2016_12_27_S20 12/27/2016 12:30:00 0.2325
2016_12_27_S20 12/27/2016 12:35:00 0.0444
2016_12_27_S20 12/27/2016 12:40:00 0.0453
2016_12_27_S20 12/27/2016 12:45:00 0.0236
2016_12_27_S20 12/27/2016 12:50:00 0.0127
2016_12_27_S20 12/27/2016 12:55:00 0.0041
2016_12_27_S20 12/27/2016 13:00:00 0.0579
2016_12_27_S20 12/27/2016 13:05:00 0.0263
2016_12_27_S20 12/27/2016 13:10:00 0.0
2016_12_27_S20 12/27/2016 13:15:00 0.0
2016_12_27_S20 12/27/2016 13:20:00 0.0
2016_12_27_S20 12/27/2016 13:25:00 0.0
2016_12_27_S20 12/27/2016 13:30:00 0.1006
2016_12_27_S20 12/27/2016 13:35:00 0.1744
2016_12_27_S20 12/27/2016 13:40:00 0.2013
2016_12_27_S20 12/27/2016 13:45:00 0.1411
2016_12_27_S20 12/27/2016 13:50:00 0.2012
2016_12_27_S20 12/27/2016 13:55:00 0.0128
2016_12_27_S20 12/27/2016 14:00:00 0.0634
2016_12_27_S20 12/27/2016 14:05:00 0.0972
2016_12_27_S20 12/27/2016 14:10:00 0.0358
2016_12_27_S20 12/27/2016 14:15:00 0.0
2016_12_27_S20 12/27/2016 14:20:00 0.013
2016_12_27_S20 12/27/2016 14:25:00 0.018
2016_12_27_S20 12/27/2016 14:30:00 0.0185
2016_12_27_S20 12/27/2016 14:35:00 0.0
2016_12_27_S20 12/27/2016 14:40:00 0.0
2016_12_27_S20 12/27/2016 14:45:00 0.0
2016_12_27_S20 12/27/2016 14:50:00 0.0
2016_12_27_S20 12/27/2016 14:55:00 0.0
2016_12_27_S20 12/27/2016 15:00:00 0.0
2016_12_27_S20 12/27/2016 15:05:00 0.0
2016_12_27_S20 12/27/2016 15:10:00 0.0
2016_12_27_S20 12/27/2016 15:15:00 0.0
2016_12_27_S20 12/27/2016 15:20:00 0.0008
2016_12_27_S20 12/27/2016 15:25:00 0.0031
2016_12_27_S20 12/27/2016 15:30:00 0.0
2016_12_27_S20 12/27/2016 15:35:00 0.0
2016_12_27_S20 12/27/2016 15:40:00 0.0
2016_12_27_S20 12/27/2016 15:45:00 0.0
2016_12_27_S20 12/27/2016 15:50:00 0.0
2016_12_27_S20 12/27/2016 15:55:00 0.0
2016_12_27_S20 12/27/2016 16:00:00 0.2079
2016_12_27_S20 12/27/2016 16:05:00 0.0819
2016_12_27_S20 12/27/2016 16:10:00 0.0
2016_12_27_S20 12/27/2016 16:15:00 0.001
2016_12_27_S20 12/27/2016 16:20:00 0.0087
2016_12_27_S20 12/27/2016 16:25:00 0.0007
2016_12_27_S20 12/27/2016 16:30:00 0.0
2016_12_27_S20 12/27/2016 16:35:00 0.0
2016_12_27_S20 12/27/2016 16:40:00 0.0906
2016_12_27_S20 12/27/2016 16:45:00 0.0007
2016_12_27_S20 12/27/2016 16:50:00 0.0
2016_12_27_S20 12/27/2016 16:55:00 0.0
2016_12_27_S20 12/27/2016 17:00:00 0.0
2016_12_27_S20 12/27/2016 17:05:00 0.0
2016_12_27_S20 12/27/2016 17:10:00 0.0
2016_12_27_S20 12/27/2016 17:15:00 0.0
2016_12_27_S20 12/27/2016 17:20:00 0.0
2016_12_27_S20 12/27/2016 17:25:00 0.0
2016_12_27_S20 12/27/2016 17:30:00 0.0
2016_12_27_S20 12/27/2016 17:35:00 0.0
2016_12_27_S20 12/27/2016 17:40:00 0.0288
2016_12_27_S20 12/27/2016 17:45:00 0.115
2016_12_27_S20 12/27/2016 17:50:00 0.0983
2016_12_27_S20 12/27/2016 17:55:00 0.0329
2016_12_27_S20 12/27/2016 18:00:00 0.0024
2016_12_27_S20 12/27/2016 18:05:00 0.0
2016_12_27_S20 12/27/2016 18:10:00 0.0
2016_12_27_S20 12/27/2016 18:15:00 0.0
2016_12_27_S20 12/27/2016 18:20:00 0.0132
2016_12_27_S20 12/27/2016 18:25:00 2.6187
2016_12_27_S20 12/27/2016 18:30:00 0.0236
2016_12_27_S20 12/27/2016 18:35:00 0.0318
2016_12_27_S20 12/27/2016 18:40:00 0.0222
2016_12_27_S20 12/27/2016 18:45:00 0.0
2016_12_27_S20 12/27/2016 18:50:00 0.0
2016_12_27_S20 12/27/2016 18:55:00 0.0
2016_12_27_S20 12/27/2016 19:00:00 0.0
2016_12_27_S20 12/27/2016 19:05:00 0.0
2016_12_27_S20 12/27/2016 19:10:00 0.1602
2016_12_27_S20 12/27/2016 19:15:00 0.2891
2016_12_27_S20 12/27/2016 19:20:00 0.0
2016_12_27_S20 12/27/2016 19:25:00 0.0
2016_12_27_S20 12/27/2016 19:30:00 0.0091
2016_12_27_S20 12/27/2016 19:35:00 0.2345
2016_12_27_S20 12/27/2016 19:40:00 1.2014
2016_12_27_S20 12/27/2016 19:45:00 2.6746
2016_12_27_S20 12/27/2016 19:50:00 3.1017
2016_12_27_S20 12/27/2016 19:55:00 1.2948
2016_12_27_S20 12/27/2016 20:00:00 0.1292
2016_12_27_S20 12/27/2016 20:05:00 0.0089
2016_12_27_S20 12/27/2016 20:10:00 0.0
2016_12_27_S20 12/27/2016 20:15:00 0.0
2016_12_27_S20 12/27/2016 20:20:00 0.0
2016_12_27_S20 12/27/2016 20:25:00 0.0017
2016_12_27_S20 12/27/2016 20:30:00 0.0009
2016_12_27_S20 12/27/2016 20:35:00 0.0023
2016_12_27_S20 12/27/2016 20:40:00 0.0
2016_12_27_S20 12/27/2016 20:45:00 0.0
2016_12_27_S20 12/27/2016 20:50:00 0.0
2016_12_27_S20 12/27/2016 20:55:00 0.0
2016_12_27_S20 12/27/2016 21:00:00 0.0
2016_12_27_S20 12/27/2016 21:05:00 0.0
2016_12_27_S20 12/27/2016 21:10:00 0.0
2016_12_27_S20 12/27/2016 21:15:00 0.0
2016_12_27_S20 12/27/2016 21:20:00 0.0
2016_12_27_S20 12/27/2016 21:25:00 0.0
2016_12_27_S20 12/27/2016 21:30:00 0.0
2016_12_27_S20 12/27/2016 21:35:00 0.0
2016_12_27_S20 12/27/2016 21:40:00 0.0
2016_12_27_S20 12/27/2016 21:45:00 0.0
2016_12_27_S20 12/27/2016 21:50:00 0.0
2016_12_27_S20 12/27/2016 21:55:00 0.0
2016_12_27_S20 12/27/2016 22:00:00 0.0
2016_12_27_S20 12/27/2016 22:05:00 0.0
2016_12_27_S20 12/27/2016 22:10:00 0.0049
2016_12_27_S20 12/27/2016 22:15:00 0.0334
2016_12_27_S20 12/27/2016 22:20:00 0.0
2016_12_27_S20 12/27/2016 22:25:00 0.0034
2016_12_27_S20 12/27/2016 22:30:00 0.0463
2016_12_27_S20 12/27/2016 22:35:00 0.4413
2016_12_27_S20 12/27/2016 22:40:00 0.0587
2016_12_27_S20 12/27/2016 22:45:00 0.0
2016_12_27_S20 12/27/2016 22:50:00 0.0121
2016_12_27_S20 12/27/2016 22:55:00 0.0018
2016_12_27_S20 12/27/2016 23:00:00 0.0
2016_12_27_S20 12/27/2016 23:05:00 0.0068
2016_12_27_S20 12/27/2016 23:10:00 0.0009
2016_12_27_S20 12/27/2016 23:15:00 0.0
2016_12_27_S20 12/27/2016 23:20:00 0.0016
2016_12_27_S20 12/27/2016 23:25:00 0.0094
2016_12_27_S20 12/27/2016 23:30:00 0.0283
2016_12_27_S20 12/27/2016 23:35:00 0.0006
2016_12_27_S20 12/27/2016 23:40:00 0.0
2016_12_27_S20 12/27/2016 23:45:00 0.0
2016_12_27_S20 12/27/2016 23:50:00 0.0
2016_12_27_S20 12/27/2016 23:55:00 0.0
2016_12_27_S20 12/28/2016 00:00:00 0.0
2016_12_27_S20 12/28/2016 00:05:00 0.0
2016_12_27_S20 12/28/2016 00:10:00 0.0
2016_12_27_S20 12/28/2016 00:15:00 0.0
2016_12_27_S20 12/28/2016 00:20:00 0.0
2016_12_27_S20 12/28/2016 00:25:00 0.0
2016_12_27_S20 12/28/2016 00:30:00 0.0
2016_12_27_S20 12/28/2016 00:35:00 0.0
2016_12_27_S20 12/28/2016 00:40:00 0.0
2016_12_27_S20 12/28/2016 00:45:00 0.0
2016_12_27_S20 12/28/2016 00:50:00 0.0
2016_12_27_S20 12/28/2016 00:55:00 0.0
2016_12_27_S20 12/28/2016 01:00:00 0.0
2016_12_27_S20 12/28/2016 01:05:00 0.0
2016_12_27_S20 12/28/2016 01:10:00 0.0
2016_12_27_S20 12/28/2016 01:15:00 0.0
2016_12_27_S20 12/28/2016 01:20:00 0.0
2016_12_27_S20 12/28/2016 01:25:00 0.0
2016_12_27_S20 12/28/2016 01:30:00 0.0
2016_12_27_S20 12/28/2016 01:35:00 0.0
2016_12_27_S20 12/28/2016 01:40:00 0.0
2016_12_27_S20 12/28/2016 01:45:00 0.0
2016_12_27_S20 12/28/2016 01:50:00 0.0
2016_12_27_S20 12/28/2016 01:55:00 0.0
2016_12_27_S20 12/28/2016 02:00:00 0.0
2016_12_27_S20 12/28/2016 02:05:00 0.0
2016_12_27_S20 12/28/2016 02:10:00 0.0
2016_12_27_S20 12/28/2016 02:15:00 0.0
2016_12_27_S20 12/28/2016 02:20:00 0.0
2016_12_27_S20 12/28/2016 02:25:00 0.0
2016_12_27_S20 12/28/2016 02:30:00 0.0
2016_12_27_S20 12/28/2016 02:35:00 0.0
2016_12_27_S20 12/28/2016 02:40:00 0.0
2016_12_27_S20 12/28/2016 02:45:00 0.0
2016_12_27_S20 12/28/2016 02:50:00 0.0
2016_12_27_S20 12/28/2016 02:55:00 0.0
2016_12_27_S20 12/28/2016 03:00:00 0.0
2016_12_27_S20 12/28/2016 03:05:00 0.0
2016_12_27_S20 12/28/2016 03:10:00 0.0
2016_12_27_S20 12/28/2016 03:15:00 0.0
2016_12_27_S20 12/28/2016 03:20:00 0.0
2016_12_27_S20 12/28/2016 03:25:00 0.0
2016_12_27_S20 12/28/2016 03:30:00 0.0
2016_12_27_S20 12/28/2016 03:35:00 0.0
2016_12_27_S20 12/28/2016 03:40:00 0.0
2016_12_27_S20 12/28/2016 03:45:00 0.0
2016_12_27_S20 12/28/2016 03:50:00 0.0
2016_12_27_S20 12/28/2016 03:55:00 0.0
2016_12_27_S20 12/28/2016 04:00:00 0.0
2016_12_27_S20 12/28/2016 04:05:00 0.0
2016_12_27_S20 12/28/2016 04:10:00 0.0
2016_12_27_S20 12/28/2016 04:15:00 0.0
2016_12_27_S20 12/28/2016 04:20:00 0.0
2016_12_27_S20 12/28/2016 04:25:00 0.0
2016_12_27_S20 12/28/2016 04:30:00 0.0
2016_12_27_S20 12/28/2016 04:35:00 0.0
2016_12_27_S20 12/28/2016 04:40:00 0.0
2016_12_27_S20 12/28/2016 04:45:00 0.0
2016_12_27_S20 12/28/2016 04:50:00 0.0
2016_12_27_S20 12/28/2016 04:55:00 0.0
2016_12_27_S20 12/28/2016 05:00:00 0.0
2016_12_27_S20 12/28/2016 05:05:00 0.0
2016_12_27_S20 12/28/2016 05:10:00 0.0
2016_12_27_S20 12/28/2016 05:15:00 0.0
2016_12_27_S20 12/28/2016 05:20:00 0.0
2016_12_27_S20 12/28/2016 05:25:00 0.0
2016_12_27_S20 12/28/2016 05:30:00 0.0
2016_12_27_S20 12/28/2016 05:35:00 0.0
2016_12_27_S20 12/28/2016 05:40:00 0.0
2016_12_27_S20 12/28/2016 05:45:00 0.0
2016_12_27_S20 12/28/2016 05:50:00 0.0
2016_12_27_S20 12/28/2016 05:55:00 0.0
2016_12_27_S20 12/28/2016 06:00:00 0.0
2016_12_27_S20 12/28/2016 06:05:00 0.0
2016_12_27_S20 12/28/2016 06:10:00 0.0
2016_12_27_S20 12/28/2016 06:15:00 0.0
2016_12_27_S20 12/28/2016 06:20:00 0.0
2016_12_27_S20 12/28/2016 06:25:00 0.0
2016_12_27_S20 12/28/2016 06:30:00 0.0
2016_12_27_S20 12/28/2016 06:35:00 0.0
2016_12_27_S20 12/28/2016 06:40:00 0.0
2016_12_27_S20 12/28/2016 06:45:00 0.0
2016_12_27_S20 12/28/2016 06:50:00 0.0
2016_12_27_S20 12/28/2016 06:55:00 0.0
2016_12_27_S20 12/28/2016 07:00:00 0.0
2016_12_27_S20 12/28/2016 07:05:00 0.0
2016_12_27_S20 12/28/2016 07:10:00 0.0
2016_12_27_S20 12/28/2016 07:15:00 0.0
2016_12_27_S20 12/28/2016 07:20:00 0.0
2016_12_27_S20 12/28/2016 07:25:00 0.0
2016_12_27_S20 12/28/2016 07:30:00 0.0
2016_12_27_S20 12/28/2016 07:35:00 0.0
2016_12_27_S20 12/28/2016 07:40:00 0.0
2016_12_27_S20 12/28/2016 07:45:00 0.0
2016_12_27_S20 12/28/2016 07:50:00 0.0
2016_12_27_S20 12/28/2016 07:55:00 0.0
2016_12_27_S20 12/28/2016 08:00:00 0.0

2016_12_27_S21 12/26/2016 08:00:00 0.0
2016_12_27_S21 12/26/2016 08:05:00 0.0
2016_12_27_S21 12/26/2016 08:10:00 0.0
2016_12_27_S21 12/26/2016 08:15:00 0.0
2016_12_27_S21 12/26/2016 08:20:00 0.0
2016_12_27_S21 12/26/2016 08:25:00 0.0
2016_12_27_S21 12/26/2016 08:30:00 0.0
2016_12_27_S21 12/26/2016 08:35:00 0.0
2016_12_27_S21 12/26/2016 08:40:00 0.0
2016_12_27_S21 12/26/2016 08:45:00 0.0
2016_12_27_S21 12/26/2016 08:50:00 0.0
2016_12_27_S21 12/26/2016 08:55:00 0.0
2016_12_27_S21 12/26/2016 09:00:00 0.0
2016_12_27_S21 12/26/2016 09:05:00 0.0
2016_12_27_S21 12/26/2016 09:10:00 0.0016
2016_12_27_S21 12/26/2016 09:15:00 0.0347
2016_12_27_S21 12/26/2016 09:20:00 0.0373
2016_12_27_S21 12/26/2016 09:25:00 0.0182
2016_12_27_S21 12/26/2016 09:30:00 0.0
2016_12_27_S21 12/26/2016 09:35:00 0.0
2016_12_27_S21 12/26/2016 09:40:00 0.0
2016_12_27_S21 12/26/2016 09:45:00 0.0
2016_12_27_S21 12/26/2016 09:50:00 0.0
2016_12_27_S21 12/26/2016 09:55:00 0.0
2016_12_27_S21 12/26/2016 10:00:00 0.0
2016_12_27_S21 12/26/2016 10:05:00 0.0
2016_12_27_S21 12/26/2016 10:10:00 0.0
2016_12_27_S21 12/26/2016 10:15:00 0.0
2016_12_27_S21 12/26/2016 10:20:00 0.0
2016_12_27_S21 12/26/2016 10:25:00 0.0
2016_12_27_S21 12/26/2016 10:30:00 0.0
2016_12_27_S21 12/26/2016 10:35:00 0.0
2016_12_27_S21 12/26/2016 10:40:00 0.0
2016_12_27_S21 12/26/2016 10:45:00 0.0
2016_12_27_S21 12/26/2016 10:50:00 0.0
2016_12_27_S21 12/26/2016 10:55:00 0.0046
2016_12_27_S21 12/26/2016 11:00:00 0.0005
2016_12_27_S21 12/26/2016 11:05:00 0.0
2016_12_27_S21 12/26/2016 11:10:00 0.0
2016_12_27_S21 12/26/2016 11:15:00 0.0
2016_12_27_S21 12/26/2016 11:20:00 0.0
2016_12_27_S21 12/26/2016 11:25:00 0.0
2016_12_27_S21 12/26/2016 11:30:00 0.0
2016_12_27_S21 12/26/2016 11:35:00 0.0
2016_12_27_S21 12/26/2016 11:40:00 0.0
2016_12_27_S21 12/26/2016 11:45:00 0.0
2016_12_27_S21 12/26/2016 11:50:00 0.0
2016_12_27_S21 12/26/2016 11:55:00 0.0
2016_12_27_S21 12/26/2016 12:00:00 0.0915
2016_12_27_S21 12/26/2016 12:05:00 0.1444
2016_12_27_S21 12/26/2016 12:10:00 0.1544
2016_12_27_S21 12/26/2016 12:15:00 0.0406
2016_12_27_S21 12/26/2016 12:20:00 0.0
2016_12_27_S21 12/26/2016 12:25:00 0.0
2016_12_27_S21 12/26/2016 12:30:00 0.0
2016_12_27_S21 12/26/2016 12:35:00 0.0005
2016_12_27_S21 12/26/2016 12:40:00 0.0373
2016_12_27_S21 12/26/2016 12:45:00 0.1538
2016_12_27_S21 12/26/2016 12:50:00 0.002
2016_12_27_S21 12/26/2016 12:55:00 0.0
2016_12_27_S21 12/26/2016 13:00:00 0.0
2016_12_27_S21 12/26/2016 13:05:00 0.0
2016_12_27_S21 12/26/2016 13:10:00 0.0
2016_12_27_S21 12/26/2016 13:15:00 0.0
2016_12_27_S21 12/26/2016 13:20:00 0.0
2016_12_27_S21 12/26/2016 13:25:00 0.0
2016_12_27_S21 12/26/2016 13:30:00 0.0
2016_12_27_S21 12/26/2016 13:35:00 0.0
2016_12_27_S21 12/26/2016 13:40:00 0.0
2016_12_27_S21 12/26/2016 13:45:00 0.0
2016_12_27_S21 12/26/2016 13:50:00 0.0
2016_12_27_S21 12/26/2016 13:55:00 0.0
2016_12_27_S21 12/26/2016 14:00:00 0.0
2016_12_27_S21 12/26/2016 14:05:00 0.0
2016_12_27_S21 12/26/2016 14:10:00 0.0
2016_12_27_S21 12/26/2016 14:15:00 0.0
2016_12_27_S21 12/26/2016 14:20:00 0.0
2016_12_27_S21 12/26/2016 14:25:00 0.0
2016_12_27_S21 12/26/2016 14:30:00 0.0
2016_12_27_S21 12/26/2016 14:35:00 0.0
2016_12_27_S21 12/26/2016 14:40:00 0.0
2016_12_27_S21 12/26/2016 14:45:00 0.0
2016_12_27_S21 12/26/2016 14:50:00 0.0
2016_12_27_S21 12/26/2016 14:55:00 0.0
2016_12_27_S21 12/26/2016 15:00:00 0.0
2016_12_27_S21 12/26/2016 15:05:00 0.0
2016_12_27_S21 12/26/2016 15:10:00 0.0
2016_12_27_S21 12/26/2016 15:15:00 0.0
2016_12_27_S21 12/26/2016 15:20:00 0.0
2016_12_27_S21 12/26/2016 15:25:00 0.0
2016_12_27_S21 12/26/2016 15:30:00 0.0
2016_12_27_S21 12/26/2016 15:35:00 0.0
2016_12_27_S21 12/26/2016 15:40:00 0.0
2016_12_27_S21 12/26/2016 15:45:00 0.0
2016_12_27_S21 12/26/2016 15:50:00 0.0
2016_12_27_S21 12/26/2016 15:55:00 0.0
2016_12_27_S21 12/26/2016 16:00:00 0.0
2016_12_27_S21 12/26/2016 16:05:00 0.0
2016_12_27_S21 12/26/2016 16:10:00 0.0
2016_12_27_S21 12/26/2016 16:15:00 0.0
2016_12_27_S21 12/26/2016 16:20:00 0.0
2016_12_27_S21 12/26/2016 16:25:00 0.0
2016_12_27_S21 12/26/2016 16:30:00 0.0
2016_12_27_S21 12/26/2016 16:35:00 0.0
2016_12_27_S21 12/26/2016 16:40:00 0.0
2016_12_27_S21 12/26/2016 16:45:00 0.0
2016_12_27_S21 12/26/2016 16:50:00 0.0
2016_12_27_S21 12/26/2016 16:55:00 0.0
2016_12_27_S21 12/26/2016 17:00:00 0.0
2016_12_27_S21 12/26/2016 17:05:00 0.0
2016_12_27_S21 12/26/2016 17:10:00 0.0
2016_12_27_S21 12/26/2016 17:15:00 0.0
2016_12_27_S21 12/26/2016 17:20:00 0.0
2016_12_27_S21 12/26/2016 17:25:00 0.0
2016_12_27_S21 12/26/2016 17:30:00 0.0
2016_12_27_S21 12/26/2016 17:35:00 0.0
2016_12_27_S21 12/26/2016 17:40:00 0.0
2016_12_27_S21 12/26/2016 17:45:00 0.0
2016_12_27_S21 12/26/2016 17:50:00 0.0
2016_12_27_S21 12/26/2016 17:55:00 0.0
2016_12_27_S21 12/26/2016 18:00:00 0.0
2016_12_27_S21 12/26/2016 18:05:00 0.0
2016_12_27_S21 12/26/2016 18:10:00 0.0
2016_12_27_S21 12/26/2016 18:15:00 0.0
2016_12_27_S21 12/26/2016 18:20:00 0.0
2016_12_27_S21 12/26/2016 18:25:00 0.0
2016_12_27_S21 12/26/2016 18:30:00 0.0
2016_12_27_S21 12/26/2016 18:35:00 0.0
2016_12_27_S21 12/26/2016 18:40:00 0.0
2016_12_27_S21 12/26/2016 18:45:00 0.0
2016_12_27_S21 12/26/2016 18:50:00 0.0
2016_12_27_S21 12/26/2016 18:55:00 0.0
2016_12_27_S21 12/26/2016 19:00:00 0.0
2016_12_27_S21 12/26/2016 19:05:00 0.0
2016_12_27_S21 12/26/2016 19:10:00 0.0
2016_12_27_S21 12/26/2016 19:15:00 0.0
2016_12_27_S21 12/26/2016 19:20:00 0.0
2016_12_27_S21 12/26/2016 19:25:00 0.0
2016_12_27_S21 12/26/2016 19:30:00 0.0
2016_12_27_S21 12/26/2016 19:35:00 0.0
2016_12_27_S21 12/26/2016 19:40:00 0.0
2016_12_27_S21 12/26/2016 19:45:00 0.0
2016_12_27_S21 12/26/2016 19:50:00 0.0
2016_12_27_S21 12/26/2016 19:55:00 0.0
2016_12_27_S21 12/26/2016 20:00:00 0.0
2016_12_27_S21 12/26/2016 20:05:00 0.0
2016_12_27_S21 12/26/2016 20:10:00 0.0
2016_12_27_S21 12/26/2016 20:15:00 0.0
2016_12_27_S21 12/26/2016 20:20:00 0.0
2016_12_27_S21 12/26/2016 20:25:00 0.0
2016_12_27_S21 12/26/2016 20:30:00 0.0
2016_12_27_S21 12/26/2016 20:35:00 0.0
2016_12_27_S21 12/26/2016 20:40:00 0.0
2016_12_27_S21 12/26/2016 20:45:00 0.0
2016_12_27_S21 12/26/2016 20:50:00 0.0
2016_12_27_S21 12/26/2016 20:55:00 0.0
2016_12_27_S21 12/26/2016 21:00:00 0.0
2016_12_27_S21 12/26/2016 21:05:00 0.0
2016_12_27_S21 12/26/2016 21:10:00 0.0
2016_12_27_S21 12/26/2016 21:15:00 0.0
2016_12_27_S21 12/26/2016 21:20:00 0.0
2016_12_27_S21 12/26/2016 21:25:00 0.0
2016_12_27_S21 12/26/2016 21:30:00 0.0
2016_12_27_S21 12/26/2016 21:35:00 0.0
2016_12_27_S21 12/26/2016 21:40:00 0.0
2016_12_27_S21 12/26/2016 21:45:00 0.0
2016_12_27_S21 12/26/2016 21:50:00 0.0
2016_12_27_S21 12/26/2016 21:55:00 0.0
2016_12_27_S21 12/26/2016 22:00:00 0.0
2016_12_27_S21 12/26/2016 22:05:00 0.0
2016_12_27_S21 12/26/2016 22:10:00 0.0
2016_12_27_S21 12/26/2016 22:15:00 0.0
2016_12_27_S21 12/26/2016 22:20:00 0.0
2016_12_27_S21 12/26/2016 22:25:00 0.0
2016_12_27_S21 12/26/2016 22:30:00 0.0
2016_12_27_S21 12/26/2016 22:35:00 0.0
2016_12_27_S21 12/26/2016 22:40:00 0.0
2016_12_27_S21 12/26/2016 22:45:00 0.0
2016_12_27_S21 12/26/2016 22:50:00 0.0
2016_12_27_S21 12/26/2016 22:55:00 0.0
2016_12_27_S21 12/26/2016 23:00:00 0.0
2016_12_27_S21 12/26/2016 23:05:00 0.0
2016_12_27_S21 12/26/2016 23:10:00 0.0
2016_12_27_S21 12/26/2016 23:15:00 0.0
2016_12_27_S21 12/26/2016 23:20:00 0.0
2016_12_27_S21 12/26/2016 23:25:00 0.0
2016_12_27_S21 12/26/2016 23:30:00 0.0
2016_12_27_S21 12/26/2016 23:35:00 0.0
2016_12_27_S21 12/26/2016 23:40:00 0.0
2016_12_27_S21 12/26/2016 23:45:00 0.0
2016_12_27_S21 12/26/2016 23:50:00 0.0
2016_12_27_S21 12/26/2016 23:55:00 0.0
2016_12_27_S21 12/27/2016 00:00:00 0.0
2016_12_27_S21 12/27/2016 00:05:00 0.0
2016_12_27_S21 12/27/2016 00:10:00 0.0
2016_12_27_S21 12/27/2016 00:15:00 0.0
2016_12_27_S21 12/27/2016 00:20:00 0.0
2016_12_27_S21 12/27/2016 00:25:00 0.0
2016_12_27_S21 12/27/2016 00:30:00 0.0
2016_12_27_S21 12/27/2016 00:35:00 0.0
2016_12_27_S21 12/27/2016 00:40:00 0.0
2016_12_27_S21 12/27/2016 00:45:00 0.0
2016_12_27_S21 12/27/2016 00:50:00 0.0
2016_12_27_S21 12/27/2016 00:55:00 0.0
2016_12_27_S21 12/27/2016 01:00:00 0.0033
2016_12_27_S21 12/27/2016 01:05:00 0.0
2016_12_27_S21 12/27/2016 01:10:00 0.0
2016_12_27_S21 12/27/2016 01:15:00 0.0091
2016_12_27_S21 12/27/2016 01:20:00 0.0098
2016_12_27_S21 12/27/2016 01:25:00 0.0229
2016_12_27_S21 12/27/2016 01:30:00 0.0721
2016_12_27_S21 12/27/2016 01:35:00 0.544
2016_12_27_S21 12/27/2016 01:40:00 0.2139
2016_12_27_S21 12/27/2016 01:45:00 0.4378
2016_12_27_S21 12/27/2016 01:50:00 1.3663
2016_12_27_S21 12/27/2016 01:55:00 0.5628
2016_12_27_S21 12/27/2016 02:00:00 0.1033
2016_12_27_S21 12/27/2016 02:05:00 0.0124
2016_12_27_S21 12/27/2016 02:10:00 0.0508
2016_12_27_S21 12/27/2016 02:15:00 0.1119
2016_12_27_S21 12/27/2016 02:20:00 0.1135
2016_12_27_S21 12/27/2016 02:25:00 0.0879
2016_12_27_S21 12/27/2016 02:30:00 0.183
2016_12_27_S21 12/27/2016 02:35:00 0.143
2016_12_27_S21 12/27/2016 02:40:00 0.1822
2016_12_27_S21 12/27/2016 02:45:00 0.2118
2016_12_27_S21 12/27/2016 02:50:00 0.613
2016_12_27_S21 12/27/2016 02:55:00 0.3097
2016_12_27_S21 12/27/2016 03:00:00 0.5736
2016_12_27_S21 12/27/2016 03:05:00 0.6351
2016_12_27_S21 12/27/2016 03:10:00 0.5934
2016_12_27_S21 12/27/2016 03:15:00 0.8192
2016_12_27_S21 12/27/2016 03:20:00 1.147
2016_12_27_S21 12/27/2016 03:25:00 0.5252
2016_12_27_S21 12/27/2016 03:30:00 0.7624
2016_12_27_S21 12/27/2016 03:35:00 0.6072
2016_12_27_S21 12/27/2016 03:40:00 0.5146
2016_12_27_S21 12/27/2016 03:45:00 0.1608
2016_12_27_S21 12/27/2016 03:50:00 0.2597
2016_12_27_S21 12/27/2016 03:55:00 0.4546
2016_12_27_S21 12/27/2016 04:00:00 0.2931
2016_12_27_S21 12/27/2016 04:05:00 0.0827
2016_12_27_S21 12/27/2016 04:10:00 0.2076
2016_12_27_S21 12/27/2016 04:15:00 0.1829
2016_12_27_S21 12/27/2016 04:20:00 0.0694
2016_12_27_S21 12/27/2016 04:25:00 0.0693
2016_12_27_S21 12/27/2016 04:30:00 0.0875
2016_12_27_S21 12/27/2016 04:35:00 0.0453
2016_12_27_S21 12/27/2016 04:40:00 0.0251
2016_12_27_S21 12/27/2016 04:45:00 0.0318
2016_12_27_S21 12/27/2016 04:50:00 0.0975
2016_12_27_S21 12/27/2016 04:55:00 0.3009
2016_12_27_S21 12/27/2016 05:00:00 0.4165
2016_12_27_S21 12/27/2016 05:05:00 0.2068
2016_12_27_S21 12/27/2016 05:10:00 0.1937
2016_12_27_S21 12/27/2016 05:15:00 0.256
2016_12_27_S21 12/27/2016 05:20:00 0.3023
2016_12_27_S21 12/27/2016 05:25:00 0.0815
2016_12_27_S21 12/27/2016 05:30:00 0.0037
2016_12_27_S21 12/27/2016 05:35:00 0.0
2016_12_27_S21 12/27/2016 05:40:00 0.0
2016_12_27_S21 12/27/2016 05:45:00 0.0
2016_12_27_S21 12/27/2016 05:50:00 0.0
2016_12_27_S21 12/27/2016 05:55:00 0.0
2016_12_27_S21 12/27/2016 06:00:00 0.0
2016_12_27_S21 12/27/2016 06:05:00 0.0
2016_12_27_S21 12/27/2016 06:10:00 0.0
2016_12_27_S21 12/27/2016 06:15:00 0.0
2016_12_27_S21 12/27/2016 06:20:00 0.0
2016_12_27_S21 12/27/2016 06:25:00 0.0
2016_12_27_S21 12/27/2016 06:30:00 0.0
2016_12_27_S21 12/27/2016 06:35:00 0.0
2016_12_27_S21 12/27/2016 06:40:00 0.0046
2016_12_27_S21 12/27/2016 06:45:00 0.1094
2016_12_27_S21 12/27/2016 06:50:00 0.0005
2016_12_27_S21 12/27/2016 06:55:00 0.0248
2016_12_27_S21 12/27/2016 07:00:00 0.1192
2016_12_27_S21 12/27/2016 07:05:00 0.0426
2016_12_27_S21 12/27/2016 07:10:00 0.1901
2016_12_27_S21 12/27/2016 07:15:00 0.7633
2016_12_27_S21 12/27/2016 07:20:00 0.5898
2016_12_27_S21 12/27/2016 07:25:00 0.3393
2016_12_27_S21 12/27/2016 07:30:00 0.7053
2016_12_27_S21 12/27/2016 07:35:00 0.7026
2016_12_27_S21 12/27/2016 07:40:00 0.2266
2016_12_27_S21 12/27/2016 07:45:00 0.1796
2016_12_27_S21 12/27/2016 07:50:00 0.5605
2016_12_27_S21 12/27/2016 07:55:00 1.2966
2016_12_27_S21 12/27/2016 08:00:00 0.743
2016_12_27_S21 12/27/2016 08:05:00 0.7635
2016_12_27_S21 12/27/2016 08:10:00 0.8445
2016_12_27_S21 12/27/2016 08:15:00 0.4871
2016_12_27_S21 12/27/2016 08:20:00 0.4713
2016_12_27_S21 12/27/2016 08:25:00 0.4756
2016_12_27_S21 12/27/2016 08:30:00 0.0101
2016_12_27_S21 12/27/2016 08:35:00 0.0479
2016_12_27_S21 12/27/2016 08:40:00 0.3209
2016_12_27_S21 12/27/2016 08:45:00 0.7352
2016_12_27_S21 12/27/2016 08:50:00 0.7496
2016_12_27_S21 12/27/2016 08:55:00 0.2228
2016_12_27_S21 12/27/2016 09:00:00 0.7752
2016_12_27_S21 12/27/2016 09:05:00 0.468
2016_12_27_S21 12/27/2016 09:10:00 0.2659
2016_12_27_S21 12/27/2016 09:15:00 0.2759
2016_12_27_S21 12/27/2016 09:20:00 0.5393
2016_12_27_S21 12/27/2016 09:25:00 1.0955
2016_12_27_S21 12/27/2016 09:30:00 0.3339
2016_12_27_S21 12/27/2016 09:35:00 0.2223
2016_12_27_S21 12/27/2016 09:40:00 0.4362
2016_12_27_S21 12/27/2016 09:45:00 0.3673
2016_12_27_S21 12/27/2016 09:50:00 0.2577
2016_12_27_S21 12/27/2016 09:55:00 0.0
2016_12_27_S21 12/27/2016 10:00:00 0.0483
2016_12_27_S21 12/27/2016 10:05:00 0.6193
2016_12_27_S21 12/27/2016 10:10:00 0.9318
2016_12_27_S21 12/27/2016 10:15:00 0.2279
2016_12_27_S21 12/27/2016 10:20:00 0.0815
2016_12_27_S21 12/27/2016 10:25:00 0.0961
2016_12_27_S21 12/27/2016 10:30:00 0.0366
2016_12_27_S21 12/27/2016 10:35:00 0.0181
2016_12_27_S21 12/27/2016 10:40:00 0.0563
2016_12_27_S21 12/27/2016 10:45:00 0.3809
2016_12_27_S21 12/27/2016 10:50:00 0.7898
2016_12_27_S21 12/27/2016 10:55:00 0.3332
2016_12_27_S21 12/27/2016 11:00:00 0.3067
2016_12_27_S21 12/27/2016 11:05:00 0.2363
2016_12_27_S21 12/27/2016 11:10:00 0.0834
2016_12_27_S21 12/27/2016 11:15:00 0.136
2016_12_27_S21 12/27/2016 11:20:00 0.167
2016_12_27_S21 12/27/2016 11:25:00 0.4097
2016_12_27_S21 12/27/2016 11:30:00 0.6294
2016_12_27_S21 12/27/2016 11:35:00 0.6134
2016_12_27_S21 12/27/2016 11:40:00 0.8049
2016_12_27_S21 12/27/2016 11:45:00 0.5743
2016_12_27_S21 12/27/2016 11:50:00 1.281
2016_12_27_S21 12/27/2016 11:55:00 0.7652
2016_12_27_S21 12/27/2016 12:00:00 0.3971
2016_12_27_S21 12/27/2016 12:05:00 0.5836
2016_12_27_S21 12/27/2016 12:10:00 0.3144
2016_12_27_S21 12/27/2016 12:15:00 0.5909
2016_12_27_S21 12/27/2016 12:20:00 0.285
2016_12_27_S21 12/27/2016 12:25:00 0.1752
2016_12_27_S21 12/27/2016 12:30:00 0.3298
2016_12_27_S21 12/27/2016 12:35:00 0.0565
2016_12_27_S21 12/27/2016 12:40:00 0.0486
2016_12_27_S21 12/27/2016 12:45:00 0.0313
2016_12_27_S21 12/27/2016 12:50:00 0.0445
2016_12_27_S21 12/27/2016 12:55:00 0.0047
2016_12_27_S21 12/27/2016 13:00:00 0.0562
2016_12_27_S21 12/27/2016 13:05:00 0.0372
2016_12_27_S21 12/27/2016 13:10:00 0.0004
2016_12_27_S21 12/27/2016 13:15:00 0.0
2016_12_27_S21 12/27/2016 13:20:00 0.0
2016_12_27_S21 12/27/2016 13:25:00 0.0013
2016_12_27_S21 12/27/2016 13:30:00 0.1099
2016_12_27_S21 12/27/2016 13:35:00 0.2436
2016_12_27_S21 12/27/2016 13:40:00 0.1791
2016_12_27_S21 12/27/2016 13:45:00 0.1331
2016_12_27_S21 12/27/2016 13:50:00 0.2465
2016_12_27_S21 12/27/2016 13:55:00 0.0109
2016_12_27_S21 12/27/2016 14:00:00 0.0606
2016_12_27_S21 12/27/2016 14:05:00 0.1224
2016_12_27_S21 12/27/2016 14:10:00 0.0434
2016_12_27_S21 12/27/2016 14:15:00 0.0
2016_12_27_S21 12/27/2016 14:20:00 0.0209
2016_12_27_S21 12/27/2016 14:25:00 0.0176
2016_12_27_S21 12/27/2016 14:30:00 0.0195
2016_12_27_S21 12/27/2016 14:35:00 0.0
2016_12_27_S21 12/27/2016 14:40:00 0.0
2016_12_27_S21 12/27/2016 14:45:00 0.0
2016_12_27_S21 12/27/2016 14:50:00 0.0
2016_12_27_S21 12/27/2016 14:55:00 0.0
2016_12_27_S21 12/27/2016 15:00:00 0.0
2016_12_27_S21 12/27/2016 15:05:00 0.0
2016_12_27_S21 12/27/2016 15:10:00 0.0
2016_12_27_S21 12/27/2016 15:15:00 0.0
2016_12_27_S21 12/27/2016 15:20:00 0.0055
2016_12_27_S21 12/27/2016 15:25:00 0.0022
2016_12_27_S21 12/27/2016 15:30:00 0.0
2016_12_27_S21 12/27/2016 15:35:00 0.0
2016_12_27_S21 12/27/2016 15:40:00 0.0
2016_12_27_S21 12/27/2016 15:45:00 0.0
2016_12_27_S21 12/27/2016 15:50:00 0.0
2016_12_27_S21 12/27/2016 15:55:00 0.0
2016_12_27_S21 12/27/2016 16:00:00 0.1397
2016_12_27_S21 12/27/2016 16:05:00 0.3066
2016_12_27_S21 12/27/2016 16:10:00 0.0012
2016_12_27_S21 12/27/2016 16:15:00 0.002
2016_12_27_S21 12/27/2016 16:20:00 0.0
2016_12_27_S21 12/27/2016 16:25:00 0.0
2016_12_27_S21 12/27/2016 16:30:00 0.0
2016_12_27_S21 12/27/2016 16:35:00 0.0
2016_12_27_S21 12/27/2016 16:40:00 0.1624
2016_12_27_S21 12/27/2016 16:45:00 0.0
2016_12_27_S21 12/27/2016 16:50:00 0.0005
2016_12_27_S21 12/27/2016 16:55:00 0.0
2016_12_27_S21 12/27/2016 17:00:00 0.0
2016_12_27_S21 12/27/2016 17:05:00 0.0
2016_12_27_S21 12/27/2016 17:10:00 0.0
2016_12_27_S21 12/27/2016 17:15:00 0.0
2016_12_27_S21 12/27/2016 17:20:00 0.0
2016_12_27_S21 12/27/2016 17:25:00 0.0
2016_12_27_S21 12/27/2016 17:30:00 0.0
2016_12_27_S21 12/27/2016 17:35:00 0.0
2016_12_27_S21 12/27/2016 17:40:00 0.016
2016_12_27_S21 12/27/2016 17:45:00 0.2659
2016_12_27_S21 12/27/2016 17:50:00 0.0934
2016_12_27_S21 12/27/2016 17:55:00 0.0566
2016_12_27_S21 12/27/2016 18:00:00 0.0007
2016_12_27_S21 12/27/2016 18:05:00 0.0
2016_12_27_S21 12/27/2016 18:10:00 0.0
2016_12_27_S21 12/27/2016 18:15:00 0.0
2016_12_27_S21 12/27/2016 18:20:00 0.0
2016_12_27_S21 12/27/2016 18:25:00 3.5489
2016_12_27_S21 12/27/2016 18:30:00 0.0544
2016_12_27_S21 12/27/2016 18:35:00 0.0281
2016_12_27_S21 12/27/2016 18:40:00 0.0424
2016_12_27_S21 12/27/2016 18:45:00 0.0
2016_12_27_S21 12/27/2016 18:50:00 0.0
2016_12_27_S21 12/27/2016 18:55:00 0.0
2016_12_27_S21 12/27/2016 19:00:00 0.0
2016_12_27_S21 12/27/2016 19:05:00 0.0
2016_12_27_S21 12/27/2016 19:10:00 0.0433
2016_12_27_S21 12/27/2016 19:15:00 0.3676
2016_12_27_S21 12/27/2016 19:20:00 0.0001
2016_12_27_S21 12/27/2016 19:25:00 0.0
2016_12_27_S21 12/27/2016 19:30:00 0.0018
2016_12_27_S21 12/27/2016 19:35:00 0.1126
2016_12_27_S21 12/27/2016 19:40:00 0.6283
2016_12_27_S21 12/27/2016 19:45:00 1.7181
2016_12_27_S21 12/27/2016 19:50:00 1.5153
2016_12_27_S21 12/27/2016 19:55:00 4.8465
2016_12_27_S21 12/27/2016 20:00:00 0.2398
2016_12_27_S21 12/27/2016 20:05:00 0.0302
2016_12_27_S21 12/27/2016 20:10:00 0.0
2016_12_27_S21 12/27/2016 20:15:00 0.0
2016_12_27_S21 12/27/2016 20:20:00 0.0022
2016_12_27_S21 12/27/2016 20:25:00 0.0034
2016_12_27_S21 12/27/2016 20:30:00 0.0
2016_12_27_S21 12/27/2016 20:35:00 0.0045
2016_12_27_S21 12/27/2016 20:40:00 0.0
2016_12_27_S21 12/27/2016 20:45:00 0.0
2016_12_27_S21 12/27/2016 20:50:00 0.0
2016_12_27_S21 12/27/2016 20:55:00 0.0
2016_12_27_S21 12/27/2016 21:00:00 0.0
2016_12_27_S21 12/27/2016 21:05:00 0.0
2016_12_27_S21 12/27/2016 21:10:00 0.0
2016_12_27_S21 12/27/2016 21:15:00 0.0
2016_12_27_S21 12/27/2016 21:20:00 0.0
2016_12_27_S21 12/27/2016 21:25:00 0.0
2016_12_27_S21 12/27/2016 21:30:00 0.0
2016_12_27_S21 12/27/2016 21:35:00 0.0
2016_12_27_S21 12/27/2016 21:40:00 0.0
2016_12_27_S21 12/27/2016 21:45:00 0.0
2016_12_27_S21 12/27/2016 21:50:00 0.0
2016_12_27_S21 12/27/2016 21:55:00 0.0
2016_12_27_S21 12/27/2016 22:00:00 0.0
2016_12_27_S21 12/27/2016 22:05:00 0.0
2016_12_27_S21 12/27/2016 22:10:00 0.0052
2016_12_27_S21 12/27/2016 22:15:00 0.0546
2016_12_27_S21 12/27/2016 22:20:00 0.0
2016_12_27_S21 12/27/2016 22:25:00 0.0
2016_12_27_S21 12/27/2016 22:30:00 0.0383
2016_12_27_S21 12/27/2016 22:35:00 0.188
2016_12_27_S21 12/27/2016 22:40:00 0.3278
2016_12_27_S21 12/27/2016 22:45:00 0.0
2016_12_27_S21 12/27/2016 22:50:00 0.0165
2016_12_27_S21 12/27/2016 22:55:00 0.0004
2016_12_27_S21 12/27/2016 23:00:00 0.0
2016_12_27_S21 12/27/2016 23:05:00 0.0072
2016_12_27_S21 12/27/2016 23:10:00 0.0057
2016_12_27_S21 12/27/2016 23:15:00 0.0026
2016_12_27_S21 12/27/2016 23:20:00 0.0
2016_12_27_S21 12/27/2016 23:25:00 0.003
2016_12_27_S21 12/27/2016 23:30:00 0.0174
2016_12_27_S21 12/27/2016 23:35:00 0.0
2016_12_27_S21 12/27/2016 23:40:00 0.0
2016_12_27_S21 12/27/2016 23:45:00 0.0
2016_12_27_S21 12/27/2016 23:50:00 0.0
2016_12_27_S21 12/27/2016 23:55:00 0.0
2016_12_27_S21 12/28/2016 00:00:00 0.0
2016_12_27_S21 12/28/2016 00:05:00 0.0
2016_12_27_S21 12/28/2016 00:10:00 0.0
2016_12_27_S21 12/28/2016 00:15:00 0.0
2016_12_27_S21 12/28/2016 00:20:00 0.0
2016_12_27_S21 12/28/2016 00:25:00 0.0
2016_12_27_S21 12/28/2016 00:30:00 0.0
2016_12_27_S21 12/28/2016 00:35:00 0.0
2016_12_27_S21 12/28/2016 00:40:00 0.0
2016_12_27_S21 12/28/2016 00:45:00 0.0
2016_12_27_S21 12/28/2016 00:50:00 0.0
2016_12_27_S21 12/28/2016 00:55:00 0.0
2016_12_27_S21 12/28/2016 01:00:00 0.0
2016_12_27_S21 12/28/2016 01:05:00 0.0
2016_12_27_S21 12/28/2016 01:10:00 0.0
2016_12_27_S21 12/28/2016 01:15:00 0.0
2016_12_27_S21 12/28/2016 01:20:00 0.0
2016_12_27_S21 12/28/2016 01:25:00 0.0
2016_12_27_S21 12/28/2016 01:30:00 0.0
2016_12_27_S21 12/28/2016 01:35:00 0.0
2016_12_27_S21 12/28/2016 01:40:00 0.0
2016_12_27_S21 12/28/2016 01:45:00 0.0
2016_12_27_S21 12/28/2016 01:50:00 0.0
2016_12_27_S21 12/28/2016 01:55:00 0.0
2016_12_27_S21 12/28/2016 02:00:00 0.0
2016_12_27_S21 12/28/2016 02:05:00 0.0
2016_12_27_S21 12/28/2016 02:10:00 0.0
2016_12_27_S21 12/28/2016 02:15:00 0.0
2016_12_27_S21 12/28/2016 02:20:00 0.0
2016_12_27_S21 12/28/2016 02:25:00 0.0
2016_12_27_S21 12/28/2016 02:30:00 0.0
2016_12_27_S21 12/28/2016 02:35:00 0.0
2016_12_27_S21 12/28/2016 02:40:00 0.0
2016_12_27_S21 12/28/2016 02:45:00 0.0
2016_12_27_S21 12/28/2016 02:50:00 0.0
2016_12_27_S21 12/28/2016 02:55:00 0.0
2016_12_27_S21 12/28/2016 03:00:00 0.0
2016_12_27_S21 12/28/2016 03:05:00 0.0
2016_12_27_S21 12/28/2016 03:10:00 0.0
2016_12_27_S21 12/28/2016 03:15:00 0.0
2016_12_27_S21 12/28/2016 03:20:00 0.0
2016_12_27_S21 12/28/2016 03:25:00 0.0
2016_12_27_S21 12/28/2016 03:30:00 0.0
2016_12_27_S21 12/28/2016 03:35:00 0.0
2016_12_27_S21 12/28/2016 03:40:00 0.0
2016_12_27_S21 12/28/2016 03:45:00 0.0
2016_12_27_S21 12/28/2016 03:50:00 0.0
2016_12_27_S21 12/28/2016 03:55:00 0.0
2016_12_27_S21 12/28/2016 04:00:00 0.0
2016_12_27_S21 12/28/2016 04:05:00 0.0
2016_12_27_S21 12/28/2016 04:10:00 0.0
2016_12_27_S21 12/28/2016 04:15:00 0.0
2016_12_27_S21 12/28/2016 04:20:00 0.0
2016_12_27_S21 12/28/2016 04:25:00 0.0
2016_12_27_S21 12/28/2016 04:30:00 0.0
2016_12_27_S21 12/28/2016 04:35:00 0.0
2016_12_27_S21 12/28/2016 04:40:00 0.0
2016_12_27_S21 12/28/2016 04:45:00 0.0
2016_12_27_S21 12/28/2016 04:50:00 0.0
2016_12_27_S21 12/28/2016 04:55:00 0.0
2016_12_27_S21 12/28/2016 05:00:00 0.0
2016_12_27_S21 12/28/2016 05:05:00 0.0
2016_12_27_S21 12/28/2016 05:10:00 0.0
2016_12_27_S21 12/28/2016 05:15:00 0.0
2016_12_27_S21 12/28/2016 05:20:00 0.0
2016_12_27_S21 12/28/2016 05:25:00 0.0
2016_12_27_S21 12/28/2016 05:30:00 0.0
2016_12_27_S21 12/28/2016 05:35:00 0.0
2016_12_27_S21 12/28/2016 05:40:00 0.0
2016_12_27_S21 12/28/2016 05:45:00 0.0
2016_12_27_S21 12/28/2016 05:50:00 0.0
2016_12_27_S21 12/28/2016 05:55:00 0.0
2016_12_27_S21 12/28/2016 06:00:00 0.0
2016_12_27_S21 12/28/2016 06:05:00 0.0
2016_12_27_S21 12/28/2016 06:10:00 0.0
2016_12_27_S21 12/28/2016 06:15:00 0.0
2016_12_27_S21 12/28/2016 06:20:00 0.0
2016_12_27_S21 12/28/2016 06:25:00 0.0
2016_12_27_S21 12/28/2016 06:30:00 0.0
2016_12_27_S21 12/28/2016 06:35:00 0.0
2016_12_27_S21 12/28/2016 06:40:00 0.0
2016_12_27_S21 12/28/2016 06:45:00 0.0
2016_12_27_S21 12/28/2016 06:50:00 0.0
2016_12_27_S21 12/28/2016 06:55:00 0.0
2016_12_27_S21 12/28/2016 07:00:00 0.0
2016_12_27_S21 12/28/2016 07:05:00 0.0
2016_12_27_S21 12/28/2016 07:10:00 0.0
2016_12_27_S21 12/28/2016 07:15:00 0.0
2016_12_27_S21 12/28/2016 07:20:00 0.0
2016_12_27_S21 12/28/2016 07:25:00 0.0
2016_12_27_S21 12/28/2016 07:30:00 0.0
2016_12_27_S21 12/28/2016 07:35:00 0.0
2016_12_27_S21 12/28/2016 07:40:00 0.0
2016_12_27_S21 12/28/2016 07:45:00 0.0
2016_12_27_S21 12/28/2016 07:50:00 0.0
2016_12_27_S21 12/28/2016 07:55:00 0.0
2016_12_27_S21 12/28/2016 08:00:00 0.0

2016_12_27_S22 12/26/2016 08:00:00 0.0
2016_12_27_S22 12/26/2016 08:05:00 0.0
2016_12_27_S22 12/26/2016 08:10:00 0.0
2016_12_27_S22 12/26/2016 08:15:00 0.0
2016_12_27_S22 12/26/2016 08:20:00 0.0
2016_12_27_S22 12/26/2016 08:25:00 0.0
2016_12_27_S22 12/26/2016 08:30:00 0.0
2016_12_27_S22 12/26/2016 08:35:00 0.0
2016_12_27_S22 12/26/2016 08:40:00 0.0
2016_12_27_S22 12/26/2016 08:45:00 0.0
2016_12_27_S22 12/26/2016 08:50:00 0.0
2016_12_27_S22 12/26/2016 08:55:00 0.0
2016_12_27_S22 12/26/2016 09:00:00 0.0
2016_12_27_S22 12/26/2016 09:05:00 0.0
2016_12_27_S22 12/26/2016 09:10:00 0.0028
2016_12_27_S22 12/26/2016 09:15:00 0.0301
2016_12_27_S22 12/26/2016 09:20:00 0.0418
2016_12_27_S22 12/26/2016 09:25:00 0.0193
2016_12_27_S22 12/26/2016 09:30:00 0.0
2016_12_27_S22 12/26/2016 09:35:00 0.0
2016_12_27_S22 12/26/2016 09:40:00 0.0
2016_12_27_S22 12/26/2016 09:45:00 0.0
2016_12_27_S22 12/26/2016 09:50:00 0.0
2016_12_27_S22 12/26/2016 09:55:00 0.0
2016_12_27_S22 12/26/2016 10:00:00 0.0
2016_12_27_S22 12/26/2016 10:05:00 0.0
2016_12_27_S22 12/26/2016 10:10:00 0.0
2016_12_27_S22 12/26/2016 10:15:00 0.0
2016_12_27_S22 12/26/2016 10:20:00 0.0
2016_12_27_S22 12/26/2016 10:25:00 0.0
2016_12_27_S22 12/26/2016 10:30:00 0.0
2016_12_27_S22 12/26/2016 10:35:00 0.0
2016_12_27_S22 12/26/2016 10:40:00 0.0
2016_12_27_S22 12/26/2016 10:45:00 0.0
2016_12_27_S22 12/26/2016 10:50:00 0.0
2016_12_27_S22 12/26/2016 10:55:00 0.0087
2016_12_27_S22 12/26/2016 11:00:00 0.0
2016_12_27_S22 12/26/2016 11:05:00 0.0
2016_12_27_S22 12/26/2016 11:10:00 0.0
2016_12_27_S22 12/26/2016 11:15:00 0.0
2016_12_27_S22 12/26/2016 11:20:00 0.0
2016_12_27_S22 12/26/2016 11:25:00 0.0
2016_12_27_S22 12/26/2016 11:30:00 0.0
2016_12_27_S22 12/26/2016 11:35:00 0.0
2016_12_27_S22 12/26/2016 11:40:00 0.0
2016_12_27_S22 12/26/2016 11:45:00 0.0
2016_12_27_S22 12/26/2016 11:50:00 0.0
2016_12_27_S22 12/26/2016 11:55:00 0.0008
2016_12_27_S22 12/26/2016 12:00:00 0.0143
2016_12_27_S22 12/26/2016 12:05:00 0.085
2016_12_27_S22 12/26/2016 12:10:00 0.1015
2016_12_27_S22 12/26/2016 12:15:00 0.0593
2016_12_27_S22 12/26/2016 12:20:00 0.0
2016_12_27_S22 12/26/2016 12:25:00 0.0
2016_12_27_S22 12/26/2016 12:30:00 0.0
2016_12_27_S22 12/26/2016 12:35:00 0.0
2016_12_27_S22 12/26/2016 12:40:00 0.0204
2016_12_27_S22 12/26/2016 12:45:00 0.1499
2016_12_27_S22 12/26/2016 12:50:00 0.0007
2016_12_27_S22 12/26/2016 12:55:00 0.0
2016_12_27_S22 12/26/2016 13:00:00 0.0
2016_12_27_S22 12/26/2016 13:05:00 0.0
2016_12_27_S22 12/26/2016 13:10:00 0.0
2016_12_27_S22 12/26/2016 13:15:00 0.0
2016_12_27_S22 12/26/2016 13:20:00 0.0
2016_12_27_S22 12/26/2016 13:25:00 0.0
2016_12_27_S22 12/26/2016 13:30:00 0.0
2016_12_27_S22 12/26/2016 13:35:00 0.0
2016_12_27_S22 12/26/2016 13:40:00 0.0
2016_12_27_S22 12/26/2016 13:45:00 0.0
2016_12_27_S22 12/26/2016 13:50:00 0.0
2016_12_27_S22 12/26/2016 13:55:00 0.0
2016_12_27_S22 12/26/2016 14:00:00 0.0
2016_12_27_S22 12/26/2016 14:05:00 0.0
2016_12_27_S22 12/26/2016 14:10:00 0.0
2016_12_27_S22 12/26/2016 14:15:00 0.0
2016_12_27_S22 12/26/2016 14:20:00 0.0
2016_12_27_S22 12/26/2016 14:25:00 0.0
2016_12_27_S22 12/26/2016 14:30:00 0.0
2016_12_27_S22 12/26/2016 14:35:00 0.0
2016_12_27_S22 12/26/2016 14:40:00 0.0
2016_12_27_S22 12/26/2016 14:45:00 0.0
2016_12_27_S22 12/26/2016 14:50:00 0.0
2016_12_27_S22 12/26/2016 14:55:00 0.0
2016_12_27_S22 12/26/2016 15:00:00 0.0
2016_12_27_S22 12/26/2016 15:05:00 0.0
2016_12_27_S22 12/26/2016 15:10:00 0.0
2016_12_27_S22 12/26/2016 15:15:00 0.0
2016_12_27_S22 12/26/2016 15:20:00 0.0
2016_12_27_S22 12/26/2016 15:25:00 0.0
2016_12_27_S22 12/26/2016 15:30:00 0.0
2016_12_27_S22 12/26/2016 15:35:00 0.0
2016_12_27_S22 12/26/2016 15:40:00 0.0
2016_12_27_S22 12/26/2016 15:45:00 0.0
2016_12_27_S22 12/26/2016 15:50:00 0.0
2016_12_27_S22 12/26/2016 15:55:00 0.0
2016_12_27_S22 12/26/2016 16:00:00 0.0
2016_12_27_S22 12/26/2016 16:05:00 0.0
2016_12_27_S22 12/26/2016 16:10:00 0.0
2016_12_27_S22 12/26/2016 16:15:00 0.0
2016_12_27_S22 12/26/2016 16:20:00 0.0
2016_12_27_S22 12/26/2016 16:25:00 0.0
2016_12_27_S22 12/26/2016 16:30:00 0.0
2016_12_27_S22 12/26/2016 16:35:00 0.0
2016_12_27_S22 12/26/2016 16:40:00 0.0
2016_12_27_S22 12/26/2016 16:45:00 0.0
2016_12_27_S22 12/26/2016 16:50:00 0.0
2016_12_27_S22 12/26/2016 16:55:00 0.0
2016_12_27_S22 12/26/2016 17:00:00 0.0
2016_12_27_S22 12/26/2016 17:05:00 0.0
2016_12_27_S22 12/26/2016 17:10:00 0.0
2016_12_27_S22 12/26/2016 17:15:00 0.0
2016_12_27_S22 12/26/2016 17:20:00 0.0
2016_12_27_S22 12/26/2016 17:25:00 0.0
2016_12_27_S22 12/26/2016 17:30:00 0.0
2016_12_27_S22 12/26/2016 17:35:00 0.0
2016_12_27_S22 12/26/2016 17:40:00 0.0
2016_12_27_S22 12/26/2016 17:45:00 0.0
2016_12_27_S22 12/26/2016 17:50:00 0.0
2016_12_27_S22 12/26/2016 17:55:00 0.0
2016_12_27_S22 12/26/2016 18:00:00 0.0
2016_12_27_S22 12/26/2016 18:05:00 0.0
2016_12_27_S22 12/26/2016 18:10:00 0.0
2016_12_27_S22 12/26/2016 18:15:00 0.0
2016_12_27_S22 12/26/2016 18:20:00 0.0
2016_12_27_S22 12/26/2016 18:25:00 0.0
2016_12_27_S22 12/26/2016 18:30:00 0.0
2016_12_27_S22 12/26/2016 18:35:00 0.0
2016_12_27_S22 12/26/2016 18:40:00 0.0
2016_12_27_S22 12/26/2016 18:45:00 0.0
2016_12_27_S22 12/26/2016 18:50:00 0.0
2016_12_27_S22 12/26/2016 18:55:00 0.0
2016_12_27_S22 12/26/2016 19:00:00 0.0
2016_12_27_S22 12/26/2016 19:05:00 0.0
2016_12_27_S22 12/26/2016 19:10:00 0.0
2016_12_27_S22 12/26/2016 19:15:00 0.0
2016_12_27_S22 12/26/2016 19:20:00 0.0
2016_12_27_S22 12/26/2016 19:25:00 0.0
2016_12_27_S22 12/26/2016 19:30:00 0.0
2016_12_27_S22 12/26/2016 19:35:00 0.0
2016_12_27_S22 12/26/2016 19:40:00 0.0
2016_12_27_S22 12/26/2016 19:45:00 0.0
2016_12_27_S22 12/26/2016 19:50:00 0.0
2016_12_27_S22 12/26/2016 19:55:00 0.0
2016_12_27_S22 12/26/2016 20:00:00 0.0
2016_12_27_S22 12/26/2016 20:05:00 0.0
2016_12_27_S22 12/26/2016 20:10:00 0.0
2016_12_27_S22 12/26/2016 20:15:00 0.0
2016_12_27_S22 12/26/2016 20:20:00 0.0
2016_12_27_S22 12/26/2016 20:25:00 0.0
2016_12_27_S22 12/26/2016 20:30:00 0.0
2016_12_27_S22 12/26/2016 20:35:00 0.0
2016_12_27_S22 12/26/2016 20:40:00 0.0
2016_12_27_S22 12/26/2016 20:45:00 0.0
2016_12_27_S22 12/26/2016 20:50:00 0.0
2016_12_27_S22 12/26/2016 20:55:00 0.0
2016_12_27_S22 12/26/2016 21:00:00 0.0
2016_12_27_S22 12/26/2016 21:05:00 0.0
2016_12_27_S22 12/26/2016 21:10:00 0.0
2016_12_27_S22 12/26/2016 21:15:00 0.0
2016_12_27_S22 12/26/2016 21:20:00 0.0
2016_12_27_S22 12/26/2016 21:25:00 0.0
2016_12_27_S22 12/26/2016 21:30:00 0.0
2016_12_27_S22 12/26/2016 21:35:00 0.0
2016_12_27_S22 12/26/2016 21:40:00 0.0
2016_12_27_S22 12/26/2016 21:45:00 0.0
2016_12_27_S22 12/26/2016 21:50:00 0.0
2016_12_27_S22 12/26/2016 21:55:00 0.0
2016_12_27_S22 12/26/2016 22:00:00 0.0
2016_12_27_S22 12/26/2016 22:05:00 0.0
2016_12_27_S22 12/26/2016 22:10:00 0.0
2016_12_27_S22 12/26/2016 22:15:00 0.0
2016_12_27_S22 12/26/2016 22:20:00 0.0
2016_12_27_S22 12/26/2016 22:25:00 0.0
2016_12_27_S22 12/26/2016 22:30:00 0.0
2016_12_27_S22 12/26/2016 22:35:00 0.0
2016_12_27_S22 12/26/2016 22:40:00 0.0
2016_12_27_S22 12/26/2016 22:45:00 0.0
2016_12_27_S22 12/26/2016 22:50:00 0.0
2016_12_27_S22 12/26/2016 22:55:00 0.0
2016_12_27_S22 12/26/2016 23:00:00 0.0
2016_12_27_S22 12/26/2016 23:05:00 0.0
2016_12_27_S22 12/26/2016 23:10:00 0.0
2016_12_27_S22 12/26/2016 23:15:00 0.0
2016_12_27_S22 12/26/2016 23:20:00 0.0
2016_12_27_S22 12/26/2016 23:25:00 0.0
2016_12_27_S22 12/26/2016 23:30:00 0.0
2016_12_27_S22 12/26/2016 23:35:00 0.0
2016_12_27_S22 12/26/2016 23:40:00 0.0
2016_12_27_S22 12/26/2016 23:45:00 0.0
2016_12_27_S22 12/26/2016 23:50:00 0.0
2016_12_27_S22 12/26/2016 23:55:00 0.0
2016_12_27_S22 12/27/2016 00:00:00 0.0
2016_12_27_S22 12/27/2016 00:05:00 0.0
2016_12_27_S22 12/27/2016 00:10:00 0.0
2016_12_27_S22 12/27/2016 00:15:00 0.0
2016_12_27_S22 12/27/2016 00:20:00 0.0
2016_12_27_S22 12/27/2016 00:25:00 0.0
2016_12_27_S22 12/27/2016 00:30:00 0.0
2016_12_27_S22 12/27/2016 00:35:00 0.0
2016_12_27_S22 12/27/2016 00:40:00 0.0
2016_12_27_S22 12/27/2016 00:45:00 0.0
2016_12_27_S22 12/27/2016 00:50:00 0.0
2016_12_27_S22 12/27/2016 00:55:00 0.0
2016_12_27_S22 12/27/2016 01:00:00 0.0023
2016_12_27_S22 12/27/2016 01:05:00 0.0028
2016_12_27_S22 12/27/2016 01:10:00 0.0
2016_12_27_S22 12/27/2016 01:15:00 0.0061
2016_12_27_S22 12/27/2016 01:20:00 0.0111
2016_12_27_S22 12/27/2016 01:25:00 0.0082
2016_12_27_S22 12/27/2016 01:30:00 0.0444
2016_12_27_S22 12/27/2016 01:35:00 0.4495
2016_12_27_S22 12/27/2016 01:40:00 0.1702
2016_12_27_S22 12/27/2016 01:45:00 0.1058
2016_12_27_S22 12/27/2016 01:50:00 0.3656
2016_12_27_S22 12/27/2016 01:55:00 0.4871
2016_12_27_S22 12/27/2016 02:00:00 0.1205
2016_12_27_S22 12/27/2016 02:05:00 0.0319
2016_12_27_S22 12/27/2016 02:10:00 0.0949
2016_12_27_S22 12/27/2016 02:15:00 0.1318
2016_12_27_S22 12/27/2016 02:20:00 0.0757
2016_12_27_S22 12/27/2016 02:25:00 0.1003
2016_12_27_S22 12/27/2016 02:30:00 0.1559
2016_12_27_S22 12/27/2016 02:35:00 0.1542
2016_12_27_S22 12/27/2016 02:40:00 0.1289
2016_12_27_S22 12/27/2016 02:45:00 0.1937
2016_12_27_S22 12/27/2016 02:50:00 0.4325
2016_12_27_S22 12/27/2016 02:55:00 0.2904
2016_12_27_S22 12/27/2016 03:00:00 0.5544
2016_12_27_S22 12/27/2016 03:05:00 0.6875
2016_12_27_S22 12/27/2016 03:10:00 0.8227
2016_12_27_S22 12/27/2016 03:15:00 0.5842
2016_12_27_S22 12/27/2016 03:20:00 1.1242
2016_12_27_S22 12/27/2016 03:25:00 0.7528
2016_12_27_S22 12/27/2016 03:30:00 0.781
2016_12_27_S22 12/27/2016 03:35:00 1.289
2016_12_27_S22 12/27/2016 03:40:00 0.5301
2016_12_27_S22 12/27/2016 03:45:00 0.2457
2016_12_27_S22 12/27/2016 03:50:00 0.5323
2016_12_27_S22 12/27/2016 03:55:00 0.5725
2016_12_27_S22 12/27/2016 04:00:00 0.4158
2016_12_27_S22 12/27/2016 04:05:00 0.086
2016_12_27_S22 12/27/2016 04:10:00 0.14
2016_12_27_S22 12/27/2016 04:15:00 0.2523
2016_12_27_S22 12/27/2016 04:20:00 0.1595
2016_12_27_S22 12/27/2016 04:25:00 0.0366
2016_12_27_S22 12/27/2016 04:30:00 0.137
2016_12_27_S22 12/27/2016 04:35:00 0.0359
2016_12_27_S22 12/27/2016 04:40:00 0.0207
2016_12_27_S22 12/27/2016 04:45:00 0.0232
2016_12_27_S22 12/27/2016 04:50:00 0.083
2016_12_27_S22 12/27/2016 04:55:00 0.266
2016_12_27_S22 12/27/2016 05:00:00 0.5347
2016_12_27_S22 12/27/2016 05:05:00 0.2634
2016_12_27_S22 12/27/2016 05:10:00 0.1882
2016_12_27_S22 12/27/2016 05:15:00 0.2002
2016_12_27_S22 12/27/2016 05:20:00 0.4041
2016_12_27_S22 12/27/2016 05:25:00 0.1052
2016_12_27_S22 12/27/2016 05:30:00 0.0124
2016_12_27_S22 12/27/2016 05:35:00 0.0
2016_12_27_S22 12/27/2016 05:40:00 0.0
2016_12_27_S22 12/27/2016 05:45:00 0.0
2016_12_27_S22 12/27/2016 05:50:00 0.0
2016_12_27_S22 12/27/2016 05:55:00 0.0
2016_12_27_S22 12/27/2016 06:00:00 0.0
2016_12_27_S22 12/27/2016 06:05:00 0.0
2016_12_27_S22 12/27/2016 06:10:00 0.0
2016_12_27_S22 12/27/2016 06:15:00 0.0
2016_12_27_S22 12/27/2016 06:20:00 0.0
2016_12_27_S22 12/27/2016 06:25:00 0.0
2016_12_27_S22 12/27/2016 06:30:00 0.0
2016_12_27_S22 12/27/2016 06:35:00 0.0
2016_12_27_S22 12/27/2016 06:40:00 0.0
2016_12_27_S22 12/27/2016 06:45:00 0.059
2016_12_27_S22 12/27/2016 06:50:00 0.0006
2016_12_27_S22 12/27/2016 06:55:00 0.0238
2016_12_27_S22 12/27/2016 07:00:00 0.0471
2016_12_27_S22 12/27/2016 07:05:00 0.0479
2016_12_27_S22 12/27/2016 07:10:00 0.1463
2016_12_27_S22 12/27/2016 07:15:00 0.6748
2016_12_27_S22 12/27/2016 07:20:00 0.7213
2016_12_27_S22 12/27/2016 07:25:00 0.7615
2016_12_27_S22 12/27/2016 07:30:00 0.7544
2016_12_27_S22 12/27/2016 07:35:00 0.4775
2016_12_27_S22 12/27/2016 07:40:00 0.3853
2016_12_27_S22 12/27/2016 07:45:00 0.1885
2016_12_27_S22 12/27/2016 07:50:00 0.2386
2016_12_27_S22 12/27/2016 07:55:00 1.7256
2016_12_27_S22 12/27/2016 08:00:00 1.065
2016_12_27_S22 12/27/2016 08:05:00 0.6164
2016_12_27_S22 12/27/2016 08:10:00 0.927
2016_12_27_S22 12/27/2016 08:15:00 0.5496
2016_12_27_S22 12/27/2016 08:20:00 0.4967
2016_12_27_S22 12/27/2016 08:25:00 0.7602
2016_12_27_S22 12/27/2016 08:30:00 0.0091
2016_12_27_S22 12/27/2016 08:35:00 0.0719
2016_12_27_S22 12/27/2016 08:40:00 0.1722
2016_12_27_S22 12/27/2016 08:45:00 0.6887
2016_12_27_S22 12/27/2016 08:50:00 0.484
2016_12_27_S22 12/27/2016 08:55:00 0.1311
2016_12_27_S22 12/27/2016 09:00:00 0.4288
2016_12_27_S22 12/27/2016 09:05:00 0.2889
2016_12_27_S22 12/27/2016 09:10:00 0.157
2016_12_27_S22 12/27/2016 09:15:00 0.1969
2016_12_27_S22 12/27/2016 09:20:00 0.5734
2016_12_27_S22 12/27/2016 09:25:00 1.1525
2016_12_27_S22 12/27/2016 09:30:00 0.5728
2016_12_27_S22 12/27/2016 09:35:00 0.2424
2016_12_27_S22 12/27/2016 09:40:00 0.6349
2016_12_27_S22 12/27/2016 09:45:00 0.3533
2016_12_27_S22 12/27/2016 09:50:00 0.3468
2016_12_27_S22 12/27/2016 09:55:00 0.0
2016_12_27_S22 12/27/2016 10:00:00 0.2446
2016_12_27_S22 12/27/2016 10:05:00 0.4694
2016_12_27_S22 12/27/2016 10:10:00 0.8528
2016_12_27_S22 12/27/2016 10:15:00 0.1641
2016_12_27_S22 12/27/2016 10:20:00 0.0623
2016_12_27_S22 12/27/2016 10:25:00 0.0933
2016_12_27_S22 12/27/2016 10:30:00 0.0253
2016_12_27_S22 12/27/2016 10:35:00 0.0253
2016_12_27_S22 12/27/2016 10:40:00 0.0628
2016_12_27_S22 12/27/2016 10:45:00 0.1409
2016_12_27_S22 12/27/2016 10:50:00 0.9549
2016_12_27_S22 12/27/2016 10:55:00 0.3533
2016_12_27_S22 12/27/2016 11:00:00 0.278
2016_12_27_S22 12/27/2016 11:05:00 0.2086
2016_12_27_S22 12/27/2016 11:10:00 0.1064
2016_12_27_S22 12/27/2016 11:15:00 0.1099
2016_12_27_S22 12/27/2016 11:20:00 0.1694
2016_12_27_S22 12/27/2016 11:25:00 0.2121
2016_12_27_S22 12/27/2016 11:30:00 0.8413
2016_12_27_S22 12/27/2016 11:35:00 0.483
2016_12_27_S22 12/27/2016 11:40:00 0.7498
2016_12_27_S22 12/27/2016 11:45:00 0.5483
2016_12_27_S22 12/27/2016 11:50:00 1.2271
2016_12_27_S22 12/27/2016 11:55:00 0.7135
2016_12_27_S22 12/27/2016 12:00:00 0.4891
2016_12_27_S22 12/27/2016 12:05:00 0.5099
2016_12_27_S22 12/27/2016 12:10:00 0.5829
2016_12_27_S22 12/27/2016 12:15:00 0.4405
2016_12_27_S22 12/27/2016 12:20:00 0.3151
2016_12_27_S22 12/27/2016 12:25:00 0.2757
2016_12_27_S22 12/27/2016 12:30:00 0.4767
2016_12_27_S22 12/27/2016 12:35:00 0.0733
2016_12_27_S22 12/27/2016 12:40:00 0.0537
2016_12_27_S22 12/27/2016 12:45:00 0.0359
2016_12_27_S22 12/27/2016 12:50:00 0.0507
2016_12_27_S22 12/27/2016 12:55:00 0.0031
2016_12_27_S22 12/27/2016 13:00:00 0.0356
2016_12_27_S22 12/27/2016 13:05:00 0.0473
2016_12_27_S22 12/27/2016 13:10:00 0.0003
2016_12_27_S22 12/27/2016 13:15:00 0.0
2016_12_27_S22 12/27/2016 13:20:00 0.0
2016_12_27_S22 12/27/2016 13:25:00 0.0
2016_12_27_S22 12/27/2016 13:30:00 0.0947
2016_12_27_S22 12/27/2016 13:35:00 0.3266
2016_12_27_S22 12/27/2016 13:40:00 0.1495
2016_12_27_S22 12/27/2016 13:45:00 0.2273
2016_12_27_S22 12/27/2016 13:50:00 0.3239
2016_12_27_S22 12/27/2016 13:55:00 0.0167
2016_12_27_S22 12/27/2016 14:00:00 0.0535
2016_12_27_S22 12/27/2016 14:05:00 0.2205
2016_12_27_S22 12/27/2016 14:10:00 0.045
2016_12_27_S22 12/27/2016 14:15:00 0.0
2016_12_27_S22 12/27/2016 14:20:00 0.0339
2016_12_27_S22 12/27/2016 14:25:00 0.0315
2016_12_27_S22 12/27/2016 14:30:00 0.0182
2016_12_27_S22 12/27/2016 14:35:00 0.0
2016_12_27_S22 12/27/2016 14:40:00 0.0011
2016_12_27_S22 12/27/2016 14:45:00 0.0009
2016_12_27_S22 12/27/2016 14:50:00 0.0
2016_12_27_S22 12/27/2016 14:55:00 0.0
2016_12_27_S22 12/27/2016 15:00:00 0.0
2016_12_27_S22 12/27/2016 15:05:00 0.0
2016_12_27_S22 12/27/2016 15:10:00 0.0
2016_12_27_S22 12/27/2016 15:15:00 0.0
2016_12_27_S22 12/27/2016 15:20:00 0.0071
2016_12_27_S22 12/27/2016 15:25:00 0.0
2016_12_27_S22 12/27/2016 15:30:00 0.0
2016_12_27_S22 12/27/2016 15:35:00 0.0
2016_12_27_S22 12/27/2016 15:40:00 0.0
2016_12_27_S22 12/27/2016 15:45:00 0.0
2016_12_27_S22 12/27/2016 15:50:00 0.0032
2016_12_27_S22 12/27/2016 15:55:00 0.0
2016_12_27_S22 12/27/2016 16:00:00 0.0113
2016_12_27_S22 12/27/2016 16:05:00 0.2404
2016_12_27_S22 12/27/2016 16:10:00 0.003
2016_12_27_S22 12/27/2016 16:15:00 0.0024
2016_12_27_S22 12/27/2016 16:20:00 0.0
2016_12_27_S22 12/27/2016 16:25:00 0.0
2016_12_27_S22 12/27/2016 16:30:00 0.0
2016_12_27_S22 12/27/2016 16:35:00 0.0
2016_12_27_S22 12/27/2016 16:40:00 0.0645
2016_12_27_S22 12/27/2016 16:45:00 0.0
2016_12_27_S22 12/27/2016 16:50:00 0.0037
2016_12_27_S22 12/27/2016 16:55:00 0.0
2016_12_27_S22 12/27/2016 17:00:00 0.0
2016_12_27_S22 12/27/2016 17:05:00 0.0
2016_12_27_S22 12/27/2016 17:10:00 0.0
2016_12_27_S22 12/27/2016 17:15:00 0.0
2016_12_27_S22 12/27/2016 17:20:00 0.0
2016_12_27_S22 12/27/2016 17:25:00 0.0
2016_12_27_S22 12/27/2016 17:30:00 0.0
2016_12_27_S22 12/27/2016 17:35:00 0.0
2016_12_27_S22 12/27/2016 17:40:00 0.005
2016_12_27_S22 12/27/2016 17:45:00 0.4477
2016_12_27_S22 12/27/2016 17:50:00 0.1122
2016_12_27_S22 12/27/2016 17:55:00 0.073
2016_12_27_S22 12/27/2016 18:00:00 0.0
2016_12_27_S22 12/27/2016 18:05:00 0.0
2016_12_27_S22 12/27/2016 18:10:00 0.0
2016_12_27_S22 12/27/2016 18:15:00 0.0
2016_12_27_S22 12/27/2016 18:20:00 0.0
2016_12_27_S22 12/27/2016 18:25:00 2.0522
2016_12_27_S22 12/27/2016 18:30:00 0.0807
2016_12_27_S22 12/27/2016 18:35:00 0.0226
2016_12_27_S22 12/27/2016 18:40:00 0.0448
2016_12_27_S22 12/27/2016 18:45:00 0.0
2016_12_27_S22 12/27/2016 18:50:00 0.0
2016_12_27_S22 12/27/2016 18:55:00 0.0
2016_12_27_S22 12/27/2016 19:00:00 0.0
2016_12_27_S22 12/27/2016 19:05:00 0.0
2016_12_27_S22 12/27/2016 19:10:00 0.0193
2016_12_27_S22 12/27/2016 19:15:00 0.2664
2016_12_27_S22 12/27/2016 19:20:00 0.012
2016_12_27_S22 12/27/2016 19:25:00 0.0
2016_12_27_S22 12/27/2016 19:30:00 0.0
2016_12_27_S22 12/27/2016 19:35:00 0.0463
2016_12_27_S22 12/27/2016 19:40:00 0.6537
2016_12_27_S22 12/27/2016 19:45:00 0.9937
2016_12_27_S22 12/27/2016 19:50:00 0.7559
2016_12_27_S22 12/27/2016 19:55:00 6.8186
2016_12_27_S22 12/27/2016 20:00:00 0.2181
2016_12_27_S22 12/27/2016 20:05:00 0.0658
2016_12_27_S22 12/27/2016 20:10:00 0.0
2016_12_27_S22 12/27/2016 20:15:00 0.0
2016_12_27_S22 12/27/2016 20:20:00 0.0005
2016_12_27_S22 12/27/2016 20:25:00 0.0037
2016_12_27_S22 12/27/2016 20:30:00 0.0
2016_12_27_S22 12/27/2016 20:35:00 0.007
2016_12_27_S22 12/27/2016 20:40:00 0.0
2016_12_27_S22 12/27/2016 20:45:00 0.0
2016_12_27_S22 12/27/2016 20:50:00 0.0
2016_12_27_S22 12/27/2016 20:55:00 0.0
2016_12_27_S22 12/27/2016 21:00:00 0.0
2016_12_27_S22 12/27/2016 21:05:00 0.0
2016_12_27_S22 12/27/2016 21:10:00 0.0
2016_12_27_S22 12/27/2016 21:15:00 0.0
2016_12_27_S22 12/27/2016 21:20:00 0.0
2016_12_27_S22 12/27/2016 21:25:00 0.0
2016_12_27_S22 12/27/2016 21:30:00 0.0
2016_12_27_S22 12/27/2016 21:35:00 0.0
2016_12_27_S22 12/27/2016 21:40:00 0.0
2016_12_27_S22 12/27/2016 21:45:00 0.0
2016_12_27_S22 12/27/2016 21:50:00 0.0
2016_12_27_S22 12/27/2016 21:55:00 0.0
2016_12_27_S22 12/27/2016 22:00:00 0.0
2016_12_27_S22 12/27/2016 22:05:00 0.0
2016_12_27_S22 12/27/2016 22:10:00 0.0021
2016_12_27_S22 12/27/2016 22:15:00 0.0277
2016_12_27_S22 12/27/2016 22:20:00 0.0
2016_12_27_S22 12/27/2016 22:25:00 0.0
2016_12_27_S22 12/27/2016 22:30:00 0.0284
2016_12_27_S22 12/27/2016 22:35:00 0.0671
2016_12_27_S22 12/27/2016 22:40:00 0.517
2016_12_27_S22 12/27/2016 22:45:00 0.0
2016_12_27_S22 12/27/2016 22:50:00 0.0023
2016_12_27_S22 12/27/2016 22:55:00 0.0
2016_12_27_S22 12/27/2016 23:00:00 0.0
2016_12_27_S22 12/27/2016 23:05:00 0.0013
2016_12_27_S22 12/27/2016 23:10:00 0.0103
2016_12_27_S22 12/27/2016 23:15:00 0.0033
2016_12_27_S22 12/27/2016 23:20:00 0.0
2016_12_27_S22 12/27/2016 23:25:00 0.0077
2016_12_27_S22 12/27/2016 23:30:00 0.0026
2016_12_27_S22 12/27/2016 23:35:00 0.0
2016_12_27_S22 12/27/2016 23:40:00 0.0001
2016_12_27_S22 12/27/2016 23:45:00 0.0007
2016_12_27_S22 12/27/2016 23:50:00 0.0
2016_12_27_S22 12/27/2016 23:55:00 0.0
2016_12_27_S22 12/28/2016 00:00:00 0.0
2016_12_27_S22 12/28/2016 00:05:00 0.0
2016_12_27_S22 12/28/2016 00:10:00 0.0
2016_12_27_S22 12/28/2016 00:15:00 0.0
2016_12_27_S22 12/28/2016 00:20:00 0.0
2016_12_27_S22 12/28/2016 00:25:00 0.0
2016_12_27_S22 12/28/2016 00:30:00 0.0
2016_12_27_S22 12/28/2016 00:35:00 0.0
2016_12_27_S22 12/28/2016 00:40:00 0.0
2016_12_27_S22 12/28/2016 00:45:00 0.0
2016_12_27_S22 12/28/2016 00:50:00 0.0
2016_12_27_S22 12/28/2016 00:55:00 0.0
2016_12_27_S22 12/28/2016 01:00:00 0.0
2016_12_27_S22 12/28/2016 01:05:00 0.0
2016_12_27_S22 12/28/2016 01:10:00 0.0
2016_12_27_S22 12/28/2016 01:15:00 0.0
2016_12_27_S22 12/28/2016 01:20:00 0.0
2016_12_27_S22 12/28/2016 01:25:00 0.0
2016_12_27_S22 12/28/2016 01:30:00 0.0
2016_12_27_S22 12/28/2016 01:35:00 0.0
2016_12_27_S22 12/28/2016 01:40:00 0.0
2016_12_27_S22 12/28/2016 01:45:00 0.0
2016_12_27_S22 12/28/2016 01:50:00 0.0
2016_12_27_S22 12/28/2016 01:55:00 0.0
2016_12_27_S22 12/28/2016 02:00:00 0.0
2016_12_27_S22 12/28/2016 02:05:00 0.0
2016_12_27_S22 12/28/2016 02:10:00 0.0
2016_12_27_S22 12/28/2016 02:15:00 0.0
2016_12_27_S22 12/28/2016 02:20:00 0.0
2016_12_27_S22 12/28/2016 02:25:00 0.0
2016_12_27_S22 12/28/2016 02:30:00 0.0
2016_12_27_S22 12/28/2016 02:35:00 0.0
2016_12_27_S22 12/28/2016 02:40:00 0.0
2016_12_27_S22 12/28/2016 02:45:00 0.0
2016_12_27_S22 12/28/2016 02:50:00 0.0
2016_12_27_S22 12/28/2016 02:55:00 0.0
2016_12_27_S22 12/28/2016 03:00:00 0.0
2016_12_27_S22 12/28/2016 03:05:00 0.0
2016_12_27_S22 12/28/2016 03:10:00 0.0
2016_12_27_S22 12/28/2016 03:15:00 0.0
2016_12_27_S22 12/28/2016 03:20:00 0.0
2016_12_27_S22 12/28/2016 03:25:00 0.0
2016_12_27_S22 12/28/2016 03:30:00 0.0
2016_12_27_S22 12/28/2016 03:35:00 0.0
2016_12_27_S22 12/28/2016 03:40:00 0.0
2016_12_27_S22 12/28/2016 03:45:00 0.0
2016_12_27_S22 12/28/2016 03:50:00 0.0
2016_12_27_S22 12/28/2016 03:55:00 0.0
2016_12_27_S22 12/28/2016 04:00:00 0.0
2016_12_27_S22 12/28/2016 04:05:00 0.0
2016_12_27_S22 12/28/2016 04:10:00 0.0
2016_12_27_S22 12/28/2016 04:15:00 0.0
2016_12_27_S22 12/28/2016 04:20:00 0.0
2016_12_27_S22 12/28/2016 04:25:00 0.0
2016_12_27_S22 12/28/2016 04:30:00 0.0
2016_12_27_S22 12/28/2016 04:35:00 0.0
2016_12_27_S22 12/28/2016 04:40:00 0.0
2016_12_27_S22 12/28/2016 04:45:00 0.0
2016_12_27_S22 12/28/2016 04:50:00 0.0
2016_12_27_S22 12/28/2016 04:55:00 0.0
2016_12_27_S22 12/28/2016 05:00:00 0.0
2016_12_27_S22 12/28/2016 05:05:00 0.0
2016_12_27_S22 12/28/2016 05:10:00 0.0
2016_12_27_S22 12/28/2016 05:15:00 0.0
2016_12_27_S22 12/28/2016 05:20:00 0.0
2016_12_27_S22 12/28/2016 05:25:00 0.0
2016_12_27_S22 12/28/2016 05:30:00 0.0
2016_12_27_S22 12/28/2016 05:35:00 0.0
2016_12_27_S22 12/28/2016 05:40:00 0.0
2016_12_27_S22 12/28/2016 05:45:00 0.0
2016_12_27_S22 12/28/2016 05:50:00 0.0
2016_12_27_S22 12/28/2016 05:55:00 0.0
2016_12_27_S22 12/28/2016 06:00:00 0.0
2016_12_27_S22 12/28/2016 06:05:00 0.0
2016_12_27_S22 12/28/2016 06:10:00 0.0
2016_12_27_S22 12/28/2016 06:15:00 0.0
2016_12_27_S22 12/28/2016 06:20:00 0.0
2016_12_27_S22 12/28/2016 06:25:00 0.0
2016_12_27_S22 12/28/2016 06:30:00 0.0
2016_12_27_S22 12/28/2016 06:35:00 0.0
2016_12_27_S22 12/28/2016 06:40:00 0.0
2016_12_27_S22 12/28/2016 06:45:00 0.0
2016_12_27_S22 12/28/2016 06:50:00 0.0
2016_12_27_S22 12/28/2016 06:55:00 0.0
2016_12_27_S22 12/28/2016 07:00:00 0.0
2016_12_27_S22 12/28/2016 07:05:00 0.0
2016_12_27_S22 12/28/2016 07:10:00 0.0
2016_12_27_S22 12/28/2016 07:15:00 0.0
2016_12_27_S22 12/28/2016 07:20:00 0.0
2016_12_27_S22 12/28/2016 07:25:00 0.0
2016_12_27_S22 12/28/2016 07:30:00 0.0
2016_12_27_S22 12/28/2016 07:35:00 0.0
2016_12_27_S22 12/28/2016 07:40:00 0.0
2016_12_27_S22 12/28/2016 07:45:00 0.0
2016_12_27_S22 12/28/2016 07:50:00 0.0
2016_12_27_S22 12/28/2016 07:55:00 0.0
2016_12_27_S22 12/28/2016 08:00:00 0.0

2016_12_27_S23 12/26/2016 08:00:00 0.0
2016_12_27_S23 12/26/2016 08:05:00 0.0
2016_12_27_S23 12/26/2016 08:10:00 0.0
2016_12_27_S23 12/26/2016 08:15:00 0.0
2016_12_27_S23 12/26/2016 08:20:00 0.0
2016_12_27_S23 12/26/2016 08:25:00 0.0
2016_12_27_S23 12/26/2016 08:30:00 0.0
2016_12_27_S23 12/26/2016 08:35:00 0.0
2016_12_27_S23 12/26/2016 08:40:00 0.0
2016_12_27_S23 12/26/2016 08:45:00 0.0
2016_12_27_S23 12/26/2016 08:50:00 0.0
2016_12_27_S23 12/26/2016 08:55:00 0.0
2016_12_27_S23 12/26/2016 09:00:00 0.0
2016_12_27_S23 12/26/2016 09:05:00 0.0
2016_12_27_S23 12/26/2016 09:10:00 0.0038
2016_12_27_S23 12/26/2016 09:15:00 0.0121
2016_12_27_S23 12/26/2016 09:20:00 0.0235
2016_12_27_S23 12/26/2016 09:25:00 0.0267
2016_12_27_S23 12/26/2016 09:30:00 0.0002
2016_12_27_S23 12/26/2016 09:35:00 0.0001
2016_12_27_S23 12/26/2016 09:40:00 0.0
2016_12_27_S23 12/26/2016 09:45:00 0.0
2016_12_27_S23 12/26/2016 09:50:00 0.0
2016_12_27_S23 12/26/2016 09:55:00 0.0
2016_12_27_S23 12/26/2016 10:00:00 0.0
2016_12_27_S23 12/26/2016 10:05:00 0.0
2016_12_27_S23 12/26/2016 10:10:00 0.0
2016_12_27_S23 12/26/2016 10:15:00 0.0
2016_12_27_S23 12/26/2016 10:20:00 0.0
2016_12_27_S23 12/26/2016 10:25:00 0.0024
2016_12_27_S23 12/26/2016 10:30:00 0.0
2016_12_27_S23 12/26/2016 10:35:00 0.0
2016_12_27_S23 12/26/2016 10:40:00 0.0
2016_12_27_S23 12/26/2016 10:45:00 0.0
2016_12_27_S23 12/26/2016 10:50:00 0.0
2016_12_27_S23 12/26/2016 10:55:00 0.0011
2016_12_27_S23 12/26/2016 11:00:00 0.0
2016_12_27_S23 12/26/2016 11:05:00 0.0
2016_12_27_S23 12/26/2016 11:10:00 0.0
2016_12_27_S23 12/26/2016 11:15:00 0.0
2016_12_27_S23 12/26/2016 11:20:00 0.0
2016_12_27_S23 12/26/2016 11:25:00 0.0
2016_12_27_S23 12/26/2016 11:30:00 0.0
2016_12_27_S23 12/26/2016 11:35:00 0.0
2016_12_27_S23 12/26/2016 11:40:00 0.0
2016_12_27_S23 12/26/2016 11:45:00 0.0
2016_12_27_S23 12/26/2016 11:50:00 0.0
2016_12_27_S23 12/26/2016 11:55:00 0.0
2016_12_27_S23 12/26/2016 12:00:00 0.1781
2016_12_27_S23 12/26/2016 12:05:00 0.0546
2016_12_27_S23 12/26/2016 12:10:00 0.1921
2016_12_27_S23 12/26/2016 12:15:00 0.0322
2016_12_27_S23 12/26/2016 12:20:00 0.0
2016_12_27_S23 12/26/2016 12:25:00 0.0
2016_12_27_S23 12/26/2016 12:30:00 0.0
2016_12_27_S23 12/26/2016 12:35:00 0.0
2016_12_27_S23 12/26/2016 12:40:00 0.0491
2016_12_27_S23 12/26/2016 12:45:00 0.0682
2016_12_27_S23 12/26/2016 12:50:00 0.0084
2016_12_27_S23 12/26/2016 12:55:00 0.0
2016_12_27_S23 12/26/2016 13:00:00 0.0
2016_12_27_S23 12/26/2016 13:05:00 0.0
2016_12_27_S23 12/26/2016 13:10:00 0.0
2016_12_27_S23 12/26/2016 13:15:00 0.0
2016_12_27_S23 12/26/2016 13:20:00 0.0
2016_12_27_S23 12/26/2016 13:25:00 0.0
2016_12_27_S23 12/26/2016 13:30:00 0.0
2016_12_27_S23 12/26/2016 13:35:00 0.0
2016_12_27_S23 12/26/2016 13:40:00 0.0
2016_12_27_S23 12/26/2016 13:45:00 0.0
2016_12_27_S23 12/26/2016 13:50:00 0.0
2016_12_27_S23 12/26/2016 13:55:00 0.0
2016_12_27_S23 12/26/2016 14:00:00 0.0
2016_12_27_S23 12/26/2016 14:05:00 0.0
2016_12_27_S23 12/26/2016 14:10:00 0.0
2016_12_27_S23 12/26/2016 14:15:00 0.0
2016_12_27_S23 12/26/2016 14:20:00 0.0
2016_12_27_S23 12/26/2016 14:25:00 0.0
2016_12_27_S23 12/26/2016 14:30:00 0.0
2016_12_27_S23 12/26/2016 14:35:00 0.0
2016_12_27_S23 12/26/2016 14:40:00 0.0
2016_12_27_S23 12/26/2016 14:45:00 0.0
2016_12_27_S23 12/26/2016 14:50:00 0.0
2016_12_27_S23 12/26/2016 14:55:00 0.0
2016_12_27_S23 12/26/2016 15:00:00 0.0
2016_12_27_S23 12/26/2016 15:05:00 0.0
2016_12_27_S23 12/26/2016 15:10:00 0.0
2016_12_27_S23 12/26/2016 15:15:00 0.0
2016_12_27_S23 12/26/2016 15:20:00 0.0
2016_12_27_S23 12/26/2016 15:25:00 0.0
2016_12_27_S23 12/26/2016 15:30:00 0.0
2016_12_27_S23 12/26/2016 15:35:00 0.0
2016_12_27_S23 12/26/2016 15:40:00 0.0
2016_12_27_S23 12/26/2016 15:45:00 0.0
2016_12_27_S23 12/26/2016 15:50:00 0.0
2016_12_27_S23 12/26/2016 15:55:00 0.0
2016_12_27_S23 12/26/2016 16:00:00 0.0
2016_12_27_S23 12/26/2016 16:05:00 0.0
2016_12_27_S23 12/26/2016 16:10:00 0.0
2016_12_27_S23 12/26/2016 16:15:00 0.0
2016_12_27_S23 12/26/2016 16:20:00 0.0
2016_12_27_S23 12/26/2016 16:25:00 0.0
2016_12_27_S23 12/26/2016 16:30:00 0.0
2016_12_27_S23 12/26/2016 16:35:00 0.0
2016_12_27_S23 12/26/2016 16:40:00 0.0
2016_12_27_S23 12/26/2016 16:45:00 0.0
2016_12_27_S23 12/26/2016 16:50:00 0.0
2016_12_27_S23 12/26/2016 16:55:00 0.0
2016_12_27_S23 12/26/2016 17:00:00 0.0
2016_12_27_S23 12/26/2016 17:05:00 0.0
2016_12_27_S23 12/26/2016 17:10:00 0.0
2016_12_27_S23 12/26/2016 17:15:00 0.0
2016_12_27_S23 12/26/2016 17:20:00 0.0
2016_12_27_S23 12/26/2016 17:25:00 0.0
2016_12_27_S23 12/26/2016 17:30:00 0.0
2016_12_27_S23 12/26/2016 17:35:00 0.0
2016_12_27_S23 12/26/2016 17:40:00 0.0
2016_12_27_S23 12/26/2016 17:45:00 0.0
2016_12_27_S23 12/26/2016 17:50:00 0.0
2016_12_27_S23 12/26/2016 17:55:00 0.0
2016_12_27_S23 12/26/2016 18:00:00 0.0
2016_12_27_S23 12/26/2016 18:05:00 0.0
2016_12_27_S23 12/26/2016 18:10:00 0.0
2016_12_27_S23 12/26/2016 18:15:00 0.0
2016_12_27_S23 12/26/2016 18:20:00 0.0
2016_12_27_S23 12/26/2016 18:25:00 0.0
2016_12_27_S23 12/26/2016 18:30:00 0.0
2016_12_27_S23 12/26/2016 18:35:00 0.0
2016_12_27_S23 12/26/2016 18:40:00 0.0
2016_12_27_S23 12/26/2016 18:45:00 0.0
2016_12_27_S23 12/26/2016 18:50:00 0.0
2016_12_27_S23 12/26/2016 18:55:00 0.0
2016_12_27_S23 12/26/2016 19:00:00 0.0
2016_12_27_S23 12/26/2016 19:05:00 0.0
2016_12_27_S23 12/26/2016 19:10:00 0.0
2016_12_27_S23 12/26/2016 19:15:00 0.0
2016_12_27_S23 12/26/2016 19:20:00 0.0
2016_12_27_S23 12/26/2016 19:25:00 0.0
2016_12_27_S23 12/26/2016 19:30:00 0.0
2016_12_27_S23 12/26/2016 19:35:00 0.0
2016_12_27_S23 12/26/2016 19:40:00 0.0
2016_12_27_S23 12/26/2016 19:45:00 0.0
2016_12_27_S23 12/26/2016 19:50:00 0.0
2016_12_27_S23 12/26/2016 19:55:00 0.0
2016_12_27_S23 12/26/2016 20:00:00 0.0
2016_12_27_S23 12/26/2016 20:05:00 0.0
2016_12_27_S23 12/26/2016 20:10:00 0.0
2016_12_27_S23 12/26/2016 20:15:00 0.0
2016_12_27_S23 12/26/2016 20:20:00 0.0
2016_12_27_S23 12/26/2016 20:25:00 0.0
2016_12_27_S23 12/26/2016 20:30:00 0.0
2016_12_27_S23 12/26/2016 20:35:00 0.0
2016_12_27_S23 12/26/2016 20:40:00 0.0
2016_12_27_S23 12/26/2016 20:45:00 0.0
2016_12_27_S23 12/26/2016 20:50:00 0.0
2016_12_27_S23 12/26/2016 20:55:00 0.0
2016_12_27_S23 12/26/2016 21:00:00 0.0
2016_12_27_S23 12/26/2016 21:05:00 0.0
2016_12_27_S23 12/26/2016 21:10:00 0.0
2016_12_27_S23 12/26/2016 21:15:00 0.0
2016_12_27_S23 12/26/2016 21:20:00 0.0
2016_12_27_S23 12/26/2016 21:25:00 0.0
2016_12_27_S23 12/26/2016 21:30:00 0.0
2016_12_27_S23 12/26/2016 21:35:00 0.0
2016_12_27_S23 12/26/2016 21:40:00 0.0
2016_12_27_S23 12/26/2016 21:45:00 0.0
2016_12_27_S23 12/26/2016 21:50:00 0.0
2016_12_27_S23 12/26/2016 21:55:00 0.0
2016_12_27_S23 12/26/2016 22:00:00 0.0
2016_12_27_S23 12/26/2016 22:05:00 0.0
2016_12_27_S23 12/26/2016 22:10:00 0.0
2016_12_27_S23 12/26/2016 22:15:00 0.0
2016_12_27_S23 12/26/2016 22:20:00 0.0
2016_12_27_S23 12/26/2016 22:25:00 0.0
2016_12_27_S23 12/26/2016 22:30:00 0.0
2016_12_27_S23 12/26/2016 22:35:00 0.0
2016_12_27_S23 12/26/2016 22:40:00 0.0
2016_12_27_S23 12/26/2016 22:45:00 0.0
2016_12_27_S23 12/26/2016 22:50:00 0.0
2016_12_27_S23 12/26/2016 22:55:00 0.0
2016_12_27_S23 12/26/2016 23:00:00 0.0
2016_12_27_S23 12/26/2016 23:05:00 0.0
2016_12_27_S23 12/26/2016 23:10:00 0.0
2016_12_27_S23 12/26/2016 23:15:00 0.0
2016_12_27_S23 12/26/2016 23:20:00 0.0
2016_12_27_S23 12/26/2016 23:25:00 0.0
2016_12_27_S23 12/26/2016 23:30:00 0.0
2016_12_27_S23 12/26/2016 23:35:00 0.0
2016_12_27_S23 12/26/2016 23:40:00 0.0
2016_12_27_S23 12/26/2016 23:45:00 0.0
2016_12_27_S23 12/26/2016 23:50:00 0.0
2016_12_27_S23 12/26/2016 23:55:00 0.0
2016_12_27_S23 12/27/2016 00:00:00 0.0
2016_12_27_S23 12/27/2016 00:05:00 0.0
2016_12_27_S23 12/27/2016 00:10:00 0.0
2016_12_27_S23 12/27/2016 00:15:00 0.0
2016_12_27_S23 12/27/2016 00:20:00 0.0
2016_12_27_S23 12/27/2016 00:25:00 0.0
2016_12_27_S23 12/27/2016 00:30:00 0.0
2016_12_27_S23 12/27/2016 00:35:00 0.0
2016_12_27_S23 12/27/2016 00:40:00 0.0
2016_12_27_S23 12/27/2016 00:45:00 0.0
2016_12_27_S23 12/27/2016 00:50:00 0.0
2016_12_27_S23 12/27/2016 00:55:00 0.0
2016_12_27_S23 12/27/2016 01:00:00 0.0006
2016_12_27_S23 12/27/2016 01:05:00 0.0
2016_12_27_S23 12/27/2016 01:10:00 0.0
2016_12_27_S23 12/27/2016 01:15:00 0.0125
2016_12_27_S23 12/27/2016 01:20:00 0.0062
2016_12_27_S23 12/27/2016 01:25:00 0.0293
2016_12_27_S23 12/27/2016 01:30:00 0.1059
2016_12_27_S23 12/27/2016 01:35:00 0.5394
2016_12_27_S23 12/27/2016 01:40:00 0.2516
2016_12_27_S23 12/27/2016 01:45:00 0.5332
2016_12_27_S23 12/27/2016 01:50:00 1.185
2016_12_27_S23 12/27/2016 01:55:00 0.4759
2016_12_27_S23 12/27/2016 02:00:00 0.1615
2016_12_27_S23 12/27/2016 02:05:00 0.0136
2016_12_27_S23 12/27/2016 02:10:00 0.0375
2016_12_27_S23 12/27/2016 02:15:00 0.0952
2016_12_27_S23 12/27/2016 02:20:00 0.1726
2016_12_27_S23 12/27/2016 02:25:00 0.1241
2016_12_27_S23 12/27/2016 02:30:00 0.3026
2016_12_27_S23 12/27/2016 02:35:00 0.1405
2016_12_27_S23 12/27/2016 02:40:00 0.1375
2016_12_27_S23 12/27/2016 02:45:00 0.2166
2016_12_27_S23 12/27/2016 02:50:00 0.484
2016_12_27_S23 12/27/2016 02:55:00 0.2509
2016_12_27_S23 12/27/2016 03:00:00 0.4632
2016_12_27_S23 12/27/2016 03:05:00 0.5337
2016_12_27_S23 12/27/2016 03:10:00 0.5538
2016_12_27_S23 12/27/2016 03:15:00 0.7718
2016_12_27_S23 12/27/2016 03:20:00 1.04
2016_12_27_S23 12/27/2016 03:25:00 0.6568
2016_12_27_S23 12/27/2016 03:30:00 0.8152
2016_12_27_S23 12/27/2016 03:35:00 0.7233
2016_12_27_S23 12/27/2016 03:40:00 0.5266
2016_12_27_S23 12/27/2016 03:45:00 0.1773
2016_12_27_S23 12/27/2016 03:50:00 0.2081
2016_12_27_S23 12/27/2016 03:55:00 0.4488
2016_12_27_S23 12/27/2016 04:00:00 0.2786
2016_12_27_S23 12/27/2016 04:05:00 0.0889
2016_12_27_S23 12/27/2016 04:10:00 0.2226
2016_12_27_S23 12/27/2016 04:15:00 0.1537
2016_12_27_S23 12/27/2016 04:20:00 0.0477
2016_12_27_S23 12/27/2016 04:25:00 0.0715
2016_12_27_S23 12/27/2016 04:30:00 0.0308
2016_12_27_S23 12/27/2016 04:35:00 0.0633
2016_12_27_S23 12/27/2016 04:40:00 0.0304
2016_12_27_S23 12/27/2016 04:45:00 0.0288
2016_12_27_S23 12/27/2016 04:50:00 0.0928
2016_12_27_S23 12/27/2016 04:55:00 0.3235
2016_12_27_S23 12/27/2016 05:00:00 0.3132
2016_12_27_S23 12/27/2016 05:05:00 0.2437
2016_12_27_S23 12/27/2016 05:10:00 0.1504
2016_12_27_S23 12/27/2016 05:15:00 0.2358
2016_12_27_S23 12/27/2016 05:20:00 0.2616
2016_12_27_S23 12/27/2016 05:25:00 0.0718
2016_12_27_S23 12/27/2016 05:30:00 0.0008
2016_12_27_S23 12/27/2016 05:35:00 0.0
2016_12_27_S23 12/27/2016 05:40:00 0.0
2016_12_27_S23 12/27/2016 05:45:00 0.0
2016_12_27_S23 12/27/2016 05:50:00 0.0
2016_12_27_S23 12/27/2016 05:55:00 0.0
2016_12_27_S23 12/27/2016 06:00:00 0.0
2016_12_27_S23 12/27/2016 06:05:00 0.0
2016_12_27_S23 12/27/2016 06:10:00 0.0
2016_12_27_S23 12/27/2016 06:15:00 0.0
2016_12_27_S23 12/27/2016 06:20:00 0.0
2016_12_27_S23 12/27/2016 06:25:00 0.0
2016_12_27_S23 12/27/2016 06:30:00 0.0
2016_12_27_S23 12/27/2016 06:35:00 0.0
2016_12_27_S23 12/27/2016 06:40:00 0.0004
2016_12_27_S23 12/27/2016 06:45:00 0.103
2016_12_27_S23 12/27/2016 06:50:00 0.008
2016_12_27_S23 12/27/2016 06:55:00 0.0165
2016_12_27_S23 12/27/2016 07:00:00 0.1476
2016_12_27_S23 12/27/2016 07:05:00 0.1
2016_12_27_S23 12/27/2016 07:10:00 0.3508
2016_12_27_S23 12/27/2016 07:15:00 0.5984
2016_12_27_S23 12/27/2016 07:20:00 0.604
2016_12_27_S23 12/27/2016 07:25:00 0.3862
2016_12_27_S23 12/27/2016 07:30:00 0.6742
2016_12_27_S23 12/27/2016 07:35:00 0.3781
2016_12_27_S23 12/27/2016 07:40:00 0.1754
2016_12_27_S23 12/27/2016 07:45:00 0.2248
2016_12_27_S23 12/27/2016 07:50:00 0.8148
2016_12_27_S23 12/27/2016 07:55:00 1.6103
2016_12_27_S23 12/27/2016 08:00:00 0.9249
2016_12_27_S23 12/27/2016 08:05:00 0.4175
2016_12_27_S23 12/27/2016 08:10:00 0.5755
2016_12_27_S23 12/27/2016 08:15:00 0.3617
2016_12_27_S23 12/27/2016 08:20:00 0.351
2016_12_27_S23 12/27/2016 08:25:00 0.6197
2016_12_27_S23 12/27/2016 08:30:00 0.0071
2016_12_27_S23 12/27/2016 08:35:00 0.0508
2016_12_27_S23 12/27/2016 08:40:00 0.2449
2016_12_27_S23 12/27/2016 08:45:00 0.8368
2016_12_27_S23 12/27/2016 08:50:00 0.8707
2016_12_27_S23 12/27/2016 08:55:00 0.4551
2016_12_27_S23 12/27/2016 09:00:00 0.5121
2016_12_27_S23 12/27/2016 09:05:00 0.6805
2016_12_27_S23 12/27/2016 09:10:00 0.3289
2016_12_27_S23 12/27/2016 09:15:00 0.2589
2016_12_27_S23 12/27/2016 09:20:00 0.4961
2016_12_27_S23 12/27/2016 09:25:00 1.3851
2016_12_27_S23 12/27/2016 09:30:00 0.2111
2016_12_27_S23 12/27/2016 09:35:00 0.2236
2016_12_27_S23 12/27/2016 09:40:00 0.3861
2016_12_27_S23 12/27/2016 09:45:00 0.4386
2016_12_27_S23 12/27/2016 09:50:00 0.297
2016_12_27_S23 12/27/2016 09:55:00 0.0
2016_12_27_S23 12/27/2016 10:00:00 0.0198
2016_12_27_S23 12/27/2016 10:05:00 0.3819
2016_12_27_S23 12/27/2016 10:10:00 0.9279
2016_12_27_S23 12/27/2016 10:15:00 0.35
2016_12_27_S23 12/27/2016 10:20:00 0.093
2016_12_27_S23 12/27/2016 10:25:00 0.1113
2016_12_27_S23 12/27/2016 10:30:00 0.0252
2016_12_27_S23 12/27/2016 10:35:00 0.0264
2016_12_27_S23 12/27/2016 10:40:00 0.0251
2016_12_27_S23 12/27/2016 10:45:00 0.4032
2016_12_27_S23 12/27/2016 10:50:00 0.5588
2016_12_27_S23 12/27/2016 10:55:00 0.2457
2016_12_27_S23 12/27/2016 11:00:00 0.2159
2016_12_27_S23 12/27/2016 11:05:00 0.248
2016_12_27_S23 12/27/2016 11:10:00 0.0847
2016_12_27_S23 12/27/2016 11:15:00 0.142
2016_12_27_S23 12/27/2016 11:20:00 0.16
2016_12_27_S23 12/27/2016 11:25:00 0.3731
2016_12_27_S23 12/27/2016 11:30:00 0.6259
2016_12_27_S23 12/27/2016 11:35:00 0.6212
2016_12_27_S23 12/27/2016 11:40:00 0.8159
2016_12_27_S23 12/27/2016 11:45:00 0.4547
2016_12_27_S23 12/27/2016 11:50:00 1.522
2016_12_27_S23 12/27/2016 11:55:00 1.7798
2016_12_27_S23 12/27/2016 12:00:00 0.4099
2016_12_27_S23 12/27/2016 12:05:00 0.6143
2016_12_27_S23 12/27/2016 12:10:00 0.2873
2016_12_27_S23 12/27/2016 12:15:00 0.5637
2016_12_27_S23 12/27/2016 12:20:00 0.2246
2016_12_27_S23 12/27/2016 12:25:00 0.1326
2016_12_27_S23 12/27/2016 12:30:00 0.3695
2016_12_27_S23 12/27/2016 12:35:00 0.0579
2016_12_27_S23 12/27/2016 12:40:00 0.0414
2016_12_27_S23 12/27/2016 12:45:00 0.0416
2016_12_27_S23 12/27/2016 12:50:00 0.0239
2016_12_27_S23 12/27/2016 12:55:00 0.0044
2016_12_27_S23 12/27/2016 13:00:00 0.0378
2016_12_27_S23 12/27/2016 13:05:00 0.0477
2016_12_27_S23 12/27/2016 13:10:00 0.0003
2016_12_27_S23 12/27/2016 13:15:00 0.0
2016_12_27_S23 12/27/2016 13:20:00 0.0
2016_12_27_S23 12/27/2016 13:25:00 0.0
2016_12_27_S23 12/27/2016 13:30:00 0.0988
2016_12_27_S23 12/27/2016 13:35:00 0.2317
2016_12_27_S23 12/27/2016 13:40:00 0.1453
2016_12_27_S23 12/27/2016 13:45:00 0.1609
2016_12_27_S23 12/27/2016 13:50:00 0.3311
2016_12_27_S23 12/27/2016 13:55:00 0.011
2016_12_27_S23 12/27/2016 14:00:00 0.0549
2016_12_27_S23 12/27/2016 14:05:00 0.1359
2016_12_27_S23 12/27/2016 14:10:00 0.0447
2016_12_27_S23 12/27/2016 14:15:00 0.0006
2016_12_27_S23 12/27/2016 14:20:00 0.0248
2016_12_27_S23 12/27/2016 14:25:00 0.0164
2016_12_27_S23 12/27/2016 14:30:00 0.0307
2016_12_27_S23 12/27/2016 14:35:00 0.0
2016_12_27_S23 12/27/2016 14:40:00 0.0
2016_12_27_S23 12/27/2016 14:45:00 0.0
2016_12_27_S23 12/27/2016 14:50:00 0.0
2016_12_27_S23 12/27/2016 14:55:00 0.0
2016_12_27_S23 12/27/2016 15:00:00 0.0
2016_12_27_S23 12/27/2016 15:05:00 0.0
2016_12_27_S23 12/27/2016 15:10:00 0.0
2016_12_27_S23 12/27/2016 15:15:00 0.0
2016_12_27_S23 12/27/2016 15:20:00 0.0008
2016_12_27_S23 12/27/2016 15:25:00 0.0031
2016_12_27_S23 12/27/2016 15:30:00 0.0
2016_12_27_S23 12/27/2016 15:35:00 0.0
2016_12_27_S23 12/27/2016 15:40:00 0.0
2016_12_27_S23 12/27/2016 15:45:00 0.0
2016_12_27_S23 12/27/2016 15:50:00 0.0
2016_12_27_S23 12/27/2016 15:55:00 0.0001
2016_12_27_S23 12/27/2016 16:00:00 0.1063
2016_12_27_S23 12/27/2016 16:05:00 0.7099
2016_12_27_S23 12/27/2016 16:10:00 0.0023
2016_12_27_S23 12/27/2016 16:15:00 0.0
2016_12_27_S23 12/27/2016 16:20:00 0.0008
2016_12_27_S23 12/27/2016 16:25:00 0.0003
2016_12_27_S23 12/27/2016 16:30:00 0.0
2016_12_27_S23 12/27/2016 16:35:00 0.0
2016_12_27_S23 12/27/2016 16:40:00 0.063
2016_12_27_S23 12/27/2016 16:45:00 0.0003
2016_12_27_S23 12/27/2016 16:50:00 0.0004
2016_12_27_S23 12/27/2016 16:55:00 0.0
2016_12_27_S23 12/27/2016 17:00:00 0.0
2016_12_27_S23 12/27/2016 17:05:00 0.0
2016_12_27_S23 12/27/2016 17:10:00 0.0
2016_12_27_S23 12/27/2016 17:15:00 0.0
2016_12_27_S23 12/27/2016 17:20:00 0.0
2016_12_27_S23 12/27/2016 17:25:00 0.0
2016_12_27_S23 12/27/2016 17:30:00 0.0
2016_12_27_S23 12/27/2016 17:35:00 0.0
2016_12_27_S23 12/27/2016 17:40:00 0.0176
2016_12_27_S23 12/27/2016 17:45:00 0.1918
2016_12_27_S23 12/27/2016 17:50:00 0.1217
2016_12_27_S23 12/27/2016 17:55:00 0.0927
2016_12_27_S23 12/27/2016 18:00:00 0.0006
2016_12_27_S23 12/27/2016 18:05:00 0.0016
2016_12_27_S23 12/27/2016 18:10:00 0.0
2016_12_27_S23 12/27/2016 18:15:00 0.0
2016_12_27_S23 12/27/2016 18:20:00 0.0007
2016_12_27_S23 12/27/2016 18:25:00 0.8903
2016_12_27_S23 12/27/2016 18:30:00 0.0258
2016_12_27_S23 12/27/2016 18:35:00 0.02
2016_12_27_S23 12/27/2016 18:40:00 0.019
2016_12_27_S23 12/27/2016 18:45:00 0.0
2016_12_27_S23 12/27/2016 18:50:00 0.0
2016_12_27_S23 12/27/2016 18:55:00 0.0
2016_12_27_S23 12/27/2016 19:00:00 0.0
2016_12_27_S23 12/27/2016 19:05:00 0.0
2016_12_27_S23 12/27/2016 19:10:00 0.1563
2016_12_27_S23 12/27/2016 19:15:00 0.3036
2016_12_27_S23 12/27/2016 19:20:00 0.0
2016_12_27_S23 12/27/2016 19:25:00 0.0
2016_12_27_S23 12/27/2016 19:30:00 0.0009
2016_12_27_S23 12/27/2016 19:35:00 0.2016
2016_12_27_S23 12/27/2016 19:40:00 1.2211
2016_12_27_S23 12/27/2016 19:45:00 1.7607
2016_12_27_S23 12/27/2016 19:50:00 2.4876
2016_12_27_S23 12/27/2016 19:55:00 2.005
2016_12_27_S23 12/27/2016 20:00:00 0.1193
2016_12_27_S23 12/27/2016 20:05:00 0.04
2016_12_27_S23 12/27/2016 20:10:00 0.0
2016_12_27_S23 12/27/2016 20:15:00 0.0
2016_12_27_S23 12/27/2016 20:20:00 0.0033
2016_12_27_S23 12/27/2016 20:25:00 0.0006
2016_12_27_S23 12/27/2016 20:30:00 0.0004
2016_12_27_S23 12/27/2016 20:35:00 0.002
2016_12_27_S23 12/27/2016 20:40:00 0.0
2016_12_27_S23 12/27/2016 20:45:00 0.0
2016_12_27_S23 12/27/2016 20:50:00 0.0
2016_12_27_S23 12/27/2016 20:55:00 0.0
2016_12_27_S23 12/27/2016 21:00:00 0.0
2016_12_27_S23 12/27/2016 21:05:00 0.0
2016_12_27_S23 12/27/2016 21:10:00 0.0
2016_12_27_S23 12/27/2016 21:15:00 0.0
2016_12_27_S23 12/27/2016 21:20:00 0.0
2016_12_27_S23 12/27/2016 21:25:00 0.0
2016_12_27_S23 12/27/2016 21:30:00 0.0
2016_12_27_S23 12/27/2016 21:35:00 0.0
2016_12_27_S23 12/27/2016 21:40:00 0.0
2016_12_27_S23 12/27/2016 21:45:00 0.0
2016_12_27_S23 12/27/2016 21:50:00 0.0
2016_12_27_S23 12/27/2016 21:55:00 0.0
2016_12_27_S23 12/27/2016 22:00:00 0.0014
2016_12_27_S23 12/27/2016 22:05:00 0.0012
2016_12_27_S23 12/27/2016 22:10:00 0.017
2016_12_27_S23 12/27/2016 22:15:00 0.134
2016_12_27_S23 12/27/2016 22:20:00 0.0
2016_12_27_S23 12/27/2016 22:25:00 0.0
2016_12_27_S23 12/27/2016 22:30:00 0.0626
2016_12_27_S23 12/27/2016 22:35:00 0.0373
2016_12_27_S23 12/27/2016 22:40:00 0.1901
2016_12_27_S23 12/27/2016 22:45:00 0.0
2016_12_27_S23 12/27/2016 22:50:00 0.0048
2016_12_27_S23 12/27/2016 22:55:00 0.0004
2016_12_27_S23 12/27/2016 23:00:00 0.0
2016_12_27_S23 12/27/2016 23:05:00 0.0076
2016_12_27_S23 12/27/2016 23:10:00 0.0022
2016_12_27_S23 12/27/2016 23:15:00 0.0035
2016_12_27_S23 12/27/2016 23:20:00 0.0
2016_12_27_S23 12/27/2016 23:25:00 0.0069
2016_12_27_S23 12/27/2016 23:30:00 0.017
2016_12_27_S23 12/27/2016 23:35:00 0.0028
2016_12_27_S23 12/27/2016 23:40:00 0.0014
2016_12_27_S23 12/27/2016 23:45:00 0.0
2016_12_27_S23 12/27/2016 23:50:00 0.0
2016_12_27_S23 12/27/2016 23:55:00 0.0
2016_12_27_S23 12/28/2016 00:00:00 0.0
2016_12_27_S23 12/28/2016 00:05:00 0.0
2016_12_27_S23 12/28/2016 00:10:00 0.0
2016_12_27_S23 12/28/2016 00:15:00 0.0
2016_12_27_S23 12/28/2016 00:20:00 0.0
2016_12_27_S23 12/28/2016 00:25:00 0.0
2016_12_27_S23 12/28/2016 00:30:00 0.0
2016_12_27_S23 12/28/2016 00:35:00 0.0
2016_12_27_S23 12/28/2016 00:40:00 0.0
2016_12_27_S23 12/28/2016 00:45:00 0.0
2016_12_27_S23 12/28/2016 00:50:00 0.0
2016_12_27_S23 12/28/2016 00:55:00 0.0
2016_12_27_S23 12/28/2016 01:00:00 0.0
2016_12_27_S23 12/28/2016 01:05:00 0.0
2016_12_27_S23 12/28/2016 01:10:00 0.0
2016_12_27_S23 12/28/2016 01:15:00 0.0
2016_12_27_S23 12/28/2016 01:20:00 0.0
2016_12_27_S23 12/28/2016 01:25:00 0.0
2016_12_27_S23 12/28/2016 01:30:00 0.0
2016_12_27_S23 12/28/2016 01:35:00 0.0
2016_12_27_S23 12/28/2016 01:40:00 0.0
2016_12_27_S23 12/28/2016 01:45:00 0.0
2016_12_27_S23 12/28/2016 01:50:00 0.0
2016_12_27_S23 12/28/2016 01:55:00 0.0
2016_12_27_S23 12/28/2016 02:00:00 0.0
2016_12_27_S23 12/28/2016 02:05:00 0.0
2016_12_27_S23 12/28/2016 02:10:00 0.0
2016_12_27_S23 12/28/2016 02:15:00 0.0
2016_12_27_S23 12/28/2016 02:20:00 0.0
2016_12_27_S23 12/28/2016 02:25:00 0.0
2016_12_27_S23 12/28/2016 02:30:00 0.0
2016_12_27_S23 12/28/2016 02:35:00 0.0
2016_12_27_S23 12/28/2016 02:40:00 0.0
2016_12_27_S23 12/28/2016 02:45:00 0.0
2016_12_27_S23 12/28/2016 02:50:00 0.0
2016_12_27_S23 12/28/2016 02:55:00 0.0
2016_12_27_S23 12/28/2016 03:00:00 0.0
2016_12_27_S23 12/28/2016 03:05:00 0.0
2016_12_27_S23 12/28/2016 03:10:00 0.0
2016_12_27_S23 12/28/2016 03:15:00 0.0
2016_12_27_S23 12/28/2016 03:20:00 0.0
2016_12_27_S23 12/28/2016 03:25:00 0.0
2016_12_27_S23 12/28/2016 03:30:00 0.0
2016_12_27_S23 12/28/2016 03:35:00 0.0
2016_12_27_S23 12/28/2016 03:40:00 0.0
2016_12_27_S23 12/28/2016 03:45:00 0.0
2016_12_27_S23 12/28/2016 03:50:00 0.0
2016_12_27_S23 12/28/2016 03:55:00 0.0
2016_12_27_S23 12/28/2016 04:00:00 0.0
2016_12_27_S23 12/28/2016 04:05:00 0.0
2016_12_27_S23 12/28/2016 04:10:00 0.0
2016_12_27_S23 12/28/2016 04:15:00 0.0
2016_12_27_S23 12/28/2016 04:20:00 0.0
2016_12_27_S23 12/28/2016 04:25:00 0.0
2016_12_27_S23 12/28/2016 04:30:00 0.0
2016_12_27_S23 12/28/2016 04:35:00 0.0
2016_12_27_S23 12/28/2016 04:40:00 0.0
2016_12_27_S23 12/28/2016 04:45:00 0.0
2016_12_27_S23 12/28/2016 04:50:00 0.0
2016_12_27_S23 12/28/2016 04:55:00 0.0
2016_12_27_S23 12/28/2016 05:00:00 0.0
2016_12_27_S23 12/28/2016 05:05:00 0.0
2016_12_27_S23 12/28/2016 05:10:00 0.0
2016_12_27_S23 12/28/2016 05:15:00 0.0
2016_12_27_S23 12/28/2016 05:20:00 0.0
2016_12_27_S23 12/28/2016 05:25:00 0.0
2016_12_27_S23 12/28/2016 05:30:00 0.0
2016_12_27_S23 12/28/2016 05:35:00 0.0
2016_12_27_S23 12/28/2016 05:40:00 0.0
2016_12_27_S23 12/28/2016 05:45:00 0.0
2016_12_27_S23 12/28/2016 05:50:00 0.0
2016_12_27_S23 12/28/2016 05:55:00 0.0
2016_12_27_S23 12/28/2016 06:00:00 0.0
2016_12_27_S23 12/28/2016 06:05:00 0.0
2016_12_27_S23 12/28/2016 06:10:00 0.0
2016_12_27_S23 12/28/2016 06:15:00 0.0
2016_12_27_S23 12/28/2016 06:20:00 0.0
2016_12_27_S23 12/28/2016 06:25:00 0.0
2016_12_27_S23 12/28/2016 06:30:00 0.0
2016_12_27_S23 12/28/2016 06:35:00 0.0
2016_12_27_S23 12/28/2016 06:40:00 0.0
2016_12_27_S23 12/28/2016 06:45:00 0.0
2016_12_27_S23 12/28/2016 06:50:00 0.0
2016_12_27_S23 12/28/2016 06:55:00 0.0
2016_12_27_S23 12/28/2016 07:00:00 0.0
2016_12_27_S23 12/28/2016 07:05:00 0.0
2016_12_27_S23 12/28/2016 07:10:00 0.0
2016_12_27_S23 12/28/2016 07:15:00 0.0
2016_12_27_S23 12/28/2016 07:20:00 0.0
2016_12_27_S23 12/28/2016 07:25:00 0.0
2016_12_27_S23 12/28/2016 07:30:00 0.0
2016_12_27_S23 12/28/2016 07:35:00 0.0
2016_12_27_S23 12/28/2016 07:40:00 0.0
2016_12_27_S23 12/28/2016 07:45:00 0.0
2016_12_27_S23 12/28/2016 07:50:00 0.0
2016_12_27_S23 12/28/2016 07:55:00 0.0
2016_12_27_S23 12/28/2016 08:00:00 0.0

2016_12_27_S24 12/26/2016 08:00:00 0.0
2016_12_27_S24 12/26/2016 08:05:00 0.0
2016_12_27_S24 12/26/2016 08:10:00 0.0
2016_12_27_S24 12/26/2016 08:15:00 0.0
2016_12_27_S24 12/26/2016 08:20:00 0.0
2016_12_27_S24 12/26/2016 08:25:00 0.0
2016_12_27_S24 12/26/2016 08:30:00 0.0
2016_12_27_S24 12/26/2016 08:35:00 0.0
2016_12_27_S24 12/26/2016 08:40:00 0.0
2016_12_27_S24 12/26/2016 08:45:00 0.0
2016_12_27_S24 12/26/2016 08:50:00 0.0
2016_12_27_S24 12/26/2016 08:55:00 0.0
2016_12_27_S24 12/26/2016 09:00:00 0.0
2016_12_27_S24 12/26/2016 09:05:00 0.0
2016_12_27_S24 12/26/2016 09:10:00 0.015
2016_12_27_S24 12/26/2016 09:15:00 0.0082
2016_12_27_S24 12/26/2016 09:20:00 0.0136
2016_12_27_S24 12/26/2016 09:25:00 0.024
2016_12_27_S24 12/26/2016 09:30:00 0.0
2016_12_27_S24 12/26/2016 09:35:00 0.0
2016_12_27_S24 12/26/2016 09:40:00 0.0
2016_12_27_S24 12/26/2016 09:45:00 0.0
2016_12_27_S24 12/26/2016 09:50:00 0.0
2016_12_27_S24 12/26/2016 09:55:00 0.0
2016_12_27_S24 12/26/2016 10:00:00 0.0
2016_12_27_S24 12/26/2016 10:05:00 0.0
2016_12_27_S24 12/26/2016 10:10:00 0.0
2016_12_27_S24 12/26/2016 10:15:00 0.0
2016_12_27_S24 12/26/2016 10:20:00 0.0013
2016_12_27_S24 12/26/2016 10:25:00 0.0036
2016_12_27_S24 12/26/2016 10:30:00 0.0
2016_12_27_S24 12/26/2016 10:35:00 0.0
2016_12_27_S24 12/26/2016 10:40:00 0.0
2016_12_27_S24 12/26/2016 10:45:00 0.0
2016_12_27_S24 12/26/2016 10:50:00 0.0
2016_12_27_S24 12/26/2016 10:55:00 0.0
2016_12_27_S24 12/26/2016 11:00:00 0.0
2016_12_27_S24 12/26/2016 11:05:00 0.0
2016_12_27_S24 12/26/2016 11:10:00 0.0
2016_12_27_S24 12/26/2016 11:15:00 0.0
2016_12_27_S24 12/26/2016 11:20:00 0.0
2016_12_27_S24 12/26/2016 11:25:00 0.0
2016_12_27_S24 12/26/2016 11:30:00 0.0
2016_12_27_S24 12/26/2016 11:35:00 0.0
2016_12_27_S24 12/26/2016 11:40:00 0.0
2016_12_27_S24 12/26/2016 11:45:00 0.0
2016_12_27_S24 12/26/2016 11:50:00 0.0
2016_12_27_S24 12/26/2016 11:55:00 0.0
2016_12_27_S24 12/26/2016 12:00:00 0.2226
2016_12_27_S24 12/26/2016 12:05:00 0.0403
2016_12_27_S24 12/26/2016 12:10:00 0.1403
2016_12_27_S24 12/26/2016 12:15:00 0.0192
2016_12_27_S24 12/26/2016 12:20:00 0.0
2016_12_27_S24 12/26/2016 12:25:00 0.0
2016_12_27_S24 12/26/2016 12:30:00 0.0
2016_12_27_S24 12/26/2016 12:35:00 0.0
2016_12_27_S24 12/26/2016 12:40:00 0.0403
2016_12_27_S24 12/26/2016 12:45:00 0.0781
2016_12_27_S24 12/26/2016 12:50:00 0.0034
2016_12_27_S24 12/26/2016 12:55:00 0.0
2016_12_27_S24 12/26/2016 13:00:00 0.0
2016_12_27_S24 12/26/2016 13:05:00 0.0
2016_12_27_S24 12/26/2016 13:10:00 0.0
2016_12_27_S24 12/26/2016 13:15:00 0.0
2016_12_27_S24 12/26/2016 13:20:00 0.0
2016_12_27_S24 12/26/2016 13:25:00 0.0
2016_12_27_S24 12/26/2016 13:30:00 0.0
2016_12_27_S24 12/26/2016 13:35:00 0.0
2016_12_27_S24 12/26/2016 13:40:00 0.0
2016_12_27_S24 12/26/2016 13:45:00 0.0
2016_12_27_S24 12/26/2016 13:50:00 0.0
2016_12_27_S24 12/26/2016 13:55:00 0.0
2016_12_27_S24 12/26/2016 14:00:00 0.0
2016_12_27_S24 12/26/2016 14:05:00 0.0
2016_12_27_S24 12/26/2016 14:10:00 0.0
2016_12_27_S24 12/26/2016 14:15:00 0.0
2016_12_27_S24 12/26/2016 14:20:00 0.0
2016_12_27_S24 12/26/2016 14:25:00 0.0
2016_12_27_S24 12/26/2016 14:30:00 0.0
2016_12_27_S24 12/26/2016 14:35:00 0.0
2016_12_27_S24 12/26/2016 14:40:00 0.0
2016_12_27_S24 12/26/2016 14:45:00 0.0
2016_12_27_S24 12/26/2016 14:50:00 0.0
2016_12_27_S24 12/26/2016 14:55:00 0.0
2016_12_27_S24 12/26/2016 15:00:00 0.0
2016_12_27_S24 12/26/2016 15:05:00 0.0
2016_12_27_S24 12/26/2016 15:10:00 0.0
2016_12_27_S24 12/26/2016 15:15:00 0.0
2016_12_27_S24 12/26/2016 15:20:00 0.0
2016_12_27_S24 12/26/2016 15:25:00 0.0
2016_12_27_S24 12/26/2016 15:30:00 0.0
2016_12_27_S24 12/26/2016 15:35:00 0.0
2016_12_27_S24 12/26/2016 15:40:00 0.0
2016_12_27_S24 12/26/2016 15:45:00 0.0
2016_12_27_S24 12/26/2016 15:50:00 0.0
2016_12_27_S24 12/26/2016 15:55:00 0.0
2016_12_27_S24 12/26/2016 16:00:00 0.0
2016_12_27_S24 12/26/2016 16:05:00 0.0
2016_12_27_S24 12/26/2016 16:10:00 0.0
2016_12_27_S24 12/26/2016 16:15:00 0.0
2016_12_27_S24 12/26/2016 16:20:00 0.0
2016_12_27_S24 12/26/2016 16:25:00 0.0
2016_12_27_S24 12/26/2016 16:30:00 0.0
2016_12_27_S24 12/26/2016 16:35:00 0.0
2016_12_27_S24 12/26/2016 16:40:00 0.0
2016_12_27_S24 12/26/2016 16:45:00 0.0
2016_12_27_S24 12/26/2016 16:50:00 0.0
2016_12_27_S24 12/26/2016 16:55:00 0.0
2016_12_27_S24 12/26/2016 17:00:00 0.0
2016_12_27_S24 12/26/2016 17:05:00 0.0
2016_12_27_S24 12/26/2016 17:10:00 0.0
2016_12_27_S24 12/26/2016 17:15:00 0.0
2016_12_27_S24 12/26/2016 17:20:00 0.0
2016_12_27_S24 12/26/2016 17:25:00 0.0
2016_12_27_S24 12/26/2016 17:30:00 0.0
2016_12_27_S24 12/26/2016 17:35:00 0.0
2016_12_27_S24 12/26/2016 17:40:00 0.0
2016_12_27_S24 12/26/2016 17:45:00 0.0
2016_12_27_S24 12/26/2016 17:50:00 0.0
2016_12_27_S24 12/26/2016 17:55:00 0.0
2016_12_27_S24 12/26/2016 18:00:00 0.0
2016_12_27_S24 12/26/2016 18:05:00 0.0
2016_12_27_S24 12/26/2016 18:10:00 0.0
2016_12_27_S24 12/26/2016 18:15:00 0.0
2016_12_27_S24 12/26/2016 18:20:00 0.0
2016_12_27_S24 12/26/2016 18:25:00 0.0
2016_12_27_S24 12/26/2016 18:30:00 0.0
2016_12_27_S24 12/26/2016 18:35:00 0.0
2016_12_27_S24 12/26/2016 18:40:00 0.0
2016_12_27_S24 12/26/2016 18:45:00 0.0
2016_12_27_S24 12/26/2016 18:50:00 0.0
2016_12_27_S24 12/26/2016 18:55:00 0.0
2016_12_27_S24 12/26/2016 19:00:00 0.0
2016_12_27_S24 12/26/2016 19:05:00 0.0
2016_12_27_S24 12/26/2016 19:10:00 0.0
2016_12_27_S24 12/26/2016 19:15:00 0.0
2016_12_27_S24 12/26/2016 19:20:00 0.0
2016_12_27_S24 12/26/2016 19:25:00 0.0
2016_12_27_S24 12/26/2016 19:30:00 0.0
2016_12_27_S24 12/26/2016 19:35:00 0.0
2016_12_27_S24 12/26/2016 19:40:00 0.0
2016_12_27_S24 12/26/2016 19:45:00 0.0
2016_12_27_S24 12/26/2016 19:50:00 0.0
2016_12_27_S24 12/26/2016 19:55:00 0.0
2016_12_27_S24 12/26/2016 20:00:00 0.0
2016_12_27_S24 12/26/2016 20:05:00 0.0
2016_12_27_S24 12/26/2016 20:10:00 0.0
2016_12_27_S24 12/26/2016 20:15:00 0.0
2016_12_27_S24 12/26/2016 20:20:00 0.0
2016_12_27_S24 12/26/2016 20:25:00 0.0
2016_12_27_S24 12/26/2016 20:30:00 0.0
2016_12_27_S24 12/26/2016 20:35:00 0.0
2016_12_27_S24 12/26/2016 20:40:00 0.0
2016_12_27_S24 12/26/2016 20:45:00 0.0
2016_12_27_S24 12/26/2016 20:50:00 0.0
2016_12_27_S24 12/26/2016 20:55:00 0.0
2016_12_27_S24 12/26/2016 21:00:00 0.0
2016_12_27_S24 12/26/2016 21:05:00 0.0
2016_12_27_S24 12/26/2016 21:10:00 0.0
2016_12_27_S24 12/26/2016 21:15:00 0.0
2016_12_27_S24 12/26/2016 21:20:00 0.0
2016_12_27_S24 12/26/2016 21:25:00 0.0
2016_12_27_S24 12/26/2016 21:30:00 0.0
2016_12_27_S24 12/26/2016 21:35:00 0.0
2016_12_27_S24 12/26/2016 21:40:00 0.0
2016_12_27_S24 12/26/2016 21:45:00 0.0
2016_12_27_S24 12/26/2016 21:50:00 0.0
2016_12_27_S24 12/26/2016 21:55:00 0.0
2016_12_27_S24 12/26/2016 22:00:00 0.0
2016_12_27_S24 12/26/2016 22:05:00 0.0
2016_12_27_S24 12/26/2016 22:10:00 0.0
2016_12_27_S24 12/26/2016 22:15:00 0.0
2016_12_27_S24 12/26/2016 22:20:00 0.0
2016_12_27_S24 12/26/2016 22:25:00 0.0
2016_12_27_S24 12/26/2016 22:30:00 0.0
2016_12_27_S24 12/26/2016 22:35:00 0.0
2016_12_27_S24 12/26/2016 22:40:00 0.0
2016_12_27_S24 12/26/2016 22:45:00 0.0
2016_12_27_S24 12/26/2016 22:50:00 0.0
2016_12_27_S24 12/26/2016 22:55:00 0.0
2016_12_27_S24 12/26/2016 23:00:00 0.0
2016_12_27_S24 12/26/2016 23:05:00 0.0
2016_12_27_S24 12/26/2016 23:10:00 0.0
2016_12_27_S24 12/26/2016 23:15:00 0.0
2016_12_27_S24 12/26/2016 23:20:00 0.0
2016_12_27_S24 12/26/2016 23:25:00 0.0
2016_12_27_S24 12/26/2016 23:30:00 0.0
2016_12_27_S24 12/26/2016 23:35:00 0.0
2016_12_27_S24 12/26/2016 23:40:00 0.0
2016_12_27_S24 12/26/2016 23:45:00 0.0
2016_12_27_S24 12/26/2016 23:50:00 0.0
2016_12_27_S24 12/26/2016 23:55:00 0.0
2016_12_27_S24 12/27/2016 00:00:00 0.0
2016_12_27_S24 12/27/2016 00:05:00 0.0
2016_12_27_S24 12/27/2016 00:10:00 0.0
2016_12_27_S24 12/27/2016 00:15:00 0.0
2016_12_27_S24 12/27/2016 00:20:00 0.0
2016_12_27_S24 12/27/2016 00:25:00 0.0
2016_12_27_S24 12/27/2016 00:30:00 0.0
2016_12_27_S24 12/27/2016 00:35:00 0.0
2016_12_27_S24 12/27/2016 00:40:00 0.0
2016_12_27_S24 12/27/2016 00:45:00 0.0
2016_12_27_S24 12/27/2016 00:50:00 0.0
2016_12_27_S24 12/27/2016 00:55:00 0.0
2016_12_27_S24 12/27/2016 01:00:00 0.0
2016_12_27_S24 12/27/2016 01:05:00 0.0
2016_12_27_S24 12/27/2016 01:10:00 0.0
2016_12_27_S24 12/27/2016 01:15:00 0.0128
2016_12_27_S24 12/27/2016 01:20:00 0.0093
2016_12_27_S24 12/27/2016 01:25:00 0.0675
2016_12_27_S24 12/27/2016 01:30:00 0.2504
2016_12_27_S24 12/27/2016 01:35:00 1.0061
2016_12_27_S24 12/27/2016 01:40:00 0.6744
2016_12_27_S24 12/27/2016 01:45:00 0.6706
2016_12_27_S24 12/27/2016 01:50:00 1.3469
2016_12_27_S24 12/27/2016 01:55:00 0.5911
2016_12_27_S24 12/27/2016 02:00:00 0.1523
2016_12_27_S24 12/27/2016 02:05:00 0.0208
2016_12_27_S24 12/27/2016 02:10:00 0.0248
2016_12_27_S24 12/27/2016 02:15:00 0.1138
2016_12_27_S24 12/27/2016 02:20:00 0.1761
2016_12_27_S24 12/27/2016 02:25:00 0.106
2016_12_27_S24 12/27/2016 02:30:00 0.1991
2016_12_27_S24 12/27/2016 02:35:00 0.1314
2016_12_27_S24 12/27/2016 02:40:00 0.2468
2016_12_27_S24 12/27/2016 02:45:00 0.2293
2016_12_27_S24 12/27/2016 02:50:00 0.4097
2016_12_27_S24 12/27/2016 02:55:00 0.3265
2016_12_27_S24 12/27/2016 03:00:00 0.4467
2016_12_27_S24 12/27/2016 03:05:00 0.3638
2016_12_27_S24 12/27/2016 03:10:00 0.3294
2016_12_27_S24 12/27/2016 03:15:00 0.6881
2016_12_27_S24 12/27/2016 03:20:00 1.0602
2016_12_27_S24 12/27/2016 03:25:00 0.6361
2016_12_27_S24 12/27/2016 03:30:00 0.9014
2016_12_27_S24 12/27/2016 03:35:00 0.4182
2016_12_27_S24 12/27/2016 03:40:00 0.3173
2016_12_27_S24 12/27/2016 03:45:00 0.1886
2016_12_27_S24 12/27/2016 03:50:00 0.1696
2016_12_27_S24 12/27/2016 03:55:00 0.4292
2016_12_27_S24 12/27/2016 04:00:00 0.2482
2016_12_27_S24 12/27/2016 04:05:00 0.1073
2016_12_27_S24 12/27/2016 04:10:00 0.3097
2016_12_27_S24 12/27/2016 04:15:00 0.1092
2016_12_27_S24 12/27/2016 04:20:00 0.0329
2016_12_27_S24 12/27/2016 04:25:00 0.0706
2016_12_27_S24 12/27/2016 04:30:00 0.0266
2016_12_27_S24 12/27/2016 04:35:00 0.0836
2016_12_27_S24 12/27/2016 04:40:00 0.0336
2016_12_27_S24 12/27/2016 04:45:00 0.0364
2016_12_27_S24 12/27/2016 04:50:00 0.1346
2016_12_27_S24 12/27/2016 04:55:00 0.3313
2016_12_27_S24 12/27/2016 05:00:00 0.2198
2016_12_27_S24 12/27/2016 05:05:00 0.1728
2016_12_27_S24 12/27/2016 05:10:00 0.1647
2016_12_27_S24 12/27/2016 05:15:00 0.2739
2016_12_27_S24 12/27/2016 05:20:00 0.1768
2016_12_27_S24 12/27/2016 05:25:00 0.0456
2016_12_27_S24 12/27/2016 05:30:00 0.0
2016_12_27_S24 12/27/2016 05:35:00 0.0
2016_12_27_S24 12/27/2016 05:40:00 0.0
2016_12_27_S24 12/27/2016 05:45:00 0.0
2016_12_27_S24 12/27/2016 05:50:00 0.0
2016_12_27_S24 12/27/2016 05:55:00 0.0
2016_12_27_S24 12/27/2016 06:00:00 0.0
2016_12_27_S24 12/27/2016 06:05:00 0.0
2016_12_27_S24 12/27/2016 06:10:00 0.0
2016_12_27_S24 12/27/2016 06:15:00 0.0
2016_12_27_S24 12/27/2016 06:20:00 0.0
2016_12_27_S24 12/27/2016 06:25:00 0.0
2016_12_27_S24 12/27/2016 06:30:00 0.0
2016_12_27_S24 12/27/2016 06:35:00 0.0
2016_12_27_S24 12/27/2016 06:40:00 0.001
2016_12_27_S24 12/27/2016 06:45:00 0.0586
2016_12_27_S24 12/27/2016 06:50:00 0.0085
2016_12_27_S24 12/27/2016 06:55:00 0.0308
2016_12_27_S24 12/27/2016 07:00:00 0.2462
2016_12_27_S24 12/27/2016 07:05:00 0.1439
2016_12_27_S24 12/27/2016 07:10:00 0.4917
2016_12_27_S24 12/27/2016 07:15:00 0.4985
2016_12_27_S24 12/27/2016 07:20:00 0.5611
2016_12_27_S24 12/27/2016 07:25:00 0.2778
2016_12_27_S24 12/27/2016 07:30:00 0.5512
2016_12_27_S24 12/27/2016 07:35:00 0.3061
2016_12_27_S24 12/27/2016 07:40:00 0.1773
2016_12_27_S24 12/27/2016 07:45:00 0.3364
2016_12_27_S24 12/27/2016 07:50:00 0.9409
2016_12_27_S24 12/27/2016 07:55:00 1.448
2016_12_27_S24 12/27/2016 08:00:00 0.7703
2016_12_27_S24 12/27/2016 08:05:00 0.1812
2016_12_27_S24 12/27/2016 08:10:00 0.4194
2016_12_27_S24 12/27/2016 08:15:00 0.279
2016_12_27_S24 12/27/2016 08:20:00 0.5027
2016_12_27_S24 12/27/2016 08:25:00 0.3368
2016_12_27_S24 12/27/2016 08:30:00 0.0193
2016_12_27_S24 12/27/2016 08:35:00 0.1063
2016_12_27_S24 12/27/2016 08:40:00 0.3083
2016_12_27_S24 12/27/2016 08:45:00 0.9468
2016_12_27_S24 12/27/2016 08:50:00 1.0953
2016_12_27_S24 12/27/2016 08:55:00 0.6939
2016_12_27_S24 12/27/2016 09:00:00 0.6763
2016_12_27_S24 12/27/2016 09:05:00 0.656
2016_12_27_S24 12/27/2016 09:10:00 0.7618
2016_12_27_S24 12/27/2016 09:15:00 0.2504
2016_12_27_S24 12/27/2016 09:20:00 0.9164
2016_12_27_S24 12/27/2016 09:25:00 1.0112
2016_12_27_S24 12/27/2016 09:30:00 0.1296
2016_12_27_S24 12/27/2016 09:35:00 0.1938
2016_12_27_S24 12/27/2016 09:40:00 0.3041
2016_12_27_S24 12/27/2016 09:45:00 0.3833
2016_12_27_S24 12/27/2016 09:50:00 0.2782
2016_12_27_S24 12/27/2016 09:55:00 0.0
2016_12_27_S24 12/27/2016 10:00:00 0.0075
2016_12_27_S24 12/27/2016 10:05:00 0.4846
2016_12_27_S24 12/27/2016 10:10:00 0.6734
2016_12_27_S24 12/27/2016 10:15:00 0.2521
2016_12_27_S24 12/27/2016 10:20:00 0.0565
2016_12_27_S24 12/27/2016 10:25:00 0.1233
2016_12_27_S24 12/27/2016 10:30:00 0.0262
2016_12_27_S24 12/27/2016 10:35:00 0.0357
2016_12_27_S24 12/27/2016 10:40:00 0.0133
2016_12_27_S24 12/27/2016 10:45:00 0.6769
2016_12_27_S24 12/27/2016 10:50:00 0.5066
2016_12_27_S24 12/27/2016 10:55:00 0.5275
2016_12_27_S24 12/27/2016 11:00:00 0.3545
2016_12_27_S24 12/27/2016 11:05:00 0.2481
2016_12_27_S24 12/27/2016 11:10:00 0.0858
2016_12_27_S24 12/27/2016 11:15:00 0.1872
2016_12_27_S24 12/27/2016 11:20:00 0.1617
2016_12_27_S24 12/27/2016 11:25:00 0.448
2016_12_27_S24 12/27/2016 11:30:00 0.4136
2016_12_27_S24 12/27/2016 11:35:00 0.5081
2016_12_27_S24 12/27/2016 11:40:00 0.8985
2016_12_27_S24 12/27/2016 11:45:00 0.4578
2016_12_27_S24 12/27/2016 11:50:00 1.5072
2016_12_27_S24 12/27/2016 11:55:00 1.5794
2016_12_27_S24 12/27/2016 12:00:00 0.4141
2016_12_27_S24 12/27/2016 12:05:00 0.5569
2016_12_27_S24 12/27/2016 12:10:00 0.1539
2016_12_27_S24 12/27/2016 12:15:00 0.4481
2016_12_27_S24 12/27/2016 12:20:00 0.1953
2016_12_27_S24 12/27/2016 12:25:00 0.0831
2016_12_27_S24 12/27/2016 12:30:00 0.2608
2016_12_27_S24 12/27/2016 12:35:00 0.0437
2016_12_27_S24 12/27/2016 12:40:00 0.0434
2016_12_27_S24 12/27/2016 12:45:00 0.0338
2016_12_27_S24 12/27/2016 12:50:00 0.0101
2016_12_27_S24 12/27/2016 12:55:00 0.0044
2016_12_27_S24 12/27/2016 13:00:00 0.0346
2016_12_27_S24 12/27/2016 13:05:00 0.0289
2016_12_27_S24 12/27/2016 13:10:00 0.0
2016_12_27_S24 12/27/2016 13:15:00 0.0
2016_12_27_S24 12/27/2016 13:20:00 0.0
2016_12_27_S24 12/27/2016 13:25:00 0.0
2016_12_27_S24 12/27/2016 13:30:00 0.1214
2016_12_27_S24 12/27/2016 13:35:00 0.2119
2016_12_27_S24 12/27/2016 13:40:00 0.1634
2016_12_27_S24 12/27/2016 13:45:00 0.1255
2016_12_27_S24 12/27/2016 13:50:00 0.2501
2016_12_27_S24 12/27/2016 13:55:00 0.0117
2016_12_27_S24 12/27/2016 14:00:00 0.0546
2016_12_27_S24 12/27/2016 14:05:00 0.1137
2016_12_27_S24 12/27/2016 14:10:00 0.0353
2016_12_27_S24 12/27/2016 14:15:00 0.0015
2016_12_27_S24 12/27/2016 14:20:00 0.0101
2016_12_27_S24 12/27/2016 14:25:00 0.0186
2016_12_27_S24 12/27/2016 14:30:00 0.0211
2016_12_27_S24 12/27/2016 14:35:00 0.0
2016_12_27_S24 12/27/2016 14:40:00 0.001
2016_12_27_S24 12/27/2016 14:45:00 0.0
2016_12_27_S24 12/27/2016 14:50:00 0.0
2016_12_27_S24 12/27/2016 14:55:00 0.0
2016_12_27_S24 12/27/2016 15:00:00 0.0
2016_12_27_S24 12/27/2016 15:05:00 0.0
2016_12_27_S24 12/27/2016 15:10:00 0.0
2016_12_27_S24 12/27/2016 15:15:00 0.0
2016_12_27_S24 12/27/2016 15:20:00 0.0
2016_12_27_S24 12/27/2016 15:25:00 0.0
2016_12_27_S24 12/27/2016 15:30:00 0.0
2016_12_27_S24 12/27/2016 15:35:00 0.0
2016_12_27_S24 12/27/2016 15:40:00 0.0
2016_12_27_S24 12/27/2016 15:45:00 0.0
2016_12_27_S24 12/27/2016 15:50:00 0.0
2016_12_27_S24 12/27/2016 15:55:00 0.0023
2016_12_27_S24 12/27/2016 16:00:00 0.1961
2016_12_27_S24 12/27/2016 16:05:00 0.1606
2016_12_27_S24 12/27/2016 16:10:00 0.0
2016_12_27_S24 12/27/2016 16:15:00 0.0
2016_12_27_S24 12/27/2016 16:20:00 0.0096
2016_12_27_S24 12/27/2016 16:25:00 0.0018
2016_12_27_S24 12/27/2016 16:30:00 0.0
2016_12_27_S24 12/27/2016 16:35:00 0.0
2016_12_27_S24 12/27/2016 16:40:00 0.0739
2016_12_27_S24 12/27/2016 16:45:00 0.002
2016_12_27_S24 12/27/2016 16:50:00 0.0
2016_12_27_S24 12/27/2016 16:55:00 0.0
2016_12_27_S24 12/27/2016 17:00:00 0.0
2016_12_27_S24 12/27/2016 17:05:00 0.0
2016_12_27_S24 12/27/2016 17:10:00 0.0
2016_12_27_S24 12/27/2016 17:15:00 0.0
2016_12_27_S24 12/27/2016 17:20:00 0.0
2016_12_27_S24 12/27/2016 17:25:00 0.0
2016_12_27_S24 12/27/2016 17:30:00 0.0
2016_12_27_S24 12/27/2016 17:35:00 0.0
2016_12_27_S24 12/27/2016 17:40:00 0.0226
2016_12_27_S24 12/27/2016 17:45:00 0.106
2016_12_27_S24 12/27/2016 17:50:00 0.1061
2016_12_27_S24 12/27/2016 17:55:00 0.042
2016_12_27_S24 12/27/2016 18:00:00 0.0041
2016_12_27_S24 12/27/2016 18:05:00 0.0031
2016_12_27_S24 12/27/2016 18:10:00 0.0
2016_12_27_S24 12/27/2016 18:15:00 0.0
2016_12_27_S24 12/27/2016 18:20:00 0.0112
2016_12_27_S24 12/27/2016 18:25:00 0.5001
2016_12_27_S24 12/27/2016 18:30:00 0.0157
2016_12_27_S24 12/27/2016 18:35:00 0.0201
2016_12_27_S24 12/27/2016 18:40:00 0.0198
2016_12_27_S24 12/27/2016 18:45:00 0.0
2016_12_27_S24 12/27/2016 18:50:00 0.0
2016_12_27_S24 12/27/2016 18:55:00 0.0
2016_12_27_S24 12/27/2016 19:00:00 0.0
2016_12_27_S24 12/27/2016 19:05:00 0.0
2016_12_27_S24 12/27/2016 19:10:00 0.2662
2016_12_27_S24 12/27/2016 19:15:00 0.0732
2016_12_27_S24 12/27/2016 19:20:00 0.0
2016_12_27_S24 12/27/2016 19:25:00 0.0
2016_12_27_S24 12/27/2016 19:30:00 0.0068
2016_12_27_S24 12/27/2016 19:35:00 0.3318
2016_12_27_S24 12/27/2016 19:40:00 1.4288
2016_12_27_S24 12/27/2016 19:45:00 2.2325
2016_12_27_S24 12/27/2016 19:50:00 2.7687
2016_12_27_S24 12/27/2016 19:55:00 0.7971
2016_12_27_S24 12/27/2016 20:00:00 0.0924
2016_12_27_S24 12/27/2016 20:05:00 0.0127
2016_12_27_S24 12/27/2016 20:10:00 0.0
2016_12_27_S24 12/27/2016 20:15:00 0.0
2016_12_27_S24 12/27/2016 20:20:00 0.0
2016_12_27_S24 12/27/2016 20:25:00 0.0025
2016_12_27_S24 12/27/2016 20:30:00 0.0026
2016_12_27_S24 12/27/2016 20:35:00 0.0031
2016_12_27_S24 12/27/2016 20:40:00 0.0
2016_12_27_S24 12/27/2016 20:45:00 0.0
2016_12_27_S24 12/27/2016 20:50:00 0.0
2016_12_27_S24 12/27/2016 20:55:00 0.0
2016_12_27_S24 12/27/2016 21:00:00 0.0
2016_12_27_S24 12/27/2016 21:05:00 0.0
2016_12_27_S24 12/27/2016 21:10:00 0.0
2016_12_27_S24 12/27/2016 21:15:00 0.0
2016_12_27_S24 12/27/2016 21:20:00 0.0
2016_12_27_S24 12/27/2016 21:25:00 0.0
2016_12_27_S24 12/27/2016 21:30:00 0.0
2016_12_27_S24 12/27/2016 21:35:00 0.0
2016_12_27_S24 12/27/2016 21:40:00 0.0
2016_12_27_S24 12/27/2016 21:45:00 0.0
2016_12_27_S24 12/27/2016 21:50:00 0.0
2016_12_27_S24 12/27/2016 21:55:00 0.0
2016_12_27_S24 12/27/2016 22:00:00 0.0034
2016_12_27_S24 12/27/2016 22:05:00 0.0
2016_12_27_S24 12/27/2016 22:10:00 0.0244
2016_12_27_S24 12/27/2016 22:15:00 0.0906
2016_12_27_S24 12/27/2016 22:20:00 0.0
2016_12_27_S24 12/27/2016 22:25:00 0.0017
2016_12_27_S24 12/27/2016 22:30:00 0.1356
2016_12_27_S24 12/27/2016 22:35:00 0.0904
2016_12_27_S24 12/27/2016 22:40:00 0.0577
2016_12_27_S24 12/27/2016 22:45:00 0.0
2016_12_27_S24 12/27/2016 22:50:00 0.0037
2016_12_27_S24 12/27/2016 22:55:00 0.0041
2016_12_27_S24 12/27/2016 23:00:00 0.0006
2016_12_27_S24 12/27/2016 23:05:00 0.0054
2016_12_27_S24 12/27/2016 23:10:00 0.0
2016_12_27_S24 12/27/2016 23:15:00 0.0024
2016_12_27_S24 12/27/2016 23:20:00 0.0
2016_12_27_S24 12/27/2016 23:25:00 0.0087
2016_12_27_S24 12/27/2016 23:30:00 0.0152
2016_12_27_S24 12/27/2016 23:35:00 0.0036
2016_12_27_S24 12/27/2016 23:40:00 0.0016
2016_12_27_S24 12/27/2016 23:45:00 0.0
2016_12_27_S24 12/27/2016 23:50:00 0.0
2016_12_27_S24 12/27/2016 23:55:00 0.0
2016_12_27_S24 12/28/2016 00:00:00 0.0
2016_12_27_S24 12/28/2016 00:05:00 0.0
2016_12_27_S24 12/28/2016 00:10:00 0.0
2016_12_27_S24 12/28/2016 00:15:00 0.0
2016_12_27_S24 12/28/2016 00:20:00 0.0
2016_12_27_S24 12/28/2016 00:25:00 0.0
2016_12_27_S24 12/28/2016 00:30:00 0.0
2016_12_27_S24 12/28/2016 00:35:00 0.0
2016_12_27_S24 12/28/2016 00:40:00 0.0
2016_12_27_S24 12/28/2016 00:45:00 0.0
2016_12_27_S24 12/28/2016 00:50:00 0.0
2016_12_27_S24 12/28/2016 00:55:00 0.0
2016_12_27_S24 12/28/2016 01:00:00 0.0
2016_12_27_S24 12/28/2016 01:05:00 0.0
2016_12_27_S24 12/28/2016 01:10:00 0.0
2016_12_27_S24 12/28/2016 01:15:00 0.0
2016_12_27_S24 12/28/2016 01:20:00 0.0
2016_12_27_S24 12/28/2016 01:25:00 0.0
2016_12_27_S24 12/28/2016 01:30:00 0.0
2016_12_27_S24 12/28/2016 01:35:00 0.0
2016_12_27_S24 12/28/2016 01:40:00 0.0
2016_12_27_S24 12/28/2016 01:45:00 0.0
2016_12_27_S24 12/28/2016 01:50:00 0.0
2016_12_27_S24 12/28/2016 01:55:00 0.0
2016_12_27_S24 12/28/2016 02:00:00 0.0
2016_12_27_S24 12/28/2016 02:05:00 0.0
2016_12_27_S24 12/28/2016 02:10:00 0.0
2016_12_27_S24 12/28/2016 02:15:00 0.0
2016_12_27_S24 12/28/2016 02:20:00 0.0
2016_12_27_S24 12/28/2016 02:25:00 0.0
2016_12_27_S24 12/28/2016 02:30:00 0.0
2016_12_27_S24 12/28/2016 02:35:00 0.0
2016_12_27_S24 12/28/2016 02:40:00 0.0
2016_12_27_S24 12/28/2016 02:45:00 0.0
2016_12_27_S24 12/28/2016 02:50:00 0.0
2016_12_27_S24 12/28/2016 02:55:00 0.0
2016_12_27_S24 12/28/2016 03:00:00 0.0
2016_12_27_S24 12/28/2016 03:05:00 0.0
2016_12_27_S24 12/28/2016 03:10:00 0.0
2016_12_27_S24 12/28/2016 03:15:00 0.0
2016_12_27_S24 12/28/2016 03:20:00 0.0
2016_12_27_S24 12/28/2016 03:25:00 0.0
2016_12_27_S24 12/28/2016 03:30:00 0.0
2016_12_27_S24 12/28/2016 03:35:00 0.0
2016_12_27_S24 12/28/2016 03:40:00 0.0
2016_12_27_S24 12/28/2016 03:45:00 0.0
2016_12_27_S24 12/28/2016 03:50:00 0.0
2016_12_27_S24 12/28/2016 03:55:00 0.0
2016_12_27_S24 12/28/2016 04:00:00 0.0
2016_12_27_S24 12/28/2016 04:05:00 0.0
2016_12_27_S24 12/28/2016 04:10:00 0.0
2016_12_27_S24 12/28/2016 04:15:00 0.0
2016_12_27_S24 12/28/2016 04:20:00 0.0
2016_12_27_S24 12/28/2016 04:25:00 0.0
2016_12_27_S24 12/28/2016 04:30:00 0.0
2016_12_27_S24 12/28/2016 04:35:00 0.0
2016_12_27_S24 12/28/2016 04:40:00 0.0
2016_12_27_S24 12/28/2016 04:45:00 0.0
2016_12_27_S24 12/28/2016 04:50:00 0.0
2016_12_27_S24 12/28/2016 04:55:00 0.0
2016_12_27_S24 12/28/2016 05:00:00 0.0
2016_12_27_S24 12/28/2016 05:05:00 0.0
2016_12_27_S24 12/28/2016 05:10:00 0.0
2016_12_27_S24 12/28/2016 05:15:00 0.0
2016_12_27_S24 12/28/2016 05:20:00 0.0
2016_12_27_S24 12/28/2016 05:25:00 0.0
2016_12_27_S24 12/28/2016 05:30:00 0.0
2016_12_27_S24 12/28/2016 05:35:00 0.0
2016_12_27_S24 12/28/2016 05:40:00 0.0
2016_12_27_S24 12/28/2016 05:45:00 0.0
2016_12_27_S24 12/28/2016 05:50:00 0.0
2016_12_27_S24 12/28/2016 05:55:00 0.0
2016_12_27_S24 12/28/2016 06:00:00 0.0
2016_12_27_S24 12/28/2016 06:05:00 0.0
2016_12_27_S24 12/28/2016 06:10:00 0.0
2016_12_27_S24 12/28/2016 06:15:00 0.0
2016_12_27_S24 12/28/2016 06:20:00 0.0
2016_12_27_S24 12/28/2016 06:25:00 0.0
2016_12_27_S24 12/28/2016 06:30:00 0.0
2016_12_27_S24 12/28/2016 06:35:00 0.0
2016_12_27_S24 12/28/2016 06:40:00 0.0
2016_12_27_S24 12/28/2016 06:45:00 0.0
2016_12_27_S24 12/28/2016 06:50:00 0.0
2016_12_27_S24 12/28/2016 06:55:00 0.0
2016_12_27_S24 12/28/2016 07:00:00 0.0
2016_12_27_S24 12/28/2016 07:05:00 0.0
2016_12_27_S24 12/28/2016 07:10:00 0.0
2016_12_27_S24 12/28/2016 07:15:00 0.0
2016_12_27_S24 12/28/2016 07:20:00 0.0
2016_12_27_S24 12/28/2016 07:25:00 0.0
2016_12_27_S24 12/28/2016 07:30:00 0.0
2016_12_27_S24 12/28/2016 07:35:00 0.0
2016_12_27_S24 12/28/2016 07:40:00 0.0
2016_12_27_S24 12/28/2016 07:45:00 0.0
2016_12_27_S24 12/28/2016 07:50:00 0.0
2016_12_27_S24 12/28/2016 07:55:00 0.0
2016_12_27_S24 12/28/2016 08:00:00 0.0

2016_12_27_S25 12/26/2016 08:00:00 0.0
2016_12_27_S25 12/26/2016 08:05:00 0.0
2016_12_27_S25 12/26/2016 08:10:00 0.0
2016_12_27_S25 12/26/2016 08:15:00 0.0
2016_12_27_S25 12/26/2016 08:20:00 0.0
2016_12_27_S25 12/26/2016 08:25:00 0.0
2016_12_27_S25 12/26/2016 08:30:00 0.0
2016_12_27_S25 12/26/2016 08:35:00 0.0
2016_12_27_S25 12/26/2016 08:40:00 0.0
2016_12_27_S25 12/26/2016 08:45:00 0.0
2016_12_27_S25 12/26/2016 08:50:00 0.0
2016_12_27_S25 12/26/2016 08:55:00 0.0
2016_12_27_S25 12/26/2016 09:00:00 0.0
2016_12_27_S25 12/26/2016 09:05:00 0.0
2016_12_27_S25 12/26/2016 09:10:00 0.0356
2016_12_27_S25 12/26/2016 09:15:00 0.0128
2016_12_27_S25 12/26/2016 09:20:00 0.0146
2016_12_27_S25 12/26/2016 09:25:00 0.034
2016_12_27_S25 12/26/2016 09:30:00 0.0
2016_12_27_S25 12/26/2016 09:35:00 0.0
2016_12_27_S25 12/26/2016 09:40:00 0.0
2016_12_27_S25 12/26/2016 09:45:00 0.0
2016_12_27_S25 12/26/2016 09:50:00 0.0
2016_12_27_S25 12/26/2016 09:55:00 0.0
2016_12_27_S25 12/26/2016 10:00:00 0.0
2016_12_27_S25 12/26/2016 10:05:00 0.0
2016_12_27_S25 12/26/2016 10:10:00 0.0
2016_12_27_S25 12/26/2016 10:15:00 0.0
2016_12_27_S25 12/26/2016 10:20:00 0.0039
2016_12_27_S25 12/26/2016 10:25:00 0.0001
2016_12_27_S25 12/26/2016 10:30:00 0.0
2016_12_27_S25 12/26/2016 10:35:00 0.0
2016_12_27_S25 12/26/2016 10:40:00 0.0
2016_12_27_S25 12/26/2016 10:45:00 0.0
2016_12_27_S25 12/26/2016 10:50:00 0.0
2016_12_27_S25 12/26/2016 10:55:00 0.0
2016_12_27_S25 12/26/2016 11:00:00 0.0
2016_12_27_S25 12/26/2016 11:05:00 0.0
2016_12_27_S25 12/26/2016 11:10:00 0.0
2016_12_27_S25 12/26/2016 11:15:00 0.0
2016_12_27_S25 12/26/2016 11:20:00 0.0
2016_12_27_S25 12/26/2016 11:25:00 0.0
2016_12_27_S25 12/26/2016 11:30:00 0.0
2016_12_27_S25 12/26/2016 11:35:00 0.0
2016_12_27_S25 12/26/2016 11:40:00 0.0
2016_12_27_S25 12/26/2016 11:45:00 0.0
2016_12_27_S25 12/26/2016 11:50:00 0.0
2016_12_27_S25 12/26/2016 11:55:00 0.0
2016_12_27_S25 12/26/2016 12:00:00 0.1833
2016_12_27_S25 12/26/2016 12:05:00 0.1573
2016_12_27_S25 12/26/2016 12:10:00 0.1069
2016_12_27_S25 12/26/2016 12:15:00 0.0207
2016_12_27_S25 12/26/2016 12:20:00 0.0
2016_12_27_S25 12/26/2016 12:25:00 0.0
2016_12_27_S25 12/26/2016 12:30:00 0.0
2016_12_27_S25 12/26/2016 12:35:00 0.0032
2016_12_27_S25 12/26/2016 12:40:00 0.0431
2016_12_27_S25 12/26/2016 12:45:00 0.0908
2016_12_27_S25 12/26/2016 12:50:00 0.0002
2016_12_27_S25 12/26/2016 12:55:00 0.0
2016_12_27_S25 12/26/2016 13:00:00 0.0
2016_12_27_S25 12/26/2016 13:05:00 0.0
2016_12_27_S25 12/26/2016 13:10:00 0.0
2016_12_27_S25 12/26/2016 13:15:00 0.0
2016_12_27_S25 12/26/2016 13:20:00 0.0
2016_12_27_S25 12/26/2016 13:25:00 0.0
2016_12_27_S25 12/26/2016 13:30:00 0.0
2016_12_27_S25 12/26/2016 13:35:00 0.0
2016_12_27_S25 12/26/2016 13:40:00 0.0
2016_12_27_S25 12/26/2016 13:45:00 0.0
2016_12_27_S25 12/26/2016 13:50:00 0.0
2016_12_27_S25 12/26/2016 13:55:00 0.0
2016_12_27_S25 12/26/2016 14:00:00 0.0
2016_12_27_S25 12/26/2016 14:05:00 0.0
2016_12_27_S25 12/26/2016 14:10:00 0.0
2016_12_27_S25 12/26/2016 14:15:00 0.0
2016_12_27_S25 12/26/2016 14:20:00 0.0
2016_12_27_S25 12/26/2016 14:25:00 0.0
2016_12_27_S25 12/26/2016 14:30:00 0.0
2016_12_27_S25 12/26/2016 14:35:00 0.0
2016_12_27_S25 12/26/2016 14:40:00 0.0
2016_12_27_S25 12/26/2016 14:45:00 0.0
2016_12_27_S25 12/26/2016 14:50:00 0.0
2016_12_27_S25 12/26/2016 14:55:00 0.0
2016_12_27_S25 12/26/2016 15:00:00 0.0
2016_12_27_S25 12/26/2016 15:05:00 0.0
2016_12_27_S25 12/26/2016 15:10:00 0.0
2016_12_27_S25 12/26/2016 15:15:00 0.0
2016_12_27_S25 12/26/2016 15:20:00 0.0
2016_12_27_S25 12/26/2016 15:25:00 0.0
2016_12_27_S25 12/26/2016 15:30:00 0.0
2016_12_27_S25 12/26/2016 15:35:00 0.0
2016_12_27_S25 12/26/2016 15:40:00 0.0
2016_12_27_S25 12/26/2016 15:45:00 0.0
2016_12_27_S25 12/26/2016 15:50:00 0.0
2016_12_27_S25 12/26/2016 15:55:00 0.0
2016_12_27_S25 12/26/2016 16:00:00 0.0
2016_12_27_S25 12/26/2016 16:05:00 0.0
2016_12_27_S25 12/26/2016 16:10:00 0.0
2016_12_27_S25 12/26/2016 16:15:00 0.0
2016_12_27_S25 12/26/2016 16:20:00 0.0
2016_12_27_S25 12/26/2016 16:25:00 0.0
2016_12_27_S25 12/26/2016 16:30:00 0.0
2016_12_27_S25 12/26/2016 16:35:00 0.0
2016_12_27_S25 12/26/2016 16:40:00 0.0
2016_12_27_S25 12/26/2016 16:45:00 0.0
2016_12_27_S25 12/26/2016 16:50:00 0.0
2016_12_27_S25 12/26/2016 16:55:00 0.0
2016_12_27_S25 12/26/2016 17:00:00 0.0
2016_12_27_S25 12/26/2016 17:05:00 0.0
2016_12_27_S25 12/26/2016 17:10:00 0.0
2016_12_27_S25 12/26/2016 17:15:00 0.0
2016_12_27_S25 12/26/2016 17:20:00 0.0
2016_12_27_S25 12/26/2016 17:25:00 0.0
2016_12_27_S25 12/26/2016 17:30:00 0.0
2016_12_27_S25 12/26/2016 17:35:00 0.0
2016_12_27_S25 12/26/2016 17:40:00 0.0
2016_12_27_S25 12/26/2016 17:45:00 0.0
2016_12_27_S25 12/26/2016 17:50:00 0.0
2016_12_27_S25 12/26/2016 17:55:00 0.0
2016_12_27_S25 12/26/2016 18:00:00 0.0
2016_12_27_S25 12/26/2016 18:05:00 0.0
2016_12_27_S25 12/26/2016 18:10:00 0.0
2016_12_27_S25 12/26/2016 18:15:00 0.0
2016_12_27_S25 12/26/2016 18:20:00 0.0
2016_12_27_S25 12/26/2016 18:25:00 0.0
2016_12_27_S25 12/26/2016 18:30:00 0.0
2016_12_27_S25 12/26/2016 18:35:00 0.0
2016_12_27_S25 12/26/2016 18:40:00 0.0
2016_12_27_S25 12/26/2016 18:45:00 0.0
2016_12_27_S25 12/26/2016 18:50:00 0.0
2016_12_27_S25 12/26/2016 18:55:00 0.0
2016_12_27_S25 12/26/2016 19:00:00 0.0
2016_12_27_S25 12/26/2016 19:05:00 0.0
2016_12_27_S25 12/26/2016 19:10:00 0.0
2016_12_27_S25 12/26/2016 19:15:00 0.0
2016_12_27_S25 12/26/2016 19:20:00 0.0
2016_12_27_S25 12/26/2016 19:25:00 0.0
2016_12_27_S25 12/26/2016 19:30:00 0.0
2016_12_27_S25 12/26/2016 19:35:00 0.0
2016_12_27_S25 12/26/2016 19:40:00 0.0
2016_12_27_S25 12/26/2016 19:45:00 0.0
2016_12_27_S25 12/26/2016 19:50:00 0.0
2016_12_27_S25 12/26/2016 19:55:00 0.0
2016_12_27_S25 12/26/2016 20:00:00 0.0
2016_12_27_S25 12/26/2016 20:05:00 0.0
2016_12_27_S25 12/26/2016 20:10:00 0.0
2016_12_27_S25 12/26/2016 20:15:00 0.0
2016_12_27_S25 12/26/2016 20:20:00 0.0
2016_12_27_S25 12/26/2016 20:25:00 0.0
2016_12_27_S25 12/26/2016 20:30:00 0.0
2016_12_27_S25 12/26/2016 20:35:00 0.0
2016_12_27_S25 12/26/2016 20:40:00 0.0
2016_12_27_S25 12/26/2016 20:45:00 0.0
2016_12_27_S25 12/26/2016 20:50:00 0.0
2016_12_27_S25 12/26/2016 20:55:00 0.0
2016_12_27_S25 12/26/2016 21:00:00 0.0
2016_12_27_S25 12/26/2016 21:05:00 0.0
2016_12_27_S25 12/26/2016 21:10:00 0.0
2016_12_27_S25 12/26/2016 21:15:00 0.0
2016_12_27_S25 12/26/2016 21:20:00 0.0
2016_12_27_S25 12/26/2016 21:25:00 0.0
2016_12_27_S25 12/26/2016 21:30:00 0.0
2016_12_27_S25 12/26/2016 21:35:00 0.0
2016_12_27_S25 12/26/2016 21:40:00 0.0
2016_12_27_S25 12/26/2016 21:45:00 0.0
2016_12_27_S25 12/26/2016 21:50:00 0.0
2016_12_27_S25 12/26/2016 21:55:00 0.0
2016_12_27_S25 12/26/2016 22:00:00 0.0
2016_12_27_S25 12/26/2016 22:05:00 0.0
2016_12_27_S25 12/26/2016 22:10:00 0.0
2016_12_27_S25 12/26/2016 22:15:00 0.0
2016_12_27_S25 12/26/2016 22:20:00 0.0
2016_12_27_S25 12/26/2016 22:25:00 0.0
2016_12_27_S25 12/26/2016 22:30:00 0.0
2016_12_27_S25 12/26/2016 22:35:00 0.0
2016_12_27_S25 12/26/2016 22:40:00 0.0
2016_12_27_S25 12/26/2016 22:45:00 0.0
2016_12_27_S25 12/26/2016 22:50:00 0.0
2016_12_27_S25 12/26/2016 22:55:00 0.0
2016_12_27_S25 12/26/2016 23:00:00 0.0
2016_12_27_S25 12/26/2016 23:05:00 0.0
2016_12_27_S25 12/26/2016 23:10:00 0.0
2016_12_27_S25 12/26/2016 23:15:00 0.0
2016_12_27_S25 12/26/2016 23:20:00 0.0
2016_12_27_S25 12/26/2016 23:25:00 0.0
2016_12_27_S25 12/26/2016 23:30:00 0.0
2016_12_27_S25 12/26/2016 23:35:00 0.0
2016_12_27_S25 12/26/2016 23:40:00 0.0
2016_12_27_S25 12/26/2016 23:45:00 0.0
2016_12_27_S25 12/26/2016 23:50:00 0.0
2016_12_27_S25 12/26/2016 23:55:00 0.0
2016_12_27_S25 12/27/2016 00:00:00 0.0
2016_12_27_S25 12/27/2016 00:05:00 0.0
2016_12_27_S25 12/27/2016 00:10:00 0.0
2016_12_27_S25 12/27/2016 00:15:00 0.0
2016_12_27_S25 12/27/2016 00:20:00 0.0
2016_12_27_S25 12/27/2016 00:25:00 0.0
2016_12_27_S25 12/27/2016 00:30:00 0.0
2016_12_27_S25 12/27/2016 00:35:00 0.0
2016_12_27_S25 12/27/2016 00:40:00 0.0
2016_12_27_S25 12/27/2016 00:45:00 0.0
2016_12_27_S25 12/27/2016 00:50:00 0.0
2016_12_27_S25 12/27/2016 00:55:00 0.0
2016_12_27_S25 12/27/2016 01:00:00 0.0
2016_12_27_S25 12/27/2016 01:05:00 0.0
2016_12_27_S25 12/27/2016 01:10:00 0.0
2016_12_27_S25 12/27/2016 01:15:00 0.0126
2016_12_27_S25 12/27/2016 01:20:00 0.01
2016_12_27_S25 12/27/2016 01:25:00 0.0691
2016_12_27_S25 12/27/2016 01:30:00 0.1837
2016_12_27_S25 12/27/2016 01:35:00 1.047
2016_12_27_S25 12/27/2016 01:40:00 0.2859
2016_12_27_S25 12/27/2016 01:45:00 0.8417
2016_12_27_S25 12/27/2016 01:50:00 1.5944
2016_12_27_S25 12/27/2016 01:55:00 0.7148
2016_12_27_S25 12/27/2016 02:00:00 0.0862
2016_12_27_S25 12/27/2016 02:05:00 0.0202
2016_12_27_S25 12/27/2016 02:10:00 0.0242
2016_12_27_S25 12/27/2016 02:15:00 0.1332
2016_12_27_S25 12/27/2016 02:20:00 0.144
2016_12_27_S25 12/27/2016 02:25:00 0.0888
2016_12_27_S25 12/27/2016 02:30:00 0.1849
2016_12_27_S25 12/27/2016 02:35:00 0.1395
2016_12_27_S25 12/27/2016 02:40:00 0.2569
2016_12_27_S25 12/27/2016 02:45:00 0.2179
2016_12_27_S25 12/27/2016 02:50:00 0.4861
2016_12_27_S25 12/27/2016 02:55:00 0.3398
2016_12_27_S25 12/27/2016 03:00:00 0.4721
2016_12_27_S25 12/27/2016 03:05:00 0.3735
2016_12_27_S25 12/27/2016 03:10:00 0.3298
2016_12_27_S25 12/27/2016 03:15:00 0.6248
2016_12_27_S25 12/27/2016 03:20:00 1.2642
2016_12_27_S25 12/27/2016 03:25:00 0.7747
2016_12_27_S25 12/27/2016 03:30:00 0.9537
2016_12_27_S25 12/27/2016 03:35:00 0.3849
2016_12_27_S25 12/27/2016 03:40:00 0.3255
2016_12_27_S25 12/27/2016 03:45:00 0.1624
2016_12_27_S25 12/27/2016 03:50:00 0.1671
2016_12_27_S25 12/27/2016 03:55:00 0.4831
2016_12_27_S25 12/27/2016 04:00:00 0.1937
2016_12_27_S25 12/27/2016 04:05:00 0.1136
2016_12_27_S25 12/27/2016 04:10:00 0.2678
2016_12_27_S25 12/27/2016 04:15:00 0.1051
2016_12_27_S25 12/27/2016 04:20:00 0.0359
2016_12_27_S25 12/27/2016 04:25:00 0.0644
2016_12_27_S25 12/27/2016 04:30:00 0.0249
2016_12_27_S25 12/27/2016 04:35:00 0.0706
2016_12_27_S25 12/27/2016 04:40:00 0.0352
2016_12_27_S25 12/27/2016 04:45:00 0.0408
2016_12_27_S25 12/27/2016 04:50:00 0.1347
2016_12_27_S25 12/27/2016 04:55:00 0.4029
2016_12_27_S25 12/27/2016 05:00:00 0.236
2016_12_27_S25 12/27/2016 05:05:00 0.1824
2016_12_27_S25 12/27/2016 05:10:00 0.1938
2016_12_27_S25 12/27/2016 05:15:00 0.2091
2016_12_27_S25 12/27/2016 05:20:00 0.1683
2016_12_27_S25 12/27/2016 05:25:00 0.0328
2016_12_27_S25 12/27/2016 05:30:00 0.0
2016_12_27_S25 12/27/2016 05:35:00 0.0
2016_12_27_S25 12/27/2016 05:40:00 0.0
2016_12_27_S25 12/27/2016 05:45:00 0.0
2016_12_27_S25 12/27/2016 05:50:00 0.0
2016_12_27_S25 12/27/2016 05:55:00 0.0
2016_12_27_S25 12/27/2016 06:00:00 0.0
2016_12_27_S25 12/27/2016 06:05:00 0.0
2016_12_27_S25 12/27/2016 06:10:00 0.0
2016_12_27_S25 12/27/2016 06:15:00 0.0
2016_12_27_S25 12/27/2016 06:20:00 0.0
2016_12_27_S25 12/27/2016 06:25:00 0.0
2016_12_27_S25 12/27/2016 06:30:00 0.0
2016_12_27_S25 12/27/2016 06:35:00 0.0
2016_12_27_S25 12/27/2016 06:40:00 0.0027
2016_12_27_S25 12/27/2016 06:45:00 0.063
2016_12_27_S25 12/27/2016 06:50:00 0.0021
2016_12_27_S25 12/27/2016 06:55:00 0.0274
2016_12_27_S25 12/27/2016 07:00:00 0.2286
2016_12_27_S25 12/27/2016 07:05:00 0.1113
2016_12_27_S25 12/27/2016 07:10:00 0.4514
2016_12_27_S25 12/27/2016 07:15:00 0.5255
2016_12_27_S25 12/27/2016 07:20:00 0.4641
2016_12_27_S25 12/27/2016 07:25:00 0.308
2016_12_27_S25 12/27/2016 07:30:00 0.6388
2016_12_27_S25 12/27/2016 07:35:00 0.3301
2016_12_27_S25 12/27/2016 07:40:00 0.181
2016_12_27_S25 12/27/2016 07:45:00 0.3476
2016_12_27_S25 12/27/2016 07:50:00 0.9541
2016_12_27_S25 12/27/2016 07:55:00 1.141
2016_12_27_S25 12/27/2016 08:00:00 0.7288
2016_12_27_S25 12/27/2016 08:05:00 0.1935
2016_12_27_S25 12/27/2016 08:10:00 0.4729
2016_12_27_S25 12/27/2016 08:15:00 0.3334
2016_12_27_S25 12/27/2016 08:20:00 0.4185
2016_12_27_S25 12/27/2016 08:25:00 0.3371
2016_12_27_S25 12/27/2016 08:30:00 0.0383
2016_12_27_S25 12/27/2016 08:35:00 0.1299
2016_12_27_S25 12/27/2016 08:40:00 0.4251
2016_12_27_S25 12/27/2016 08:45:00 1.0933
2016_12_27_S25 12/27/2016 08:50:00 1.0455
2016_12_27_S25 12/27/2016 08:55:00 0.6608
2016_12_27_S25 12/27/2016 09:00:00 1.0037
2016_12_27_S25 12/27/2016 09:05:00 0.4711
2016_12_27_S25 12/27/2016 09:10:00 0.7221
2016_12_27_S25 12/27/2016 09:15:00 0.3298
2016_12_27_S25 12/27/2016 09:20:00 0.9107
2016_12_27_S25 12/27/2016 09:25:00 0.9856
2016_12_27_S25 12/27/2016 09:30:00 0.1344
2016_12_27_S25 12/27/2016 09:35:00 0.1834
2016_12_27_S25 12/27/2016 09:40:00 0.2978
2016_12_27_S25 12/27/2016 09:45:00 0.4209
2016_12_27_S25 12/27/2016 09:50:00 0.2248
2016_12_27_S25 12/27/2016 09:55:00 0.0
2016_12_27_S25 12/27/2016 10:00:00 0.0184
2016_12_27_S25 12/27/2016 10:05:00 0.4811
2016_12_27_S25 12/27/2016 10:10:00 0.7419
2016_12_27_S25 12/27/2016 10:15:00 0.2182
2016_12_27_S25 12/27/2016 10:20:00 0.0665
2016_12_27_S25 12/27/2016 10:25:00 0.121
2016_12_27_S25 12/27/2016 10:30:00 0.0291
2016_12_27_S25 12/27/2016 10:35:00 0.0403
2016_12_27_S25 12/27/2016 10:40:00 0.0127
2016_12_27_S25 12/27/2016 10:45:00 0.7255
2016_12_27_S25 12/27/2016 10:50:00 0.5252
2016_12_27_S25 12/27/2016 10:55:00 0.7826
2016_12_27_S25 12/27/2016 11:00:00 0.39
2016_12_27_S25 12/27/2016 11:05:00 0.2353
2016_12_27_S25 12/27/2016 11:10:00 0.0894
2016_12_27_S25 12/27/2016 11:15:00 0.1604
2016_12_27_S25 12/27/2016 11:20:00 0.1654
2016_12_27_S25 12/27/2016 11:25:00 0.5942
2016_12_27_S25 12/27/2016 11:30:00 0.426
2016_12_27_S25 12/27/2016 11:35:00 0.5429
2016_12_27_S25 12/27/2016 11:40:00 0.788
2016_12_27_S25 12/27/2016 11:45:00 0.7104
2016_12_27_S25 12/27/2016 11:50:00 1.8635
2016_12_27_S25 12/27/2016 11:55:00 1.1635
2016_12_27_S25 12/27/2016 12:00:00 0.3582
2016_12_27_S25 12/27/2016 12:05:00 0.6036
2016_12_27_S25 12/27/2016 12:10:00 0.1088
2016_12_27_S25 12/27/2016 12:15:00 0.3941
2016_12_27_S25 12/27/2016 12:20:00 0.1831
2016_12_27_S25 12/27/2016 12:25:00 0.0923
2016_12_27_S25 12/27/2016 12:30:00 0.2379
2016_12_27_S25 12/27/2016 12:35:00 0.0394
2016_12_27_S25 12/27/2016 12:40:00 0.0399
2016_12_27_S25 12/27/2016 12:45:00 0.0274
2016_12_27_S25 12/27/2016 12:50:00 0.0098
2016_12_27_S25 12/27/2016 12:55:00 0.0042
2016_12_27_S25 12/27/2016 13:00:00 0.0388
2016_12_27_S25 12/27/2016 13:05:00 0.0352
2016_12_27_S25 12/27/2016 13:10:00 0.0
2016_12_27_S25 12/27/2016 13:15:00 0.0
2016_12_27_S25 12/27/2016 13:20:00 0.0
2016_12_27_S25 12/27/2016 13:25:00 0.0
2016_12_27_S25 12/27/2016 13:30:00 0.1047
2016_12_27_S25 12/27/2016 13:35:00 0.1767
2016_12_27_S25 12/27/2016 13:40:00 0.1819
2016_12_27_S25 12/27/2016 13:45:00 0.155
2016_12_27_S25 12/27/2016 13:50:00 0.2214
2016_12_27_S25 12/27/2016 13:55:00 0.0128
2016_12_27_S25 12/27/2016 14:00:00 0.0537
2016_12_27_S25 12/27/2016 14:05:00 0.114
2016_12_27_S25 12/27/2016 14:10:00 0.0347
2016_12_27_S25 12/27/2016 14:15:00 0.0
2016_12_27_S25 12/27/2016 14:20:00 0.0114
2016_12_27_S25 12/27/2016 14:25:00 0.0173
2016_12_27_S25 12/27/2016 14:30:00 0.0214
2016_12_27_S25 12/27/2016 14:35:00 0.0
2016_12_27_S25 12/27/2016 14:40:00 0.0002
2016_12_27_S25 12/27/2016 14:45:00 0.0
2016_12_27_S25 12/27/2016 14:50:00 0.0
2016_12_27_S25 12/27/2016 14:55:00 0.0
2016_12_27_S25 12/27/2016 15:00:00 0.0
2016_12_27_S25 12/27/2016 15:05:00 0.0
2016_12_27_S25 12/27/2016 15:10:00 0.0
2016_12_27_S25 12/27/2016 15:15:00 0.0
2016_12_27_S25 12/27/2016 15:20:00 0.0
2016_12_27_S25 12/27/2016 15:25:00 0.0019
2016_12_27_S25 12/27/2016 15:30:00 0.0
2016_12_27_S25 12/27/2016 15:35:00 0.0
2016_12_27_S25 12/27/2016 15:40:00 0.0
2016_12_27_S25 12/27/2016 15:45:00 0.0
2016_12_27_S25 12/27/2016 15:50:00 0.0
2016_12_27_S25 12/27/2016 15:55:00 0.0002
2016_12_27_S25 12/27/2016 16:00:00 0.2598
2016_12_27_S25 12/27/2016 16:05:00 0.1111
2016_12_27_S25 12/27/2016 16:10:00 0.0
2016_12_27_S25 12/27/2016 16:15:00 0.0
2016_12_27_S25 12/27/2016 16:20:00 0.0138
2016_12_27_S25 12/27/2016 16:25:00 0.0017
2016_12_27_S25 12/27/2016 16:30:00 0.0
2016_12_27_S25 12/27/2016 16:35:00 0.0
2016_12_27_S25 12/27/2016 16:40:00 0.0681
2016_12_27_S25 12/27/2016 16:45:00 0.0019
2016_12_27_S25 12/27/2016 16:50:00 0.0
2016_12_27_S25 12/27/2016 16:55:00 0.0
2016_12_27_S25 12/27/2016 17:00:00 0.0
2016_12_27_S25 12/27/2016 17:05:00 0.0
2016_12_27_S25 12/27/2016 17:10:00 0.0
2016_12_27_S25 12/27/2016 17:15:00 0.0
2016_12_27_S25 12/27/2016 17:20:00 0.0
2016_12_27_S25 12/27/2016 17:25:00 0.0
2016_12_27_S25 12/27/2016 17:30:00 0.0
2016_12_27_S25 12/27/2016 17:35:00 0.0
2016_12_27_S25 12/27/2016 17:40:00 0.0288
2016_12_27_S25 12/27/2016 17:45:00 0.1079
2016_12_27_S25 12/27/2016 17:50:00 0.1044
2016_12_27_S25 12/27/2016 17:55:00 0.0399
2016_12_27_S25 12/27/2016 18:00:00 0.0038
2016_12_27_S25 12/27/2016 18:05:00 0.0
2016_12_27_S25 12/27/2016 18:10:00 0.0
2016_12_27_S25 12/27/2016 18:15:00 0.0
2016_12_27_S25 12/27/2016 18:20:00 0.0216
2016_12_27_S25 12/27/2016 18:25:00 0.5441
2016_12_27_S25 12/27/2016 18:30:00 0.0162
2016_12_27_S25 12/27/2016 18:35:00 0.0303
2016_12_27_S25 12/27/2016 18:40:00 0.0199
2016_12_27_S25 12/27/2016 18:45:00 0.0
2016_12_27_S25 12/27/2016 18:50:00 0.0
2016_12_27_S25 12/27/2016 18:55:00 0.0
2016_12_27_S25 12/27/2016 19:00:00 0.0
2016_12_27_S25 12/27/2016 19:05:00 0.0
2016_12_27_S25 12/27/2016 19:10:00 0.2552
2016_12_27_S25 12/27/2016 19:15:00 0.1247
2016_12_27_S25 12/27/2016 19:20:00 0.0
2016_12_27_S25 12/27/2016 19:25:00 0.0
2016_12_27_S25 12/27/2016 19:30:00 0.0087
2016_12_27_S25 12/27/2016 19:35:00 0.255
2016_12_27_S25 12/27/2016 19:40:00 1.7752
2016_12_27_S25 12/27/2016 19:45:00 2.5179
2016_12_27_S25 12/27/2016 19:50:00 3.3722
2016_12_27_S25 12/27/2016 19:55:00 0.9377
2016_12_27_S25 12/27/2016 20:00:00 0.109
2016_12_27_S25 12/27/2016 20:05:00 0.01
2016_12_27_S25 12/27/2016 20:10:00 0.0
2016_12_27_S25 12/27/2016 20:15:00 0.0
2016_12_27_S25 12/27/2016 20:20:00 0.0
2016_12_27_S25 12/27/2016 20:25:00 0.0023
2016_12_27_S25 12/27/2016 20:30:00 0.0024
2016_12_27_S25 12/27/2016 20:35:00 0.0029
2016_12_27_S25 12/27/2016 20:40:00 0.0
2016_12_27_S25 12/27/2016 20:45:00 0.0
2016_12_27_S25 12/27/2016 20:50:00 0.0
2016_12_27_S25 12/27/2016 20:55:00 0.0
2016_12_27_S25 12/27/2016 21:00:00 0.0
2016_12_27_S25 12/27/2016 21:05:00 0.0
2016_12_27_S25 12/27/2016 21:10:00 0.0
2016_12_27_S25 12/27/2016 21:15:00 0.0
2016_12_27_S25 12/27/2016 21:20:00 0.0
2016_12_27_S25 12/27/2016 21:25:00 0.0
2016_12_27_S25 12/27/2016 21:30:00 0.0
2016_12_27_S25 12/27/2016 21:35:00 0.0
2016_12_27_S25 12/27/2016 21:40:00 0.0
2016_12_27_S25 12/27/2016 21:45:00 0.0
2016_12_27_S25 12/27/2016 21:50:00 0.0
2016_12_27_S25 12/27/2016 21:55:00 0.0
2016_12_27_S25 12/27/2016 22:00:00 0.0003
2016_12_27_S25 12/27/2016 22:05:00 0.0
2016_12_27_S25 12/27/2016 22:10:00 0.0122
2016_12_27_S25 12/27/2016 22:15:00 0.0506
2016_12_27_S25 12/27/2016 22:20:00 0.0
2016_12_27_S25 12/27/2016 22:25:00 0.003
2016_12_27_S25 12/27/2016 22:30:00 0.0498
2016_12_27_S25 12/27/2016 22:35:00 0.3022
2016_12_27_S25 12/27/2016 22:40:00 0.0564
2016_12_27_S25 12/27/2016 22:45:00 0.0
2016_12_27_S25 12/27/2016 22:50:00 0.0054
2016_12_27_S25 12/27/2016 22:55:00 0.0037
2016_12_27_S25 12/27/2016 23:00:00 0.0001
2016_12_27_S25 12/27/2016 23:05:00 0.0052
2016_12_27_S25 12/27/2016 23:10:00 0.0
2016_12_27_S25 12/27/2016 23:15:00 0.0002
2016_12_27_S25 12/27/2016 23:20:00 0.0
2016_12_27_S25 12/27/2016 23:25:00 0.0124
2016_12_27_S25 12/27/2016 23:30:00 0.0241
2016_12_27_S25 12/27/2016 23:35:00 0.0017
2016_12_27_S25 12/27/2016 23:40:00 0.0
2016_12_27_S25 12/27/2016 23:45:00 0.0
2016_12_27_S25 12/27/2016 23:50:00 0.0
2016_12_27_S25 12/27/2016 23:55:00 0.0
2016_12_27_S25 12/28/2016 00:00:00 0.0
2016_12_27_S25 12/28/2016 00:05:00 0.0
2016_12_27_S25 12/28/2016 00:10:00 0.0
2016_12_27_S25 12/28/2016 00:15:00 0.0
2016_12_27_S25 12/28/2016 00:20:00 0.0
2016_12_27_S25 12/28/2016 00:25:00 0.0
2016_12_27_S25 12/28/2016 00:30:00 0.0
2016_12_27_S25 12/28/2016 00:35:00 0.0
2016_12_27_S25 12/28/2016 00:40:00 0.0
2016_12_27_S25 12/28/2016 00:45:00 0.0
2016_12_27_S25 12/28/2016 00:50:00 0.0
2016_12_27_S25 12/28/2016 00:55:00 0.0
2016_12_27_S25 12/28/2016 01:00:00 0.0
2016_12_27_S25 12/28/2016 01:05:00 0.0
2016_12_27_S25 12/28/2016 01:10:00 0.0
2016_12_27_S25 12/28/2016 01:15:00 0.0
2016_12_27_S25 12/28/2016 01:20:00 0.0
2016_12_27_S25 12/28/2016 01:25:00 0.0
2016_12_27_S25 12/28/2016 01:30:00 0.0
2016_12_27_S25 12/28/2016 01:35:00 0.0
2016_12_27_S25 12/28/2016 01:40:00 0.0
2016_12_27_S25 12/28/2016 01:45:00 0.0
2016_12_27_S25 12/28/2016 01:50:00 0.0
2016_12_27_S25 12/28/2016 01:55:00 0.0
2016_12_27_S25 12/28/2016 02:00:00 0.0
2016_12_27_S25 12/28/2016 02:05:00 0.0
2016_12_27_S25 12/28/2016 02:10:00 0.0
2016_12_27_S25 12/28/2016 02:15:00 0.0
2016_12_27_S25 12/28/2016 02:20:00 0.0
2016_12_27_S25 12/28/2016 02:25:00 0.0
2016_12_27_S25 12/28/2016 02:30:00 0.0
2016_12_27_S25 12/28/2016 02:35:00 0.0
2016_12_27_S25 12/28/2016 02:40:00 0.0
2016_12_27_S25 12/28/2016 02:45:00 0.0
2016_12_27_S25 12/28/2016 02:50:00 0.0
2016_12_27_S25 12/28/2016 02:55:00 0.0
2016_12_27_S25 12/28/2016 03:00:00 0.0
2016_12_27_S25 12/28/2016 03:05:00 0.0
2016_12_27_S25 12/28/2016 03:10:00 0.0
2016_12_27_S25 12/28/2016 03:15:00 0.0
2016_12_27_S25 12/28/2016 03:20:00 0.0
2016_12_27_S25 12/28/2016 03:25:00 0.0
2016_12_27_S25 12/28/2016 03:30:00 0.0
2016_12_27_S25 12/28/2016 03:35:00 0.0
2016_12_27_S25 12/28/2016 03:40:00 0.0
2016_12_27_S25 12/28/2016 03:45:00 0.0
2016_12_27_S25 12/28/2016 03:50:00 0.0
2016_12_27_S25 12/28/2016 03:55:00 0.0
2016_12_27_S25 12/28/2016 04:00:00 0.0
2016_12_27_S25 12/28/2016 04:05:00 0.0
2016_12_27_S25 12/28/2016 04:10:00 0.0
2016_12_27_S25 12/28/2016 04:15:00 0.0
2016_12_27_S25 12/28/2016 04:20:00 0.0
2016_12_27_S25 12/28/2016 04:25:00 0.0
2016_12_27_S25 12/28/2016 04:30:00 0.0
2016_12_27_S25 12/28/2016 04:35:00 0.0
2016_12_27_S25 12/28/2016 04:40:00 0.0
2016_12_27_S25 12/28/2016 04:45:00 0.0
2016_12_27_S25 12/28/2016 04:50:00 0.0
2016_12_27_S25 12/28/2016 04:55:00 0.0
2016_12_27_S25 12/28/2016 05:00:00 0.0
2016_12_27_S25 12/28/2016 05:05:00 0.0
2016_12_27_S25 12/28/2016 05:10:00 0.0
2016_12_27_S25 12/28/2016 05:15:00 0.0
2016_12_27_S25 12/28/2016 05:20:00 0.0
2016_12_27_S25 12/28/2016 05:25:00 0.0
2016_12_27_S25 12/28/2016 05:30:00 0.0
2016_12_27_S25 12/28/2016 05:35:00 0.0
2016_12_27_S25 12/28/2016 05:40:00 0.0
2016_12_27_S25 12/28/2016 05:45:00 0.0
2016_12_27_S25 12/28/2016 05:50:00 0.0
2016_12_27_S25 12/28/2016 05:55:00 0.0
2016_12_27_S25 12/28/2016 06:00:00 0.0
2016_12_27_S25 12/28/2016 06:05:00 0.0
2016_12_27_S25 12/28/2016 06:10:00 0.0
2016_12_27_S25 12/28/2016 06:15:00 0.0
2016_12_27_S25 12/28/2016 06:20:00 0.0
2016_12_27_S25 12/28/2016 06:25:00 0.0
2016_12_27_S25 12/28/2016 06:30:00 0.0
2016_12_27_S25 12/28/2016 06:35:00 0.0
2016_12_27_S25 12/28/2016 06:40:00 0.0
2016_12_27_S25 12/28/2016 06:45:00 0.0
2016_12_27_S25 12/28/2016 06:50:00 0.0
2016_12_27_S25 12/28/2016 06:55:00 0.0
2016_12_27_S25 12/28/2016 07:00:00 0.0
2016_12_27_S25 12/28/2016 07:05:00 0.0
2016_12_27_S25 12/28/2016 07:10:00 0.0
2016_12_27_S25 12/28/2016 07:15:00 0.0
2016_12_27_S25 12/28/2016 07:20:00 0.0
2016_12_27_S25 12/28/2016 07:25:00 0.0
2016_12_27_S25 12/28/2016 07:30:00 0.0
2016_12_27_S25 12/28/2016 07:35:00 0.0
2016_12_27_S25 12/28/2016 07:40:00 0.0
2016_12_27_S25 12/28/2016 07:45:00 0.0
2016_12_27_S25 12/28/2016 07:50:00 0.0
2016_12_27_S25 12/28/2016 07:55:00 0.0
2016_12_27_S25 12/28/2016 08:00:00 0.0

2016_12_27_S26 12/26/2016 08:00:00 0.0
2016_12_27_S26 12/26/2016 08:05:00 0.0
2016_12_27_S26 12/26/2016 08:10:00 0.0
2016_12_27_S26 12/26/2016 08:15:00 0.0
2016_12_27_S26 12/26/2016 08:20:00 0.0
2016_12_27_S26 12/26/2016 08:25:00 0.0
2016_12_27_S26 12/26/2016 08:30:00 0.0
2016_12_27_S26 12/26/2016 08:35:00 0.0
2016_12_27_S26 12/26/2016 08:40:00 0.0
2016_12_27_S26 12/26/2016 08:45:00 0.0
2016_12_27_S26 12/26/2016 08:50:00 0.0
2016_12_27_S26 12/26/2016 08:55:00 0.0
2016_12_27_S26 12/26/2016 09:00:00 0.0
2016_12_27_S26 12/26/2016 09:05:00 0.0
2016_12_27_S26 12/26/2016 09:10:00 0.0047
2016_12_27_S26 12/26/2016 09:15:00 0.0071
2016_12_27_S26 12/26/2016 09:20:00 0.0109
2016_12_27_S26 12/26/2016 09:25:00 0.0274
2016_12_27_S26 12/26/2016 09:30:00 0.0017
2016_12_27_S26 12/26/2016 09:35:00 0.0008
2016_12_27_S26 12/26/2016 09:40:00 0.0
2016_12_27_S26 12/26/2016 09:45:00 0.0
2016_12_27_S26 12/26/2016 09:50:00 0.0
2016_12_27_S26 12/26/2016 09:55:00 0.0
2016_12_27_S26 12/26/2016 10:00:00 0.0
2016_12_27_S26 12/26/2016 10:05:00 0.0
2016_12_27_S26 12/26/2016 10:10:00 0.0
2016_12_27_S26 12/26/2016 10:15:00 0.0
2016_12_27_S26 12/26/2016 10:20:00 0.0
2016_12_27_S26 12/26/2016 10:25:00 0.009
2016_12_27_S26 12/26/2016 10:30:00 0.0
2016_12_27_S26 12/26/2016 10:35:00 0.0
2016_12_27_S26 12/26/2016 10:40:00 0.0
2016_12_27_S26 12/26/2016 10:45:00 0.0
2016_12_27_S26 12/26/2016 10:50:00 0.0
2016_12_27_S26 12/26/2016 10:55:00 0.0
2016_12_27_S26 12/26/2016 11:00:00 0.0
2016_12_27_S26 12/26/2016 11:05:00 0.0
2016_12_27_S26 12/26/2016 11:10:00 0.0
2016_12_27_S26 12/26/2016 11:15:00 0.0
2016_12_27_S26 12/26/2016 11:20:00 0.0
2016_12_27_S26 12/26/2016 11:25:00 0.0
2016_12_27_S26 12/26/2016 11:30:00 0.0
2016_12_27_S26 12/26/2016 11:35:00 0.0
2016_12_27_S26 12/26/2016 11:40:00 0.0
2016_12_27_S26 12/26/2016 11:45:00 0.0
2016_12_27_S26 12/26/2016 11:50:00 0.0
2016_12_27_S26 12/26/2016 11:55:00 0.0
2016_12_27_S26 12/26/2016 12:00:00 0.2396
2016_12_27_S26 12/26/2016 12:05:00 0.0071
2016_12_27_S26 12/26/2016 12:10:00 0.2523
2016_12_27_S26 12/26/2016 12:15:00 0.0152
2016_12_27_S26 12/26/2016 12:20:00 0.0
2016_12_27_S26 12/26/2016 12:25:00 0.0
2016_12_27_S26 12/26/2016 12:30:00 0.0
2016_12_27_S26 12/26/2016 12:35:00 0.0
2016_12_27_S26 12/26/2016 12:40:00 0.0306
2016_12_27_S26 12/26/2016 12:45:00 0.0882
2016_12_27_S26 12/26/2016 12:50:00 0.0272
2016_12_27_S26 12/26/2016 12:55:00 0.0
2016_12_27_S26 12/26/2016 13:00:00 0.0
2016_12_27_S26 12/26/2016 13:05:00 0.0
2016_12_27_S26 12/26/2016 13:10:00 0.0
2016_12_27_S26 12/26/2016 13:15:00 0.0
2016_12_27_S26 12/26/2016 13:20:00 0.0
2016_12_27_S26 12/26/2016 13:25:00 0.0
2016_12_27_S26 12/26/2016 13:30:00 0.0
2016_12_27_S26 12/26/2016 13:35:00 0.0
2016_12_27_S26 12/26/2016 13:40:00 0.0
2016_12_27_S26 12/26/2016 13:45:00 0.0
2016_12_27_S26 12/26/2016 13:50:00 0.0
2016_12_27_S26 12/26/2016 13:55:00 0.0
2016_12_27_S26 12/26/2016 14:00:00 0.0
2016_12_27_S26 12/26/2016 14:05:00 0.0
2016_12_27_S26 12/26/2016 14:10:00 0.0
2016_12_27_S26 12/26/2016 14:15:00 0.0
2016_12_27_S26 12/26/2016 14:20:00 0.0
2016_12_27_S26 12/26/2016 14:25:00 0.0
2016_12_27_S26 12/26/2016 14:30:00 0.0
2016_12_27_S26 12/26/2016 14:35:00 0.0
2016_12_27_S26 12/26/2016 14:40:00 0.0
2016_12_27_S26 12/26/2016 14:45:00 0.0
2016_12_27_S26 12/26/2016 14:50:00 0.0
2016_12_27_S26 12/26/2016 14:55:00 0.0
2016_12_27_S26 12/26/2016 15:00:00 0.0
2016_12_27_S26 12/26/2016 15:05:00 0.0
2016_12_27_S26 12/26/2016 15:10:00 0.0
2016_12_27_S26 12/26/2016 15:15:00 0.0
2016_12_27_S26 12/26/2016 15:20:00 0.0
2016_12_27_S26 12/26/2016 15:25:00 0.0
2016_12_27_S26 12/26/2016 15:30:00 0.0
2016_12_27_S26 12/26/2016 15:35:00 0.0
2016_12_27_S26 12/26/2016 15:40:00 0.0
2016_12_27_S26 12/26/2016 15:45:00 0.0
2016_12_27_S26 12/26/2016 15:50:00 0.0
2016_12_27_S26 12/26/2016 15:55:00 0.0
2016_12_27_S26 12/26/2016 16:00:00 0.0
2016_12_27_S26 12/26/2016 16:05:00 0.0
2016_12_27_S26 12/26/2016 16:10:00 0.0
2016_12_27_S26 12/26/2016 16:15:00 0.0
2016_12_27_S26 12/26/2016 16:20:00 0.0
2016_12_27_S26 12/26/2016 16:25:00 0.0
2016_12_27_S26 12/26/2016 16:30:00 0.0
2016_12_27_S26 12/26/2016 16:35:00 0.0
2016_12_27_S26 12/26/2016 16:40:00 0.0
2016_12_27_S26 12/26/2016 16:45:00 0.0
2016_12_27_S26 12/26/2016 16:50:00 0.0
2016_12_27_S26 12/26/2016 16:55:00 0.0
2016_12_27_S26 12/26/2016 17:00:00 0.0
2016_12_27_S26 12/26/2016 17:05:00 0.0
2016_12_27_S26 12/26/2016 17:10:00 0.0
2016_12_27_S26 12/26/2016 17:15:00 0.0
2016_12_27_S26 12/26/2016 17:20:00 0.0
2016_12_27_S26 12/26/2016 17:25:00 0.0
2016_12_27_S26 12/26/2016 17:30:00 0.0
2016_12_27_S26 12/26/2016 17:35:00 0.0
2016_12_27_S26 12/26/2016 17:40:00 0.0
2016_12_27_S26 12/26/2016 17:45:00 0.0
2016_12_27_S26 12/26/2016 17:50:00 0.0
2016_12_27_S26 12/26/2016 17:55:00 0.0
2016_12_27_S26 12/26/2016 18:00:00 0.0
2016_12_27_S26 12/26/2016 18:05:00 0.0
2016_12_27_S26 12/26/2016 18:10:00 0.0
2016_12_27_S26 12/26/2016 18:15:00 0.0
2016_12_27_S26 12/26/2016 18:20:00 0.0
2016_12_27_S26 12/26/2016 18:25:00 0.0
2016_12_27_S26 12/26/2016 18:30:00 0.0
2016_12_27_S26 12/26/2016 18:35:00 0.0
2016_12_27_S26 12/26/2016 18:40:00 0.0
2016_12_27_S26 12/26/2016 18:45:00 0.0
2016_12_27_S26 12/26/2016 18:50:00 0.0
2016_12_27_S26 12/26/2016 18:55:00 0.0
2016_12_27_S26 12/26/2016 19:00:00 0.0
2016_12_27_S26 12/26/2016 19:05:00 0.0
2016_12_27_S26 12/26/2016 19:10:00 0.0
2016_12_27_S26 12/26/2016 19:15:00 0.0
2016_12_27_S26 12/26/2016 19:20:00 0.0
2016_12_27_S26 12/26/2016 19:25:00 0.0
2016_12_27_S26 12/26/2016 19:30:00 0.0
2016_12_27_S26 12/26/2016 19:35:00 0.0
2016_12_27_S26 12/26/2016 19:40:00 0.0
2016_12_27_S26 12/26/2016 19:45:00 0.0
2016_12_27_S26 12/26/2016 19:50:00 0.0
2016_12_27_S26 12/26/2016 19:55:00 0.0
2016_12_27_S26 12/26/2016 20:00:00 0.0
2016_12_27_S26 12/26/2016 20:05:00 0.0
2016_12_27_S26 12/26/2016 20:10:00 0.0
2016_12_27_S26 12/26/2016 20:15:00 0.0
2016_12_27_S26 12/26/2016 20:20:00 0.0
2016_12_27_S26 12/26/2016 20:25:00 0.0
2016_12_27_S26 12/26/2016 20:30:00 0.0
2016_12_27_S26 12/26/2016 20:35:00 0.0
2016_12_27_S26 12/26/2016 20:40:00 0.0
2016_12_27_S26 12/26/2016 20:45:00 0.0
2016_12_27_S26 12/26/2016 20:50:00 0.0
2016_12_27_S26 12/26/2016 20:55:00 0.0
2016_12_27_S26 12/26/2016 21:00:00 0.0
2016_12_27_S26 12/26/2016 21:05:00 0.0
2016_12_27_S26 12/26/2016 21:10:00 0.0
2016_12_27_S26 12/26/2016 21:15:00 0.0
2016_12_27_S26 12/26/2016 21:20:00 0.0
2016_12_27_S26 12/26/2016 21:25:00 0.0
2016_12_27_S26 12/26/2016 21:30:00 0.0
2016_12_27_S26 12/26/2016 21:35:00 0.0
2016_12_27_S26 12/26/2016 21:40:00 0.0
2016_12_27_S26 12/26/2016 21:45:00 0.0
2016_12_27_S26 12/26/2016 21:50:00 0.0
2016_12_27_S26 12/26/2016 21:55:00 0.0
2016_12_27_S26 12/26/2016 22:00:00 0.0
2016_12_27_S26 12/26/2016 22:05:00 0.0
2016_12_27_S26 12/26/2016 22:10:00 0.0
2016_12_27_S26 12/26/2016 22:15:00 0.0
2016_12_27_S26 12/26/2016 22:20:00 0.0
2016_12_27_S26 12/26/2016 22:25:00 0.0
2016_12_27_S26 12/26/2016 22:30:00 0.0
2016_12_27_S26 12/26/2016 22:35:00 0.0
2016_12_27_S26 12/26/2016 22:40:00 0.0
2016_12_27_S26 12/26/2016 22:45:00 0.0
2016_12_27_S26 12/26/2016 22:50:00 0.0
2016_12_27_S26 12/26/2016 22:55:00 0.0
2016_12_27_S26 12/26/2016 23:00:00 0.0
2016_12_27_S26 12/26/2016 23:05:00 0.0
2016_12_27_S26 12/26/2016 23:10:00 0.0
2016_12_27_S26 12/26/2016 23:15:00 0.0
2016_12_27_S26 12/26/2016 23:20:00 0.0
2016_12_27_S26 12/26/2016 23:25:00 0.0
2016_12_27_S26 12/26/2016 23:30:00 0.0
2016_12_27_S26 12/26/2016 23:35:00 0.0
2016_12_27_S26 12/26/2016 23:40:00 0.0
2016_12_27_S26 12/26/2016 23:45:00 0.0
2016_12_27_S26 12/26/2016 23:50:00 0.0
2016_12_27_S26 12/26/2016 23:55:00 0.0
2016_12_27_S26 12/27/2016 00:00:00 0.0
2016_12_27_S26 12/27/2016 00:05:00 0.0
2016_12_27_S26 12/27/2016 00:10:00 0.0
2016_12_27_S26 12/27/2016 00:15:00 0.0
2016_12_27_S26 12/27/2016 00:20:00 0.0
2016_12_27_S26 12/27/2016 00:25:00 0.0
2016_12_27_S26 12/27/2016 00:30:00 0.0
2016_12_27_S26 12/27/2016 00:35:00 0.0
2016_12_27_S26 12/27/2016 00:40:00 0.0
2016_12_27_S26 12/27/2016 00:45:00 0.0
2016_12_27_S26 12/27/2016 00:50:00 0.0
2016_12_27_S26 12/27/2016 00:55:00 0.0
2016_12_27_S26 12/27/2016 01:00:00 0.0
2016_12_27_S26 12/27/2016 01:05:00 0.0
2016_12_27_S26 12/27/2016 01:10:00 0.0
2016_12_27_S26 12/27/2016 01:15:00 0.0089
2016_12_27_S26 12/27/2016 01:20:00 0.0074
2016_12_27_S26 12/27/2016 01:25:00 0.0488
2016_12_27_S26 12/27/2016 01:30:00 0.2034
2016_12_27_S26 12/27/2016 01:35:00 0.6885
2016_12_27_S26 12/27/2016 01:40:00 0.3376
2016_12_27_S26 12/27/2016 01:45:00 0.4933
2016_12_27_S26 12/27/2016 01:50:00 1.3803
2016_12_27_S26 12/27/2016 01:55:00 0.4166
2016_12_27_S26 12/27/2016 02:00:00 0.1954
2016_12_27_S26 12/27/2016 02:05:00 0.0154
2016_12_27_S26 12/27/2016 02:10:00 0.0213
2016_12_27_S26 12/27/2016 02:15:00 0.0859
2016_12_27_S26 12/27/2016 02:20:00 0.2195
2016_12_27_S26 12/27/2016 02:25:00 0.1363
2016_12_27_S26 12/27/2016 02:30:00 0.3115
2016_12_27_S26 12/27/2016 02:35:00 0.13
2016_12_27_S26 12/27/2016 02:40:00 0.1821
2016_12_27_S26 12/27/2016 02:45:00 0.2867
2016_12_27_S26 12/27/2016 02:50:00 0.3708
2016_12_27_S26 12/27/2016 02:55:00 0.3103
2016_12_27_S26 12/27/2016 03:00:00 0.4758
2016_12_27_S26 12/27/2016 03:05:00 0.4305
2016_12_27_S26 12/27/2016 03:10:00 0.4898
2016_12_27_S26 12/27/2016 03:15:00 0.7011
2016_12_27_S26 12/27/2016 03:20:00 0.8433
2016_12_27_S26 12/27/2016 03:25:00 0.6717
2016_12_27_S26 12/27/2016 03:30:00 0.8037
2016_12_27_S26 12/27/2016 03:35:00 0.5087
2016_12_27_S26 12/27/2016 03:40:00 0.4365
2016_12_27_S26 12/27/2016 03:45:00 0.2175
2016_12_27_S26 12/27/2016 03:50:00 0.1711
2016_12_27_S26 12/27/2016 03:55:00 0.4797
2016_12_27_S26 12/27/2016 04:00:00 0.3517
2016_12_27_S26 12/27/2016 04:05:00 0.1068
2016_12_27_S26 12/27/2016 04:10:00 0.2694
2016_12_27_S26 12/27/2016 04:15:00 0.139
2016_12_27_S26 12/27/2016 04:20:00 0.0409
2016_12_27_S26 12/27/2016 04:25:00 0.0662
2016_12_27_S26 12/27/2016 04:30:00 0.0284
2016_12_27_S26 12/27/2016 04:35:00 0.0813
2016_12_27_S26 12/27/2016 04:40:00 0.0418
2016_12_27_S26 12/27/2016 04:45:00 0.0402
2016_12_27_S26 12/27/2016 04:50:00 0.1123
2016_12_27_S26 12/27/2016 04:55:00 0.2738
2016_12_27_S26 12/27/2016 05:00:00 0.296
2016_12_27_S26 12/27/2016 05:05:00 0.2648
2016_12_27_S26 12/27/2016 05:10:00 0.1497
2016_12_27_S26 12/27/2016 05:15:00 0.3148
2016_12_27_S26 12/27/2016 05:20:00 0.1921
2016_12_27_S26 12/27/2016 05:25:00 0.0738
2016_12_27_S26 12/27/2016 05:30:00 0.0
2016_12_27_S26 12/27/2016 05:35:00 0.0
2016_12_27_S26 12/27/2016 05:40:00 0.0
2016_12_27_S26 12/27/2016 05:45:00 0.0
2016_12_27_S26 12/27/2016 05:50:00 0.0
2016_12_27_S26 12/27/2016 05:55:00 0.0
2016_12_27_S26 12/27/2016 06:00:00 0.0
2016_12_27_S26 12/27/2016 06:05:00 0.0
2016_12_27_S26 12/27/2016 06:10:00 0.0
2016_12_27_S26 12/27/2016 06:15:00 0.0
2016_12_27_S26 12/27/2016 06:20:00 0.0
2016_12_27_S26 12/27/2016 06:25:00 0.0
2016_12_27_S26 12/27/2016 06:30:00 0.0
2016_12_27_S26 12/27/2016 06:35:00 0.0
2016_12_27_S26 12/27/2016 06:40:00 0.0
2016_12_27_S26 12/27/2016 06:45:00 0.0579
2016_12_27_S26 12/27/2016 06:50:00 0.0214
2016_12_27_S26 12/27/2016 06:55:00 0.0216
2016_12_27_S26 12/27/2016 07:00:00 0.2094
2016_12_27_S26 12/27/2016 07:05:00 0.1758
2016_12_27_S26 12/27/2016 07:10:00 0.4731
2016_12_27_S26 12/27/2016 07:15:00 0.7179
2016_12_27_S26 12/27/2016 07:20:00 0.6273
2016_12_27_S26 12/27/2016 07:25:00 0.4002
2016_12_27_S26 12/27/2016 07:30:00 0.6056
2016_12_27_S26 12/27/2016 07:35:00 0.2261
2016_12_27_S26 12/27/2016 07:40:00 0.1927
2016_12_27_S26 12/27/2016 07:45:00 0.3195
2016_12_27_S26 12/27/2016 07:50:00 0.955
2016_12_27_S26 12/27/2016 07:55:00 2.0905
2016_12_27_S26 12/27/2016 08:00:00 0.9616
2016_12_27_S26 12/27/2016 08:05:00 0.1999
2016_12_27_S26 12/27/2016 08:10:00 0.4008
2016_12_27_S26 12/27/2016 08:15:00 0.385
2016_12_27_S26 12/27/2016 08:20:00 0.4051
2016_12_27_S26 12/27/2016 08:25:00 0.4678
2016_12_27_S26 12/27/2016 08:30:00 0.0114
2016_12_27_S26 12/27/2016 08:35:00 0.1063
2016_12_27_S26 12/27/2016 08:40:00 0.2004
2016_12_27_S26 12/27/2016 08:45:00 0.8365
2016_12_27_S26 12/27/2016 08:50:00 1.0127
2016_12_27_S26 12/27/2016 08:55:00 0.7138
2016_12_27_S26 12/27/2016 09:00:00 0.3677
2016_12_27_S26 12/27/2016 09:05:00 0.7911
2016_12_27_S26 12/27/2016 09:10:00 0.5416
2016_12_27_S26 12/27/2016 09:15:00 0.1774
2016_12_27_S26 12/27/2016 09:20:00 0.569
2016_12_27_S26 12/27/2016 09:25:00 0.691
2016_12_27_S26 12/27/2016 09:30:00 0.1659
2016_12_27_S26 12/27/2016 09:35:00 0.1951
2016_12_27_S26 12/27/2016 09:40:00 0.3659
2016_12_27_S26 12/27/2016 09:45:00 0.4404
2016_12_27_S26 12/27/2016 09:50:00 0.3053
2016_12_27_S26 12/27/2016 09:55:00 0.0
2016_12_27_S26 12/27/2016 10:00:00 0.0057
2016_12_27_S26 12/27/2016 10:05:00 0.3131
2016_12_27_S26 12/27/2016 10:10:00 0.7093
2016_12_27_S26 12/27/2016 10:15:00 0.333
2016_12_27_S26 12/27/2016 10:20:00 0.0726
2016_12_27_S26 12/27/2016 10:25:00 0.1012
2016_12_27_S26 12/27/2016 10:30:00 0.0225
2016_12_27_S26 12/27/2016 10:35:00 0.0281
2016_12_27_S26 12/27/2016 10:40:00 0.0135
2016_12_27_S26 12/27/2016 10:45:00 0.5377
2016_12_27_S26 12/27/2016 10:50:00 0.495
2016_12_27_S26 12/27/2016 10:55:00 0.3389
2016_12_27_S26 12/27/2016 11:00:00 0.2019
2016_12_27_S26 12/27/2016 11:05:00 0.306
2016_12_27_S26 12/27/2016 11:10:00 0.0757
2016_12_27_S26 12/27/2016 11:15:00 0.1976
2016_12_27_S26 12/27/2016 11:20:00 0.1514
2016_12_27_S26 12/27/2016 11:25:00 0.3708
2016_12_27_S26 12/27/2016 11:30:00 0.5856
2016_12_27_S26 12/27/2016 11:35:00 0.5963
2016_12_27_S26 12/27/2016 11:40:00 0.726
2016_12_27_S26 12/27/2016 11:45:00 0.2567
2016_12_27_S26 12/27/2016 11:50:00 1.0543
2016_12_27_S26 12/27/2016 11:55:00 1.7899
2016_12_27_S26 12/27/2016 12:00:00 0.4867
2016_12_27_S26 12/27/2016 12:05:00 0.612
2016_12_27_S26 12/27/2016 12:10:00 0.2085
2016_12_27_S26 12/27/2016 12:15:00 0.6589
2016_12_27_S26 12/27/2016 12:20:00 0.2121
2016_12_27_S26 12/27/2016 12:25:00 0.0901
2016_12_27_S26 12/27/2016 12:30:00 0.3481
2016_12_27_S26 12/27/2016 12:35:00 0.0573
2016_12_27_S26 12/27/2016 12:40:00 0.0441
2016_12_27_S26 12/27/2016 12:45:00 0.0366
2016_12_27_S26 12/27/2016 12:50:00 0.0065
2016_12_27_S26 12/27/2016 12:55:00 0.0045
2016_12_27_S26 12/27/2016 13:00:00 0.0296
2016_12_27_S26 12/27/2016 13:05:00 0.0274
2016_12_27_S26 12/27/2016 13:10:00 0.0
2016_12_27_S26 12/27/2016 13:15:00 0.0
2016_12_27_S26 12/27/2016 13:20:00 0.0
2016_12_27_S26 12/27/2016 13:25:00 0.0
2016_12_27_S26 12/27/2016 13:30:00 0.0925
2016_12_27_S26 12/27/2016 13:35:00 0.2649
2016_12_27_S26 12/27/2016 13:40:00 0.1797
2016_12_27_S26 12/27/2016 13:45:00 0.2078
2016_12_27_S26 12/27/2016 13:50:00 0.2971
2016_12_27_S26 12/27/2016 13:55:00 0.009
2016_12_27_S26 12/27/2016 14:00:00 0.0467
2016_12_27_S26 12/27/2016 14:05:00 0.1437
2016_12_27_S26 12/27/2016 14:10:00 0.0337
2016_12_27_S26 12/27/2016 14:15:00 0.0038
2016_12_27_S26 12/27/2016 14:20:00 0.0271
2016_12_27_S26 12/27/2016 14:25:00 0.0205
2016_12_27_S26 12/27/2016 14:30:00 0.0231
2016_12_27_S26 12/27/2016 14:35:00 0.0
2016_12_27_S26 12/27/2016 14:40:00 0.0
2016_12_27_S26 12/27/2016 14:45:00 0.0
2016_12_27_S26 12/27/2016 14:50:00 0.0
2016_12_27_S26 12/27/2016 14:55:00 0.0
2016_12_27_S26 12/27/2016 15:00:00 0.0
2016_12_27_S26 12/27/2016 15:05:00 0.0
2016_12_27_S26 12/27/2016 15:10:00 0.0
2016_12_27_S26 12/27/2016 15:15:00 0.0
2016_12_27_S26 12/27/2016 15:20:00 0.0
2016_12_27_S26 12/27/2016 15:25:00 0.0022
2016_12_27_S26 12/27/2016 15:30:00 0.0
2016_12_27_S26 12/27/2016 15:35:00 0.0
2016_12_27_S26 12/27/2016 15:40:00 0.0
2016_12_27_S26 12/27/2016 15:45:00 0.0
2016_12_27_S26 12/27/2016 15:50:00 0.0
2016_12_27_S26 12/27/2016 15:55:00 0.0008
2016_12_27_S26 12/27/2016 16:00:00 0.0495
2016_12_27_S26 12/27/2016 16:05:00 0.6149
2016_12_27_S26 12/27/2016 16:10:00 0.0
2016_12_27_S26 12/27/2016 16:15:00 0.0
2016_12_27_S26 12/27/2016 16:20:00 0.002
2016_12_27_S26 12/27/2016 16:25:00 0.0
2016_12_27_S26 12/27/2016 16:30:00 0.0
2016_12_27_S26 12/27/2016 16:35:00 0.0
2016_12_27_S26 12/27/2016 16:40:00 0.0588
2016_12_27_S26 12/27/2016 16:45:00 0.0
2016_12_27_S26 12/27/2016 16:50:00 0.0
2016_12_27_S26 12/27/2016 16:55:00 0.0
2016_12_27_S26 12/27/2016 17:00:00 0.0
2016_12_27_S26 12/27/2016 17:05:00 0.0
2016_12_27_S26 12/27/2016 17:10:00 0.0
2016_12_27_S26 12/27/2016 17:15:00 0.0
2016_12_27_S26 12/27/2016 17:20:00 0.0
2016_12_27_S26 12/27/2016 17:25:00 0.0
2016_12_27_S26 12/27/2016 17:30:00 0.0
2016_12_27_S26 12/27/2016 17:35:00 0.0
2016_12_27_S26 12/27/2016 17:40:00 0.0063
2016_12_27_S26 12/27/2016 17:45:00 0.1759
2016_12_27_S26 12/27/2016 17:50:00 0.1023
2016_12_27_S26 12/27/2016 17:55:00 0.0569
2016_12_27_S26 12/27/2016 18:00:00 0.0
2016_12_27_S26 12/27/2016 18:05:00 0.0116
2016_12_27_S26 12/27/2016 18:10:00 0.0
2016_12_27_S26 12/27/2016 18:15:00 0.0
2016_12_27_S26 12/27/2016 18:20:00 0.0008
2016_12_27_S26 12/27/2016 18:25:00 0.4397
2016_12_27_S26 12/27/2016 18:30:00 0.0085
2016_12_27_S26 12/27/2016 18:35:00 0.018
2016_12_27_S26 12/27/2016 18:40:00 0.018
2016_12_27_S26 12/27/2016 18:45:00 0.0
2016_12_27_S26 12/27/2016 18:50:00 0.0
2016_12_27_S26 12/27/2016 18:55:00 0.0
2016_12_27_S26 12/27/2016 19:00:00 0.0
2016_12_27_S26 12/27/2016 19:05:00 0.0
2016_12_27_S26 12/27/2016 19:10:00 0.23
2016_12_27_S26 12/27/2016 19:15:00 0.1153
2016_12_27_S26 12/27/2016 19:20:00 0.0
2016_12_27_S26 12/27/2016 19:25:00 0.0
2016_12_27_S26 12/27/2016 19:30:00 0.0039
2016_12_27_S26 12/27/2016 19:35:00 0.3064
2016_12_27_S26 12/27/2016 19:40:00 1.0429
2016_12_27_S26 12/27/2016 19:45:00 2.0393
2016_12_27_S26 12/27/2016 19:50:00 1.4023
2016_12_27_S26 12/27/2016 19:55:00 0.5466
2016_12_27_S26 12/27/2016 20:00:00 0.0734
2016_12_27_S26 12/27/2016 20:05:00 0.0272
2016_12_27_S26 12/27/2016 20:10:00 0.0
2016_12_27_S26 12/27/2016 20:15:00 0.0
2016_12_27_S26 12/27/2016 20:20:00 0.0007
2016_12_27_S26 12/27/2016 20:25:00 0.0
2016_12_27_S26 12/27/2016 20:30:00 0.0
2016_12_27_S26 12/27/2016 20:35:00 0.0
2016_12_27_S26 12/27/2016 20:40:00 0.0
2016_12_27_S26 12/27/2016 20:45:00 0.0
2016_12_27_S26 12/27/2016 20:50:00 0.0
2016_12_27_S26 12/27/2016 20:55:00 0.0
2016_12_27_S26 12/27/2016 21:00:00 0.0
2016_12_27_S26 12/27/2016 21:05:00 0.0
2016_12_27_S26 12/27/2016 21:10:00 0.0
2016_12_27_S26 12/27/2016 21:15:00 0.0
2016_12_27_S26 12/27/2016 21:20:00 0.0
2016_12_27_S26 12/27/2016 21:25:00 0.0
2016_12_27_S26 12/27/2016 21:30:00 0.0
2016_12_27_S26 12/27/2016 21:35:00 0.0
2016_12_27_S26 12/27/2016 21:40:00 0.0
2016_12_27_S26 12/27/2016 21:45:00 0.0
2016_12_27_S26 12/27/2016 21:50:00 0.0
2016_12_27_S26 12/27/2016 21:55:00 0.0
2016_12_27_S26 12/27/2016 22:00:00 0.0102
2016_12_27_S26 12/27/2016 22:05:00 0.0098
2016_12_27_S26 12/27/2016 22:10:00 0.0212
2016_12_27_S26 12/27/2016 22:15:00 0.2485
2016_12_27_S26 12/27/2016 22:20:00 0.0
2016_12_27_S26 12/27/2016 22:25:00 0.0
2016_12_27_S26 12/27/2016 22:30:00 0.1561
2016_12_27_S26 12/27/2016 22:35:00 0.0419
2016_12_27_S26 12/27/2016 22:40:00 0.0375
2016_12_27_S26 12/27/2016 22:45:00 0.0
2016_12_27_S26 12/27/2016 22:50:00 0.0024
2016_12_27_S26 12/27/2016 22:55:00 0.0007
2016_12_27_S26 12/27/2016 23:00:00 0.0
2016_12_27_S26 12/27/2016 23:05:00 0.0035
2016_12_27_S26 12/27/2016 23:10:00 0.0025
2016_12_27_S26 12/27/2016 23:15:00 0.0032
2016_12_27_S26 12/27/2016 23:20:00 0.0
2016_12_27_S26 12/27/2016 23:25:00 0.0083
2016_12_27_S26 12/27/2016 23:30:00 0.0084
2016_12_27_S26 12/27/2016 23:35:00 0.0007
2016_12_27_S26 12/27/2016 23:40:00 0.0043
2016_12_27_S26 12/27/2016 23:45:00 0.0
2016_12_27_S26 12/27/2016 23:50:00 0.0
2016_12_27_S26 12/27/2016 23:55:00 0.0
2016_12_27_S26 12/28/2016 00:00:00 0.0
2016_12_27_S26 12/28/2016 00:05:00 0.0
2016_12_27_S26 12/28/2016 00:10:00 0.0
2016_12_27_S26 12/28/2016 00:15:00 0.0
2016_12_27_S26 12/28/2016 00:20:00 0.0
2016_12_27_S26 12/28/2016 00:25:00 0.0
2016_12_27_S26 12/28/2016 00:30:00 0.0
2016_12_27_S26 12/28/2016 00:35:00 0.0
2016_12_27_S26 12/28/2016 00:40:00 0.0
2016_12_27_S26 12/28/2016 00:45:00 0.0
2016_12_27_S26 12/28/2016 00:50:00 0.0
2016_12_27_S26 12/28/2016 00:55:00 0.0
2016_12_27_S26 12/28/2016 01:00:00 0.0
2016_12_27_S26 12/28/2016 01:05:00 0.0
2016_12_27_S26 12/28/2016 01:10:00 0.0
2016_12_27_S26 12/28/2016 01:15:00 0.0
2016_12_27_S26 12/28/2016 01:20:00 0.0
2016_12_27_S26 12/28/2016 01:25:00 0.0
2016_12_27_S26 12/28/2016 01:30:00 0.0
2016_12_27_S26 12/28/2016 01:35:00 0.0
2016_12_27_S26 12/28/2016 01:40:00 0.0
2016_12_27_S26 12/28/2016 01:45:00 0.0
2016_12_27_S26 12/28/2016 01:50:00 0.0
2016_12_27_S26 12/28/2016 01:55:00 0.0
2016_12_27_S26 12/28/2016 02:00:00 0.0
2016_12_27_S26 12/28/2016 02:05:00 0.0
2016_12_27_S26 12/28/2016 02:10:00 0.0
2016_12_27_S26 12/28/2016 02:15:00 0.0
2016_12_27_S26 12/28/2016 02:20:00 0.0
2016_12_27_S26 12/28/2016 02:25:00 0.0
2016_12_27_S26 12/28/2016 02:30:00 0.0
2016_12_27_S26 12/28/2016 02:35:00 0.0
2016_12_27_S26 12/28/2016 02:40:00 0.0
2016_12_27_S26 12/28/2016 02:45:00 0.0
2016_12_27_S26 12/28/2016 02:50:00 0.0
2016_12_27_S26 12/28/2016 02:55:00 0.0
2016_12_27_S26 12/28/2016 03:00:00 0.0
2016_12_27_S26 12/28/2016 03:05:00 0.0
2016_12_27_S26 12/28/2016 03:10:00 0.0
2016_12_27_S26 12/28/2016 03:15:00 0.0
2016_12_27_S26 12/28/2016 03:20:00 0.0
2016_12_27_S26 12/28/2016 03:25:00 0.0
2016_12_27_S26 12/28/2016 03:30:00 0.0
2016_12_27_S26 12/28/2016 03:35:00 0.0
2016_12_27_S26 12/28/2016 03:40:00 0.0
2016_12_27_S26 12/28/2016 03:45:00 0.0
2016_12_27_S26 12/28/2016 03:50:00 0.0
2016_12_27_S26 12/28/2016 03:55:00 0.0
2016_12_27_S26 12/28/2016 04:00:00 0.0
2016_12_27_S26 12/28/2016 04:05:00 0.0
2016_12_27_S26 12/28/2016 04:10:00 0.0
2016_12_27_S26 12/28/2016 04:15:00 0.0
2016_12_27_S26 12/28/2016 04:20:00 0.0
2016_12_27_S26 12/28/2016 04:25:00 0.0
2016_12_27_S26 12/28/2016 04:30:00 0.0
2016_12_27_S26 12/28/2016 04:35:00 0.0
2016_12_27_S26 12/28/2016 04:40:00 0.0
2016_12_27_S26 12/28/2016 04:45:00 0.0
2016_12_27_S26 12/28/2016 04:50:00 0.0
2016_12_27_S26 12/28/2016 04:55:00 0.0
2016_12_27_S26 12/28/2016 05:00:00 0.0
2016_12_27_S26 12/28/2016 05:05:00 0.0
2016_12_27_S26 12/28/2016 05:10:00 0.0
2016_12_27_S26 12/28/2016 05:15:00 0.0
2016_12_27_S26 12/28/2016 05:20:00 0.0
2016_12_27_S26 12/28/2016 05:25:00 0.0
2016_12_27_S26 12/28/2016 05:30:00 0.0
2016_12_27_S26 12/28/2016 05:35:00 0.0
2016_12_27_S26 12/28/2016 05:40:00 0.0
2016_12_27_S26 12/28/2016 05:45:00 0.0
2016_12_27_S26 12/28/2016 05:50:00 0.0
2016_12_27_S26 12/28/2016 05:55:00 0.0
2016_12_27_S26 12/28/2016 06:00:00 0.0
2016_12_27_S26 12/28/2016 06:05:00 0.0
2016_12_27_S26 12/28/2016 06:10:00 0.0
2016_12_27_S26 12/28/2016 06:15:00 0.0
2016_12_27_S26 12/28/2016 06:20:00 0.0
2016_12_27_S26 12/28/2016 06:25:00 0.0
2016_12_27_S26 12/28/2016 06:30:00 0.0
2016_12_27_S26 12/28/2016 06:35:00 0.0
2016_12_27_S26 12/28/2016 06:40:00 0.0
2016_12_27_S26 12/28/2016 06:45:00 0.0
2016_12_27_S26 12/28/2016 06:50:00 0.0
2016_12_27_S26 12/28/2016 06:55:00 0.0
2016_12_27_S26 12/28/2016 07:00:00 0.0
2016_12_27_S26 12/28/2016 07:05:00 0.0
2016_12_27_S26 12/28/2016 07:10:00 0.0
2016_12_27_S26 12/28/2016 07:15:00 0.0
2016_12_27_S26 12/28/2016 07:20:00 0.0
2016_12_27_S26 12/28/2016 07:25:00 0.0
2016_12_27_S26 12/28/2016 07:30:00 0.0
2016_12_27_S26 12/28/2016 07:35:00 0.0
2016_12_27_S26 12/28/2016 07:40:00 0.0
2016_12_27_S26 12/28/2016 07:45:00 0.0
2016_12_27_S26 12/28/2016 07:50:00 0.0
2016_12_27_S26 12/28/2016 07:55:00 0.0
2016_12_27_S26 12/28/2016 08:00:00 0.0

2016_12_27_S27 12/26/2016 08:00:00 0.0
2016_12_27_S27 12/26/2016 08:05:00 0.0
2016_12_27_S27 12/26/2016 08:10:00 0.0
2016_12_27_S27 12/26/2016 08:15:00 0.0
2016_12_27_S27 12/26/2016 08:20:00 0.0
2016_12_27_S27 12/26/2016 08:25:00 0.0
2016_12_27_S27 12/26/2016 08:30:00 0.0
2016_12_27_S27 12/26/2016 08:35:00 0.0
2016_12_27_S27 12/26/2016 08:40:00 0.0
2016_12_27_S27 12/26/2016 08:45:00 0.0
2016_12_27_S27 12/26/2016 08:50:00 0.0
2016_12_27_S27 12/26/2016 08:55:00 0.0
2016_12_27_S27 12/26/2016 09:00:00 0.0
2016_12_27_S27 12/26/2016 09:05:00 0.0
2016_12_27_S27 12/26/2016 09:10:00 0.0052
2016_12_27_S27 12/26/2016 09:15:00 0.0063
2016_12_27_S27 12/26/2016 09:20:00 0.0077
2016_12_27_S27 12/26/2016 09:25:00 0.0213
2016_12_27_S27 12/26/2016 09:30:00 0.0062
2016_12_27_S27 12/26/2016 09:35:00 0.0028
2016_12_27_S27 12/26/2016 09:40:00 0.0
2016_12_27_S27 12/26/2016 09:45:00 0.0
2016_12_27_S27 12/26/2016 09:50:00 0.0
2016_12_27_S27 12/26/2016 09:55:00 0.0
2016_12_27_S27 12/26/2016 10:00:00 0.0
2016_12_27_S27 12/26/2016 10:05:00 0.0
2016_12_27_S27 12/26/2016 10:10:00 0.0
2016_12_27_S27 12/26/2016 10:15:00 0.0
2016_12_27_S27 12/26/2016 10:20:00 0.0016
2016_12_27_S27 12/26/2016 10:25:00 0.0151
2016_12_27_S27 12/26/2016 10:30:00 0.0
2016_12_27_S27 12/26/2016 10:35:00 0.0
2016_12_27_S27 12/26/2016 10:40:00 0.0
2016_12_27_S27 12/26/2016 10:45:00 0.0
2016_12_27_S27 12/26/2016 10:50:00 0.0
2016_12_27_S27 12/26/2016 10:55:00 0.0
2016_12_27_S27 12/26/2016 11:00:00 0.0
2016_12_27_S27 12/26/2016 11:05:00 0.0
2016_12_27_S27 12/26/2016 11:10:00 0.0
2016_12_27_S27 12/26/2016 11:15:00 0.0
2016_12_27_S27 12/26/2016 11:20:00 0.0
2016_12_27_S27 12/26/2016 11:25:00 0.0
2016_12_27_S27 12/26/2016 11:30:00 0.0
2016_12_27_S27 12/26/2016 11:35:00 0.0
2016_12_27_S27 12/26/2016 11:40:00 0.0
2016_12_27_S27 12/26/2016 11:45:00 0.0
2016_12_27_S27 12/26/2016 11:50:00 0.0
2016_12_27_S27 12/26/2016 11:55:00 0.0
2016_12_27_S27 12/26/2016 12:00:00 0.2982
2016_12_27_S27 12/26/2016 12:05:00 0.006
2016_12_27_S27 12/26/2016 12:10:00 0.3
2016_12_27_S27 12/26/2016 12:15:00 0.0156
2016_12_27_S27 12/26/2016 12:20:00 0.0013
2016_12_27_S27 12/26/2016 12:25:00 0.0
2016_12_27_S27 12/26/2016 12:30:00 0.0
2016_12_27_S27 12/26/2016 12:35:00 0.0
2016_12_27_S27 12/26/2016 12:40:00 0.0291
2016_12_27_S27 12/26/2016 12:45:00 0.1462
2016_12_27_S27 12/26/2016 12:50:00 0.0404
2016_12_27_S27 12/26/2016 12:55:00 0.0
2016_12_27_S27 12/26/2016 13:00:00 0.0
2016_12_27_S27 12/26/2016 13:05:00 0.0
2016_12_27_S27 12/26/2016 13:10:00 0.0
2016_12_27_S27 12/26/2016 13:15:00 0.0
2016_12_27_S27 12/26/2016 13:20:00 0.0
2016_12_27_S27 12/26/2016 13:25:00 0.0
2016_12_27_S27 12/26/2016 13:30:00 0.0
2016_12_27_S27 12/26/2016 13:35:00 0.0
2016_12_27_S27 12/26/2016 13:40:00 0.0
2016_12_27_S27 12/26/2016 13:45:00 0.0
2016_12_27_S27 12/26/2016 13:50:00 0.0
2016_12_27_S27 12/26/2016 13:55:00 0.0
2016_12_27_S27 12/26/2016 14:00:00 0.0
2016_12_27_S27 12/26/2016 14:05:00 0.0
2016_12_27_S27 12/26/2016 14:10:00 0.0
2016_12_27_S27 12/26/2016 14:15:00 0.0
2016_12_27_S27 12/26/2016 14:20:00 0.0
2016_12_27_S27 12/26/2016 14:25:00 0.0
2016_12_27_S27 12/26/2016 14:30:00 0.0
2016_12_27_S27 12/26/2016 14:35:00 0.0
2016_12_27_S27 12/26/2016 14:40:00 0.0
2016_12_27_S27 12/26/2016 14:45:00 0.0
2016_12_27_S27 12/26/2016 14:50:00 0.0
2016_12_27_S27 12/26/2016 14:55:00 0.0
2016_12_27_S27 12/26/2016 15:00:00 0.0
2016_12_27_S27 12/26/2016 15:05:00 0.0
2016_12_27_S27 12/26/2016 15:10:00 0.0
2016_12_27_S27 12/26/2016 15:15:00 0.0
2016_12_27_S27 12/26/2016 15:20:00 0.0
2016_12_27_S27 12/26/2016 15:25:00 0.0
2016_12_27_S27 12/26/2016 15:30:00 0.0
2016_12_27_S27 12/26/2016 15:35:00 0.0
2016_12_27_S27 12/26/2016 15:40:00 0.0
2016_12_27_S27 12/26/2016 15:45:00 0.0
2016_12_27_S27 12/26/2016 15:50:00 0.0
2016_12_27_S27 12/26/2016 15:55:00 0.0
2016_12_27_S27 12/26/2016 16:00:00 0.0
2016_12_27_S27 12/26/2016 16:05:00 0.0
2016_12_27_S27 12/26/2016 16:10:00 0.0
2016_12_27_S27 12/26/2016 16:15:00 0.0
2016_12_27_S27 12/26/2016 16:20:00 0.0
2016_12_27_S27 12/26/2016 16:25:00 0.0
2016_12_27_S27 12/26/2016 16:30:00 0.0
2016_12_27_S27 12/26/2016 16:35:00 0.0
2016_12_27_S27 12/26/2016 16:40:00 0.0
2016_12_27_S27 12/26/2016 16:45:00 0.0
2016_12_27_S27 12/26/2016 16:50:00 0.0
2016_12_27_S27 12/26/2016 16:55:00 0.0
2016_12_27_S27 12/26/2016 17:00:00 0.0
2016_12_27_S27 12/26/2016 17:05:00 0.0
2016_12_27_S27 12/26/2016 17:10:00 0.0
2016_12_27_S27 12/26/2016 17:15:00 0.0
2016_12_27_S27 12/26/2016 17:20:00 0.0
2016_12_27_S27 12/26/2016 17:25:00 0.0
2016_12_27_S27 12/26/2016 17:30:00 0.0
2016_12_27_S27 12/26/2016 17:35:00 0.0
2016_12_27_S27 12/26/2016 17:40:00 0.0
2016_12_27_S27 12/26/2016 17:45:00 0.0
2016_12_27_S27 12/26/2016 17:50:00 0.0
2016_12_27_S27 12/26/2016 17:55:00 0.0
2016_12_27_S27 12/26/2016 18:00:00 0.0
2016_12_27_S27 12/26/2016 18:05:00 0.0
2016_12_27_S27 12/26/2016 18:10:00 0.0
2016_12_27_S27 12/26/2016 18:15:00 0.0
2016_12_27_S27 12/26/2016 18:20:00 0.0
2016_12_27_S27 12/26/2016 18:25:00 0.0
2016_12_27_S27 12/26/2016 18:30:00 0.0
2016_12_27_S27 12/26/2016 18:35:00 0.0
2016_12_27_S27 12/26/2016 18:40:00 0.0
2016_12_27_S27 12/26/2016 18:45:00 0.0
2016_12_27_S27 12/26/2016 18:50:00 0.0
2016_12_27_S27 12/26/2016 18:55:00 0.0
2016_12_27_S27 12/26/2016 19:00:00 0.0
2016_12_27_S27 12/26/2016 19:05:00 0.0
2016_12_27_S27 12/26/2016 19:10:00 0.0
2016_12_27_S27 12/26/2016 19:15:00 0.0
2016_12_27_S27 12/26/2016 19:20:00 0.0
2016_12_27_S27 12/26/2016 19:25:00 0.0
2016_12_27_S27 12/26/2016 19:30:00 0.0
2016_12_27_S27 12/26/2016 19:35:00 0.0
2016_12_27_S27 12/26/2016 19:40:00 0.0
2016_12_27_S27 12/26/2016 19:45:00 0.0
2016_12_27_S27 12/26/2016 19:50:00 0.0
2016_12_27_S27 12/26/2016 19:55:00 0.0
2016_12_27_S27 12/26/2016 20:00:00 0.0
2016_12_27_S27 12/26/2016 20:05:00 0.0
2016_12_27_S27 12/26/2016 20:10:00 0.0
2016_12_27_S27 12/26/2016 20:15:00 0.0
2016_12_27_S27 12/26/2016 20:20:00 0.0
2016_12_27_S27 12/26/2016 20:25:00 0.0
2016_12_27_S27 12/26/2016 20:30:00 0.0
2016_12_27_S27 12/26/2016 20:35:00 0.0
2016_12_27_S27 12/26/2016 20:40:00 0.0
2016_12_27_S27 12/26/2016 20:45:00 0.0
2016_12_27_S27 12/26/2016 20:50:00 0.0
2016_12_27_S27 12/26/2016 20:55:00 0.0
2016_12_27_S27 12/26/2016 21:00:00 0.0
2016_12_27_S27 12/26/2016 21:05:00 0.0
2016_12_27_S27 12/26/2016 21:10:00 0.0
2016_12_27_S27 12/26/2016 21:15:00 0.0
2016_12_27_S27 12/26/2016 21:20:00 0.0
2016_12_27_S27 12/26/2016 21:25:00 0.0
2016_12_27_S27 12/26/2016 21:30:00 0.0
2016_12_27_S27 12/26/2016 21:35:00 0.0
2016_12_27_S27 12/26/2016 21:40:00 0.0
2016_12_27_S27 12/26/2016 21:45:00 0.0
2016_12_27_S27 12/26/2016 21:50:00 0.0
2016_12_27_S27 12/26/2016 21:55:00 0.0
2016_12_27_S27 12/26/2016 22:00:00 0.0
2016_12_27_S27 12/26/2016 22:05:00 0.0
2016_12_27_S27 12/26/2016 22:10:00 0.0
2016_12_27_S27 12/26/2016 22:15:00 0.0
2016_12_27_S27 12/26/2016 22:20:00 0.0
2016_12_27_S27 12/26/2016 22:25:00 0.0
2016_12_27_S27 12/26/2016 22:30:00 0.0
2016_12_27_S27 12/26/2016 22:35:00 0.0
2016_12_27_S27 12/26/2016 22:40:00 0.0
2016_12_27_S27 12/26/2016 22:45:00 0.0
2016_12_27_S27 12/26/2016 22:50:00 0.0
2016_12_27_S27 12/26/2016 22:55:00 0.0
2016_12_27_S27 12/26/2016 23:00:00 0.0
2016_12_27_S27 12/26/2016 23:05:00 0.0
2016_12_27_S27 12/26/2016 23:10:00 0.0
2016_12_27_S27 12/26/2016 23:15:00 0.0
2016_12_27_S27 12/26/2016 23:20:00 0.0
2016_12_27_S27 12/26/2016 23:25:00 0.0
2016_12_27_S27 12/26/2016 23:30:00 0.0
2016_12_27_S27 12/26/2016 23:35:00 0.0
2016_12_27_S27 12/26/2016 23:40:00 0.0
2016_12_27_S27 12/26/2016 23:45:00 0.0
2016_12_27_S27 12/26/2016 23:50:00 0.0
2016_12_27_S27 12/26/2016 23:55:00 0.0
2016_12_27_S27 12/27/2016 00:00:00 0.0
2016_12_27_S27 12/27/2016 00:05:00 0.0
2016_12_27_S27 12/27/2016 00:10:00 0.0
2016_12_27_S27 12/27/2016 00:15:00 0.0
2016_12_27_S27 12/27/2016 00:20:00 0.0
2016_12_27_S27 12/27/2016 00:25:00 0.0
2016_12_27_S27 12/27/2016 00:30:00 0.0
2016_12_27_S27 12/27/2016 00:35:00 0.0
2016_12_27_S27 12/27/2016 00:40:00 0.0
2016_12_27_S27 12/27/2016 00:45:00 0.0
2016_12_27_S27 12/27/2016 00:50:00 0.0
2016_12_27_S27 12/27/2016 00:55:00 0.0
2016_12_27_S27 12/27/2016 01:00:00 0.0
2016_12_27_S27 12/27/2016 01:05:00 0.0
2016_12_27_S27 12/27/2016 01:10:00 0.0
2016_12_27_S27 12/27/2016 01:15:00 0.016
2016_12_27_S27 12/27/2016 01:20:00 0.0101
2016_12_27_S27 12/27/2016 01:25:00 0.0706
2016_12_27_S27 12/27/2016 01:30:00 0.2965
2016_12_27_S27 12/27/2016 01:35:00 0.8419
2016_12_27_S27 12/27/2016 01:40:00 1.1626
2016_12_27_S27 12/27/2016 01:45:00 1.3944
2016_12_27_S27 12/27/2016 01:50:00 0.9465
2016_12_27_S27 12/27/2016 01:55:00 0.3889
2016_12_27_S27 12/27/2016 02:00:00 0.2963
2016_12_27_S27 12/27/2016 02:05:00 0.0151
2016_12_27_S27 12/27/2016 02:10:00 0.0149
2016_12_27_S27 12/27/2016 02:15:00 0.0912
2016_12_27_S27 12/27/2016 02:20:00 0.228
2016_12_27_S27 12/27/2016 02:25:00 0.1013
2016_12_27_S27 12/27/2016 02:30:00 0.2501
2016_12_27_S27 12/27/2016 02:35:00 0.1292
2016_12_27_S27 12/27/2016 02:40:00 0.2264
2016_12_27_S27 12/27/2016 02:45:00 0.3657
2016_12_27_S27 12/27/2016 02:50:00 0.378
2016_12_27_S27 12/27/2016 02:55:00 0.3692
2016_12_27_S27 12/27/2016 03:00:00 0.5017
2016_12_27_S27 12/27/2016 03:05:00 0.401
2016_12_27_S27 12/27/2016 03:10:00 0.3195
2016_12_27_S27 12/27/2016 03:15:00 0.5249
2016_12_27_S27 12/27/2016 03:20:00 1.0032
2016_12_27_S27 12/27/2016 03:25:00 0.8354
2016_12_27_S27 12/27/2016 03:30:00 0.6204
2016_12_27_S27 12/27/2016 03:35:00 0.4325
2016_12_27_S27 12/27/2016 03:40:00 0.3319
2016_12_27_S27 12/27/2016 03:45:00 0.163
2016_12_27_S27 12/27/2016 03:50:00 0.1515
2016_12_27_S27 12/27/2016 03:55:00 0.3428
2016_12_27_S27 12/27/2016 04:00:00 0.347
2016_12_27_S27 12/27/2016 04:05:00 0.1212
2016_12_27_S27 12/27/2016 04:10:00 0.3182
2016_12_27_S27 12/27/2016 04:15:00 0.1248
2016_12_27_S27 12/27/2016 04:20:00 0.03
2016_12_27_S27 12/27/2016 04:25:00 0.0779
2016_12_27_S27 12/27/2016 04:30:00 0.0301
2016_12_27_S27 12/27/2016 04:35:00 0.087
2016_12_27_S27 12/27/2016 04:40:00 0.0535
2016_12_27_S27 12/27/2016 04:45:00 0.0503
2016_12_27_S27 12/27/2016 04:50:00 0.1173
2016_12_27_S27 12/27/2016 04:55:00 0.2424
2016_12_27_S27 12/27/2016 05:00:00 0.25
2016_12_27_S27 12/27/2016 05:05:00 0.2455
2016_12_27_S27 12/27/2016 05:10:00 0.1678
2016_12_27_S27 12/27/2016 05:15:00 0.3274
2016_12_27_S27 12/27/2016 05:20:00 0.1458
2016_12_27_S27 12/27/2016 05:25:00 0.0643
2016_12_27_S27 12/27/2016 05:30:00 0.0
2016_12_27_S27 12/27/2016 05:35:00 0.0
2016_12_27_S27 12/27/2016 05:40:00 0.0
2016_12_27_S27 12/27/2016 05:45:00 0.0
2016_12_27_S27 12/27/2016 05:50:00 0.0
2016_12_27_S27 12/27/2016 05:55:00 0.0
2016_12_27_S27 12/27/2016 06:00:00 0.0
2016_12_27_S27 12/27/2016 06:05:00 0.0
2016_12_27_S27 12/27/2016 06:10:00 0.0
2016_12_27_S27 12/27/2016 06:15:00 0.0
2016_12_27_S27 12/27/2016 06:20:00 0.0
2016_12_27_S27 12/27/2016 06:25:00 0.0
2016_12_27_S27 12/27/2016 06:30:00 0.0
2016_12_27_S27 12/27/2016 06:35:00 0.0
2016_12_27_S27 12/27/2016 06:40:00 0.0035
2016_12_27_S27 12/27/2016 06:45:00 0.0234
2016_12_27_S27 12/27/2016 06:50:00 0.045
2016_12_27_S27 12/27/2016 06:55:00 0.021
2016_12_27_S27 12/27/2016 07:00:00 0.3024
2016_12_27_S27 12/27/2016 07:05:00 0.2478
2016_12_27_S27 12/27/2016 07:10:00 0.5937
2016_12_27_S27 12/27/2016 07:15:00 0.5077
2016_12_27_S27 12/27/2016 07:20:00 0.6224
2016_12_27_S27 12/27/2016 07:25:00 0.3904
2016_12_27_S27 12/27/2016 07:30:00 0.3511
2016_12_27_S27 12/27/2016 07:35:00 0.2417
2016_12_27_S27 12/27/2016 07:40:00 0.2133
2016_12_27_S27 12/27/2016 07:45:00 0.2889
2016_12_27_S27 12/27/2016 07:50:00 0.7287
2016_12_27_S27 12/27/2016 07:55:00 1.796
2016_12_27_S27 12/27/2016 08:00:00 0.5993
2016_12_27_S27 12/27/2016 08:05:00 0.1299
2016_12_27_S27 12/27/2016 08:10:00 0.2312
2016_12_27_S27 12/27/2016 08:15:00 0.3275
2016_12_27_S27 12/27/2016 08:20:00 0.5975
2016_12_27_S27 12/27/2016 08:25:00 0.2163
2016_12_27_S27 12/27/2016 08:30:00 0.0482
2016_12_27_S27 12/27/2016 08:35:00 0.1865
2016_12_27_S27 12/27/2016 08:40:00 0.3836
2016_12_27_S27 12/27/2016 08:45:00 0.8482
2016_12_27_S27 12/27/2016 08:50:00 1.0929
2016_12_27_S27 12/27/2016 08:55:00 1.1696
2016_12_27_S27 12/27/2016 09:00:00 0.4291
2016_12_27_S27 12/27/2016 09:05:00 0.7028
2016_12_27_S27 12/27/2016 09:10:00 0.5622
2016_12_27_S27 12/27/2016 09:15:00 0.1759
2016_12_27_S27 12/27/2016 09:20:00 0.7114
2016_12_27_S27 12/27/2016 09:25:00 0.7741
2016_12_27_S27 12/27/2016 09:30:00 0.1958
2016_12_27_S27 12/27/2016 09:35:00 0.1976
2016_12_27_S27 12/27/2016 09:40:00 0.3383
2016_12_27_S27 12/27/2016 09:45:00 0.5778
2016_12_27_S27 12/27/2016 09:50:00 0.2897
2016_12_27_S27 12/27/2016 09:55:00 0.0
2016_12_27_S27 12/27/2016 10:00:00 0.0116
2016_12_27_S27 12/27/2016 10:05:00 0.3758
2016_12_27_S27 12/27/2016 10:10:00 0.7678
2016_12_27_S27 12/27/2016 10:15:00 0.2388
2016_12_27_S27 12/27/2016 10:20:00 0.0569
2016_12_27_S27 12/27/2016 10:25:00 0.122
2016_12_27_S27 12/27/2016 10:30:00 0.0204
2016_12_27_S27 12/27/2016 10:35:00 0.0191
2016_12_27_S27 12/27/2016 10:40:00 0.0185
2016_12_27_S27 12/27/2016 10:45:00 0.83
2016_12_27_S27 12/27/2016 10:50:00 0.4022
2016_12_27_S27 12/27/2016 10:55:00 0.4089
2016_12_27_S27 12/27/2016 11:00:00 0.2021
2016_12_27_S27 12/27/2016 11:05:00 0.3006
2016_12_27_S27 12/27/2016 11:10:00 0.0992
2016_12_27_S27 12/27/2016 11:15:00 0.2712
2016_12_27_S27 12/27/2016 11:20:00 0.1768
2016_12_27_S27 12/27/2016 11:25:00 0.3968
2016_12_27_S27 12/27/2016 11:30:00 0.3714
2016_12_27_S27 12/27/2016 11:35:00 0.7064
2016_12_27_S27 12/27/2016 11:40:00 0.9538
2016_12_27_S27 12/27/2016 11:45:00 0.3428
2016_12_27_S27 12/27/2016 11:50:00 1.309
2016_12_27_S27 12/27/2016 11:55:00 1.7066
2016_12_27_S27 12/27/2016 12:00:00 0.4164
2016_12_27_S27 12/27/2016 12:05:00 0.3682
2016_12_27_S27 12/27/2016 12:10:00 0.2715
2016_12_27_S27 12/27/2016 12:15:00 0.5191
2016_12_27_S27 12/27/2016 12:20:00 0.1126
2016_12_27_S27 12/27/2016 12:25:00 0.0879
2016_12_27_S27 12/27/2016 12:30:00 0.2717
2016_12_27_S27 12/27/2016 12:35:00 0.0587
2016_12_27_S27 12/27/2016 12:40:00 0.0342
2016_12_27_S27 12/27/2016 12:45:00 0.0381
2016_12_27_S27 12/27/2016 12:50:00 0.0071
2016_12_27_S27 12/27/2016 12:55:00 0.0035
2016_12_27_S27 12/27/2016 13:00:00 0.0287
2016_12_27_S27 12/27/2016 13:05:00 0.0193
2016_12_27_S27 12/27/2016 13:10:00 0.0
2016_12_27_S27 12/27/2016 13:15:00 0.0
2016_12_27_S27 12/27/2016 13:20:00 0.0
2016_12_27_S27 12/27/2016 13:25:00 0.0023
2016_12_27_S27 12/27/2016 13:30:00 0.1138
2016_12_27_S27 12/27/2016 13:35:00 0.2746
2016_12_27_S27 12/27/2016 13:40:00 0.1924
2016_12_27_S27 12/27/2016 13:45:00 0.1554
2016_12_27_S27 12/27/2016 13:50:00 0.2149
2016_12_27_S27 12/27/2016 13:55:00 0.0103
2016_12_27_S27 12/27/2016 14:00:00 0.0466
2016_12_27_S27 12/27/2016 14:05:00 0.1019
2016_12_27_S27 12/27/2016 14:10:00 0.0367
2016_12_27_S27 12/27/2016 14:15:00 0.0005
2016_12_27_S27 12/27/2016 14:20:00 0.0128
2016_12_27_S27 12/27/2016 14:25:00 0.0173
2016_12_27_S27 12/27/2016 14:30:00 0.0179
2016_12_27_S27 12/27/2016 14:35:00 0.0
2016_12_27_S27 12/27/2016 14:40:00 0.0031
2016_12_27_S27 12/27/2016 14:45:00 0.0
2016_12_27_S27 12/27/2016 14:50:00 0.0
2016_12_27_S27 12/27/2016 14:55:00 0.0
2016_12_27_S27 12/27/2016 15:00:00 0.0
2016_12_27_S27 12/27/2016 15:05:00 0.0
2016_12_27_S27 12/27/2016 15:10:00 0.0
2016_12_27_S27 12/27/2016 15:15:00 0.0008
2016_12_27_S27 12/27/2016 15:20:00 0.0
2016_12_27_S27 12/27/2016 15:25:00 0.0
2016_12_27_S27 12/27/2016 15:30:00 0.0
2016_12_27_S27 12/27/2016 15:35:00 0.0
2016_12_27_S27 12/27/2016 15:40:00 0.0
2016_12_27_S27 12/27/2016 15:45:00 0.0
2016_12_27_S27 12/27/2016 15:50:00 0.0
2016_12_27_S27 12/27/2016 15:55:00 0.0006
2016_12_27_S27 12/27/2016 16:00:00 0.1045
2016_12_27_S27 12/27/2016 16:05:00 0.5367
2016_12_27_S27 12/27/2016 16:10:00 0.0
2016_12_27_S27 12/27/2016 16:15:00 0.0
2016_12_27_S27 12/27/2016 16:20:00 0.0294
2016_12_27_S27 12/27/2016 16:25:00 0.005
2016_12_27_S27 12/27/2016 16:30:00 0.0
2016_12_27_S27 12/27/2016 16:35:00 0.0
2016_12_27_S27 12/27/2016 16:40:00 0.0639
2016_12_27_S27 12/27/2016 16:45:00 0.0
2016_12_27_S27 12/27/2016 16:50:00 0.0
2016_12_27_S27 12/27/2016 16:55:00 0.0
2016_12_27_S27 12/27/2016 17:00:00 0.0
2016_12_27_S27 12/27/2016 17:05:00 0.0
2016_12_27_S27 12/27/2016 17:10:00 0.0
2016_12_27_S27 12/27/2016 17:15:00 0.0
2016_12_27_S27 12/27/2016 17:20:00 0.0
2016_12_27_S27 12/27/2016 17:25:00 0.0
2016_12_27_S27 12/27/2016 17:30:00 0.0
2016_12_27_S27 12/27/2016 17:35:00 0.0
2016_12_27_S27 12/27/2016 17:40:00 0.0055
2016_12_27_S27 12/27/2016 17:45:00 0.1699
2016_12_27_S27 12/27/2016 17:50:00 0.0942
2016_12_27_S27 12/27/2016 17:55:00 0.0341
2016_12_27_S27 12/27/2016 18:00:00 0.0
2016_12_27_S27 12/27/2016 18:05:00 0.0095
2016_12_27_S27 12/27/2016 18:10:00 0.0
2016_12_27_S27 12/27/2016 18:15:00 0.0
2016_12_27_S27 12/27/2016 18:20:00 0.0022
2016_12_27_S27 12/27/2016 18:25:00 0.2565
2016_12_27_S27 12/27/2016 18:30:00 0.0034
2016_12_27_S27 12/27/2016 18:35:00 0.0274
2016_12_27_S27 12/27/2016 18:40:00 0.0137
2016_12_27_S27 12/27/2016 18:45:00 0.0
2016_12_27_S27 12/27/2016 18:50:00 0.0
2016_12_27_S27 12/27/2016 18:55:00 0.0
2016_12_27_S27 12/27/2016 19:00:00 0.0
2016_12_27_S27 12/27/2016 19:05:00 0.0
2016_12_27_S27 12/27/2016 19:10:00 0.117
2016_12_27_S27 12/27/2016 19:15:00 0.0092
2016_12_27_S27 12/27/2016 19:20:00 0.0
2016_12_27_S27 12/27/2016 19:25:00 0.0
2016_12_27_S27 12/27/2016 19:30:00 0.0078
2016_12_27_S27 12/27/2016 19:35:00 0.4723
2016_12_27_S27 12/27/2016 19:40:00 0.4741
2016_12_27_S27 12/27/2016 19:45:00 1.7179
2016_12_27_S27 12/27/2016 19:50:00 0.8037
2016_12_27_S27 12/27/2016 19:55:00 0.1519
2016_12_27_S27 12/27/2016 20:00:00 0.0733
2016_12_27_S27 12/27/2016 20:05:00 0.0147
2016_12_27_S27 12/27/2016 20:10:00 0.0
2016_12_27_S27 12/27/2016 20:15:00 0.0002
2016_12_27_S27 12/27/2016 20:20:00 0.0
2016_12_27_S27 12/27/2016 20:25:00 0.0
2016_12_27_S27 12/27/2016 20:30:00 0.0
2016_12_27_S27 12/27/2016 20:35:00 0.0
2016_12_27_S27 12/27/2016 20:40:00 0.0
2016_12_27_S27 12/27/2016 20:45:00 0.0
2016_12_27_S27 12/27/2016 20:50:00 0.0
2016_12_27_S27 12/27/2016 20:55:00 0.0
2016_12_27_S27 12/27/2016 21:00:00 0.0
2016_12_27_S27 12/27/2016 21:05:00 0.0
2016_12_27_S27 12/27/2016 21:10:00 0.0
2016_12_27_S27 12/27/2016 21:15:00 0.0
2016_12_27_S27 12/27/2016 21:20:00 0.0
2016_12_27_S27 12/27/2016 21:25:00 0.0
2016_12_27_S27 12/27/2016 21:30:00 0.0
2016_12_27_S27 12/27/2016 21:35:00 0.0
2016_12_27_S27 12/27/2016 21:40:00 0.0
2016_12_27_S27 12/27/2016 21:45:00 0.0
2016_12_27_S27 12/27/2016 21:50:00 0.0
2016_12_27_S27 12/27/2016 21:55:00 0.0
2016_12_27_S27 12/27/2016 22:00:00 0.0665
2016_12_27_S27 12/27/2016 22:05:00 0.0396
2016_12_27_S27 12/27/2016 22:10:00 0.07
2016_12_27_S27 12/27/2016 22:15:00 0.6149
2016_12_27_S27 12/27/2016 22:20:00 0.0002
2016_12_27_S27 12/27/2016 22:25:00 0.0005
2016_12_27_S27 12/27/2016 22:30:00 0.2414
2016_12_27_S27 12/27/2016 22:35:00 0.065
2016_12_27_S27 12/27/2016 22:40:00 0.0144
2016_12_27_S27 12/27/2016 22:45:00 0.0
2016_12_27_S27 12/27/2016 22:50:00 0.0
2016_12_27_S27 12/27/2016 22:55:00 0.0007
2016_12_27_S27 12/27/2016 23:00:00 0.0002
2016_12_27_S27 12/27/2016 23:05:00 0.0007
2016_12_27_S27 12/27/2016 23:10:00 0.0
2016_12_27_S27 12/27/2016 23:15:00 0.0007
2016_12_27_S27 12/27/2016 23:20:00 0.0001
2016_12_27_S27 12/27/2016 23:25:00 0.0076
2016_12_27_S27 12/27/2016 23:30:00 0.0024
2016_12_27_S27 12/27/2016 23:35:00 0.0007
2016_12_27_S27 12/27/2016 23:40:00 0.0026
2016_12_27_S27 12/27/2016 23:45:00 0.0
2016_12_27_S27 12/27/2016 23:50:00 0.0
2016_12_27_S27 12/27/2016 23:55:00 0.0
2016_12_27_S27 12/28/2016 00:00:00 0.0
2016_12_27_S27 12/28/2016 00:05:00 0.0
2016_12_27_S27 12/28/2016 00:10:00 0.0
2016_12_27_S27 12/28/2016 00:15:00 0.0
2016_12_27_S27 12/28/2016 00:20:00 0.0
2016_12_27_S27 12/28/2016 00:25:00 0.0
2016_12_27_S27 12/28/2016 00:30:00 0.0
2016_12_27_S27 12/28/2016 00:35:00 0.0
2016_12_27_S27 12/28/2016 00:40:00 0.0
2016_12_27_S27 12/28/2016 00:45:00 0.0
2016_12_27_S27 12/28/2016 00:50:00 0.0
2016_12_27_S27 12/28/2016 00:55:00 0.0
2016_12_27_S27 12/28/2016 01:00:00 0.0
2016_12_27_S27 12/28/2016 01:05:00 0.0
2016_12_27_S27 12/28/2016 01:10:00 0.0
2016_12_27_S27 12/28/2016 01:15:00 0.0
2016_12_27_S27 12/28/2016 01:20:00 0.0
2016_12_27_S27 12/28/2016 01:25:00 0.0
2016_12_27_S27 12/28/2016 01:30:00 0.0
2016_12_27_S27 12/28/2016 01:35:00 0.0
2016_12_27_S27 12/28/2016 01:40:00 0.0
2016_12_27_S27 12/28/2016 01:45:00 0.0
2016_12_27_S27 12/28/2016 01:50:00 0.0
2016_12_27_S27 12/28/2016 01:55:00 0.0
2016_12_27_S27 12/28/2016 02:00:00 0.0
2016_12_27_S27 12/28/2016 02:05:00 0.0
2016_12_27_S27 12/28/2016 02:10:00 0.0
2016_12_27_S27 12/28/2016 02:15:00 0.0
2016_12_27_S27 12/28/2016 02:20:00 0.0
2016_12_27_S27 12/28/2016 02:25:00 0.0
2016_12_27_S27 12/28/2016 02:30:00 0.0
2016_12_27_S27 12/28/2016 02:35:00 0.0
2016_12_27_S27 12/28/2016 02:40:00 0.0
2016_12_27_S27 12/28/2016 02:45:00 0.0
2016_12_27_S27 12/28/2016 02:50:00 0.0
2016_12_27_S27 12/28/2016 02:55:00 0.0
2016_12_27_S27 12/28/2016 03:00:00 0.0
2016_12_27_S27 12/28/2016 03:05:00 0.0
2016_12_27_S27 12/28/2016 03:10:00 0.0
2016_12_27_S27 12/28/2016 03:15:00 0.0
2016_12_27_S27 12/28/2016 03:20:00 0.0
2016_12_27_S27 12/28/2016 03:25:00 0.0
2016_12_27_S27 12/28/2016 03:30:00 0.0
2016_12_27_S27 12/28/2016 03:35:00 0.0
2016_12_27_S27 12/28/2016 03:40:00 0.0
2016_12_27_S27 12/28/2016 03:45:00 0.0
2016_12_27_S27 12/28/2016 03:50:00 0.0
2016_12_27_S27 12/28/2016 03:55:00 0.0
2016_12_27_S27 12/28/2016 04:00:00 0.0
2016_12_27_S27 12/28/2016 04:05:00 0.0
2016_12_27_S27 12/28/2016 04:10:00 0.0
2016_12_27_S27 12/28/2016 04:15:00 0.0
2016_12_27_S27 12/28/2016 04:20:00 0.0
2016_12_27_S27 12/28/2016 04:25:00 0.0
2016_12_27_S27 12/28/2016 04:30:00 0.0
2016_12_27_S27 12/28/2016 04:35:00 0.0
2016_12_27_S27 12/28/2016 04:40:00 0.0
2016_12_27_S27 12/28/2016 04:45:00 0.0
2016_12_27_S27 12/28/2016 04:50:00 0.0
2016_12_27_S27 12/28/2016 04:55:00 0.0
2016_12_27_S27 12/28/2016 05:00:00 0.0
2016_12_27_S27 12/28/2016 05:05:00 0.0
2016_12_27_S27 12/28/2016 05:10:00 0.0
2016_12_27_S27 12/28/2016 05:15:00 0.0
2016_12_27_S27 12/28/2016 05:20:00 0.0
2016_12_27_S27 12/28/2016 05:25:00 0.0
2016_12_27_S27 12/28/2016 05:30:00 0.0
2016_12_27_S27 12/28/2016 05:35:00 0.0
2016_12_27_S27 12/28/2016 05:40:00 0.0
2016_12_27_S27 12/28/2016 05:45:00 0.0
2016_12_27_S27 12/28/2016 05:50:00 0.0
2016_12_27_S27 12/28/2016 05:55:00 0.0
2016_12_27_S27 12/28/2016 06:00:00 0.0
2016_12_27_S27 12/28/2016 06:05:00 0.0
2016_12_27_S27 12/28/2016 06:10:00 0.0
2016_12_27_S27 12/28/2016 06:15:00 0.0
2016_12_27_S27 12/28/2016 06:20:00 0.0
2016_12_27_S27 12/28/2016 06:25:00 0.0
2016_12_27_S27 12/28/2016 06:30:00 0.0
2016_12_27_S27 12/28/2016 06:35:00 0.0
2016_12_27_S27 12/28/2016 06:40:00 0.0
2016_12_27_S27 12/28/2016 06:45:00 0.0
2016_12_27_S27 12/28/2016 06:50:00 0.0
2016_12_27_S27 12/28/2016 06:55:00 0.0
2016_12_27_S27 12/28/2016 07:00:00 0.0
2016_12_27_S27 12/28/2016 07:05:00 0.0
2016_12_27_S27 12/28/2016 07:10:00 0.0
2016_12_27_S27 12/28/2016 07:15:00 0.0
2016_12_27_S27 12/28/2016 07:20:00 0.0
2016_12_27_S27 12/28/2016 07:25:00 0.0
2016_12_27_S27 12/28/2016 07:30:00 0.0
2016_12_27_S27 12/28/2016 07:35:00 0.0
2016_12_27_S27 12/28/2016 07:40:00 0.0
2016_12_27_S27 12/28/2016 07:45:00 0.0
2016_12_27_S27 12/28/2016 07:50:00 0.0
2016_12_27_S27 12/28/2016 07:55:00 0.0
2016_12_27_S27 12/28/2016 08:00:00 0.0

2016_12_27_S28 12/26/2016 08:00:00 0.0
2016_12_27_S28 12/26/2016 08:05:00 0.0
2016_12_27_S28 12/26/2016 08:10:00 0.0
2016_12_27_S28 12/26/2016 08:15:00 0.0
2016_12_27_S28 12/26/2016 08:20:00 0.0
2016_12_27_S28 12/26/2016 08:25:00 0.0
2016_12_27_S28 12/26/2016 08:30:00 0.0
2016_12_27_S28 12/26/2016 08:35:00 0.0
2016_12_27_S28 12/26/2016 08:40:00 0.0
2016_12_27_S28 12/26/2016 08:45:00 0.0
2016_12_27_S28 12/26/2016 08:50:00 0.0
2016_12_27_S28 12/26/2016 08:55:00 0.0
2016_12_27_S28 12/26/2016 09:00:00 0.0
2016_12_27_S28 12/26/2016 09:05:00 0.0
2016_12_27_S28 12/26/2016 09:10:00 0.001
2016_12_27_S28 12/26/2016 09:15:00 0.0038
2016_12_27_S28 12/26/2016 09:20:00 0.0064
2016_12_27_S28 12/26/2016 09:25:00 0.0166
2016_12_27_S28 12/26/2016 09:30:00 0.0222
2016_12_27_S28 12/26/2016 09:35:00 0.0
2016_12_27_S28 12/26/2016 09:40:00 0.0
2016_12_27_S28 12/26/2016 09:45:00 0.0
2016_12_27_S28 12/26/2016 09:50:00 0.0
2016_12_27_S28 12/26/2016 09:55:00 0.0
2016_12_27_S28 12/26/2016 10:00:00 0.0
2016_12_27_S28 12/26/2016 10:05:00 0.0
2016_12_27_S28 12/26/2016 10:10:00 0.0
2016_12_27_S28 12/26/2016 10:15:00 0.0
2016_12_27_S28 12/26/2016 10:20:00 0.0016
2016_12_27_S28 12/26/2016 10:25:00 0.027
2016_12_27_S28 12/26/2016 10:30:00 0.0
2016_12_27_S28 12/26/2016 10:35:00 0.0
2016_12_27_S28 12/26/2016 10:40:00 0.0
2016_12_27_S28 12/26/2016 10:45:00 0.0
2016_12_27_S28 12/26/2016 10:50:00 0.0
2016_12_27_S28 12/26/2016 10:55:00 0.0
2016_12_27_S28 12/26/2016 11:00:00 0.0
2016_12_27_S28 12/26/2016 11:05:00 0.0
2016_12_27_S28 12/26/2016 11:10:00 0.0
2016_12_27_S28 12/26/2016 11:15:00 0.0
2016_12_27_S28 12/26/2016 11:20:00 0.0
2016_12_27_S28 12/26/2016 11:25:00 0.0
2016_12_27_S28 12/26/2016 11:30:00 0.0
2016_12_27_S28 12/26/2016 11:35:00 0.0
2016_12_27_S28 12/26/2016 11:40:00 0.0
2016_12_27_S28 12/26/2016 11:45:00 0.0
2016_12_27_S28 12/26/2016 11:50:00 0.0
2016_12_27_S28 12/26/2016 11:55:00 0.0
2016_12_27_S28 12/26/2016 12:00:00 0.3125
2016_12_27_S28 12/26/2016 12:05:00 0.0
2016_12_27_S28 12/26/2016 12:10:00 0.2389
2016_12_27_S28 12/26/2016 12:15:00 0.0099
2016_12_27_S28 12/26/2016 12:20:00 0.0056
2016_12_27_S28 12/26/2016 12:25:00 0.0
2016_12_27_S28 12/26/2016 12:30:00 0.0
2016_12_27_S28 12/26/2016 12:35:00 0.0
2016_12_27_S28 12/26/2016 12:40:00 0.0232
2016_12_27_S28 12/26/2016 12:45:00 0.1285
2016_12_27_S28 12/26/2016 12:50:00 0.0465
2016_12_27_S28 12/26/2016 12:55:00 0.0
2016_12_27_S28 12/26/2016 13:00:00 0.0
2016_12_27_S28 12/26/2016 13:05:00 0.0
2016_12_27_S28 12/26/2016 13:10:00 0.0
2016_12_27_S28 12/26/2016 13:15:00 0.0
2016_12_27_S28 12/26/2016 13:20:00 0.0
2016_12_27_S28 12/26/2016 13:25:00 0.0
2016_12_27_S28 12/26/2016 13:30:00 0.0
2016_12_27_S28 12/26/2016 13:35:00 0.0
2016_12_27_S28 12/26/2016 13:40:00 0.0
2016_12_27_S28 12/26/2016 13:45:00 0.0
2016_12_27_S28 12/26/2016 13:50:00 0.0
2016_12_27_S28 12/26/2016 13:55:00 0.0
2016_12_27_S28 12/26/2016 14:00:00 0.0
2016_12_27_S28 12/26/2016 14:05:00 0.0
2016_12_27_S28 12/26/2016 14:10:00 0.0
2016_12_27_S28 12/26/2016 14:15:00 0.0
2016_12_27_S28 12/26/2016 14:20:00 0.0
2016_12_27_S28 12/26/2016 14:25:00 0.0
2016_12_27_S28 12/26/2016 14:30:00 0.0
2016_12_27_S28 12/26/2016 14:35:00 0.0
2016_12_27_S28 12/26/2016 14:40:00 0.0
2016_12_27_S28 12/26/2016 14:45:00 0.0
2016_12_27_S28 12/26/2016 14:50:00 0.0
2016_12_27_S28 12/26/2016 14:55:00 0.0
2016_12_27_S28 12/26/2016 15:00:00 0.0
2016_12_27_S28 12/26/2016 15:05:00 0.0
2016_12_27_S28 12/26/2016 15:10:00 0.0
2016_12_27_S28 12/26/2016 15:15:00 0.0
2016_12_27_S28 12/26/2016 15:20:00 0.0
2016_12_27_S28 12/26/2016 15:25:00 0.0
2016_12_27_S28 12/26/2016 15:30:00 0.0
2016_12_27_S28 12/26/2016 15:35:00 0.0
2016_12_27_S28 12/26/2016 15:40:00 0.0
2016_12_27_S28 12/26/2016 15:45:00 0.0
2016_12_27_S28 12/26/2016 15:50:00 0.0
2016_12_27_S28 12/26/2016 15:55:00 0.0
2016_12_27_S28 12/26/2016 16:00:00 0.0
2016_12_27_S28 12/26/2016 16:05:00 0.0
2016_12_27_S28 12/26/2016 16:10:00 0.0
2016_12_27_S28 12/26/2016 16:15:00 0.0
2016_12_27_S28 12/26/2016 16:20:00 0.0
2016_12_27_S28 12/26/2016 16:25:00 0.0
2016_12_27_S28 12/26/2016 16:30:00 0.0
2016_12_27_S28 12/26/2016 16:35:00 0.0
2016_12_27_S28 12/26/2016 16:40:00 0.0
2016_12_27_S28 12/26/2016 16:45:00 0.0
2016_12_27_S28 12/26/2016 16:50:00 0.0
2016_12_27_S28 12/26/2016 16:55:00 0.0
2016_12_27_S28 12/26/2016 17:00:00 0.0
2016_12_27_S28 12/26/2016 17:05:00 0.0
2016_12_27_S28 12/26/2016 17:10:00 0.0
2016_12_27_S28 12/26/2016 17:15:00 0.0
2016_12_27_S28 12/26/2016 17:20:00 0.0
2016_12_27_S28 12/26/2016 17:25:00 0.0
2016_12_27_S28 12/26/2016 17:30:00 0.0
2016_12_27_S28 12/26/2016 17:35:00 0.0
2016_12_27_S28 12/26/2016 17:40:00 0.0
2016_12_27_S28 12/26/2016 17:45:00 0.0
2016_12_27_S28 12/26/2016 17:50:00 0.0
2016_12_27_S28 12/26/2016 17:55:00 0.0
2016_12_27_S28 12/26/2016 18:00:00 0.0
2016_12_27_S28 12/26/2016 18:05:00 0.0
2016_12_27_S28 12/26/2016 18:10:00 0.0
2016_12_27_S28 12/26/2016 18:15:00 0.0
2016_12_27_S28 12/26/2016 18:20:00 0.0
2016_12_27_S28 12/26/2016 18:25:00 0.0
2016_12_27_S28 12/26/2016 18:30:00 0.0
2016_12_27_S28 12/26/2016 18:35:00 0.0
2016_12_27_S28 12/26/2016 18:40:00 0.0
2016_12_27_S28 12/26/2016 18:45:00 0.0
2016_12_27_S28 12/26/2016 18:50:00 0.0
2016_12_27_S28 12/26/2016 18:55:00 0.0
2016_12_27_S28 12/26/2016 19:00:00 0.0
2016_12_27_S28 12/26/2016 19:05:00 0.0
2016_12_27_S28 12/26/2016 19:10:00 0.0
2016_12_27_S28 12/26/2016 19:15:00 0.0
2016_12_27_S28 12/26/2016 19:20:00 0.0
2016_12_27_S28 12/26/2016 19:25:00 0.0
2016_12_27_S28 12/26/2016 19:30:00 0.0
2016_12_27_S28 12/26/2016 19:35:00 0.0
2016_12_27_S28 12/26/2016 19:40:00 0.0
2016_12_27_S28 12/26/2016 19:45:00 0.0
2016_12_27_S28 12/26/2016 19:50:00 0.0
2016_12_27_S28 12/26/2016 19:55:00 0.0
2016_12_27_S28 12/26/2016 20:00:00 0.0
2016_12_27_S28 12/26/2016 20:05:00 0.0
2016_12_27_S28 12/26/2016 20:10:00 0.0
2016_12_27_S28 12/26/2016 20:15:00 0.0
2016_12_27_S28 12/26/2016 20:20:00 0.0
2016_12_27_S28 12/26/2016 20:25:00 0.0
2016_12_27_S28 12/26/2016 20:30:00 0.0
2016_12_27_S28 12/26/2016 20:35:00 0.0
2016_12_27_S28 12/26/2016 20:40:00 0.0
2016_12_27_S28 12/26/2016 20:45:00 0.0
2016_12_27_S28 12/26/2016 20:50:00 0.0
2016_12_27_S28 12/26/2016 20:55:00 0.0
2016_12_27_S28 12/26/2016 21:00:00 0.0
2016_12_27_S28 12/26/2016 21:05:00 0.0
2016_12_27_S28 12/26/2016 21:10:00 0.0
2016_12_27_S28 12/26/2016 21:15:00 0.0
2016_12_27_S28 12/26/2016 21:20:00 0.0
2016_12_27_S28 12/26/2016 21:25:00 0.0
2016_12_27_S28 12/26/2016 21:30:00 0.0
2016_12_27_S28 12/26/2016 21:35:00 0.0
2016_12_27_S28 12/26/2016 21:40:00 0.0
2016_12_27_S28 12/26/2016 21:45:00 0.0
2016_12_27_S28 12/26/2016 21:50:00 0.0
2016_12_27_S28 12/26/2016 21:55:00 0.0
2016_12_27_S28 12/26/2016 22:00:00 0.0
2016_12_27_S28 12/26/2016 22:05:00 0.0
2016_12_27_S28 12/26/2016 22:10:00 0.0
2016_12_27_S28 12/26/2016 22:15:00 0.0
2016_12_27_S28 12/26/2016 22:20:00 0.0
2016_12_27_S28 12/26/2016 22:25:00 0.0
2016_12_27_S28 12/26/2016 22:30:00 0.0
2016_12_27_S28 12/26/2016 22:35:00 0.0
2016_12_27_S28 12/26/2016 22:40:00 0.0
2016_12_27_S28 12/26/2016 22:45:00 0.0
2016_12_27_S28 12/26/2016 22:50:00 0.0
2016_12_27_S28 12/26/2016 22:55:00 0.0
2016_12_27_S28 12/26/2016 23:00:00 0.0
2016_12_27_S28 12/26/2016 23:05:00 0.0
2016_12_27_S28 12/26/2016 23:10:00 0.0
2016_12_27_S28 12/26/2016 23:15:00 0.0
2016_12_27_S28 12/26/2016 23:20:00 0.0
2016_12_27_S28 12/26/2016 23:25:00 0.0
2016_12_27_S28 12/26/2016 23:30:00 0.0
2016_12_27_S28 12/26/2016 23:35:00 0.0
2016_12_27_S28 12/26/2016 23:40:00 0.0
2016_12_27_S28 12/26/2016 23:45:00 0.0
2016_12_27_S28 12/26/2016 23:50:00 0.0
2016_12_27_S28 12/26/2016 23:55:00 0.0
2016_12_27_S28 12/27/2016 00:00:00 0.0
2016_12_27_S28 12/27/2016 00:05:00 0.0
2016_12_27_S28 12/27/2016 00:10:00 0.0
2016_12_27_S28 12/27/2016 00:15:00 0.0
2016_12_27_S28 12/27/2016 00:20:00 0.0
2016_12_27_S28 12/27/2016 00:25:00 0.0
2016_12_27_S28 12/27/2016 00:30:00 0.0
2016_12_27_S28 12/27/2016 00:35:00 0.0
2016_12_27_S28 12/27/2016 00:40:00 0.0
2016_12_27_S28 12/27/2016 00:45:00 0.0
2016_12_27_S28 12/27/2016 00:50:00 0.0
2016_12_27_S28 12/27/2016 00:55:00 0.0
2016_12_27_S28 12/27/2016 01:00:00 0.0
2016_12_27_S28 12/27/2016 01:05:00 0.0
2016_12_27_S28 12/27/2016 01:10:00 0.0
2016_12_27_S28 12/27/2016 01:15:00 0.0404
2016_12_27_S28 12/27/2016 01:20:00 0.0135
2016_12_27_S28 12/27/2016 01:25:00 0.0741
2016_12_27_S28 12/27/2016 01:30:00 0.3438
2016_12_27_S28 12/27/2016 01:35:00 1.2654
2016_12_27_S28 12/27/2016 01:40:00 0.9261
2016_12_27_S28 12/27/2016 01:45:00 2.9649
2016_12_27_S28 12/27/2016 01:50:00 0.9066
2016_12_27_S28 12/27/2016 01:55:00 0.316
2016_12_27_S28 12/27/2016 02:00:00 0.236
2016_12_27_S28 12/27/2016 02:05:00 0.0158
2016_12_27_S28 12/27/2016 02:10:00 0.0103
2016_12_27_S28 12/27/2016 02:15:00 0.105
2016_12_27_S28 12/27/2016 02:20:00 0.2302
2016_12_27_S28 12/27/2016 02:25:00 0.1122
2016_12_27_S28 12/27/2016 02:30:00 0.2473
2016_12_27_S28 12/27/2016 02:35:00 0.1507
2016_12_27_S28 12/27/2016 02:40:00 0.2022
2016_12_27_S28 12/27/2016 02:45:00 0.3163
2016_12_27_S28 12/27/2016 02:50:00 0.4181
2016_12_27_S28 12/27/2016 02:55:00 0.476
2016_12_27_S28 12/27/2016 03:00:00 0.4978
2016_12_27_S28 12/27/2016 03:05:00 0.5608
2016_12_27_S28 12/27/2016 03:10:00 0.3446
2016_12_27_S28 12/27/2016 03:15:00 0.4182
2016_12_27_S28 12/27/2016 03:20:00 1.1091
2016_12_27_S28 12/27/2016 03:25:00 1.4061
2016_12_27_S28 12/27/2016 03:30:00 0.6425
2016_12_27_S28 12/27/2016 03:35:00 0.3534
2016_12_27_S28 12/27/2016 03:40:00 0.2777
2016_12_27_S28 12/27/2016 03:45:00 0.1928
2016_12_27_S28 12/27/2016 03:50:00 0.133
2016_12_27_S28 12/27/2016 03:55:00 0.2764
2016_12_27_S28 12/27/2016 04:00:00 0.2289
2016_12_27_S28 12/27/2016 04:05:00 0.1291
2016_12_27_S28 12/27/2016 04:10:00 0.2721
2016_12_27_S28 12/27/2016 04:15:00 0.0901
2016_12_27_S28 12/27/2016 04:20:00 0.0195
2016_12_27_S28 12/27/2016 04:25:00 0.0608
2016_12_27_S28 12/27/2016 04:30:00 0.0294
2016_12_27_S28 12/27/2016 04:35:00 0.0596
2016_12_27_S28 12/27/2016 04:40:00 0.05
2016_12_27_S28 12/27/2016 04:45:00 0.0526
2016_12_27_S28 12/27/2016 04:50:00 0.1236
2016_12_27_S28 12/27/2016 04:55:00 0.2477
2016_12_27_S28 12/27/2016 05:00:00 0.1955
2016_12_27_S28 12/27/2016 05:05:00 0.2433
2016_12_27_S28 12/27/2016 05:10:00 0.1393
2016_12_27_S28 12/27/2016 05:15:00 0.3488
2016_12_27_S28 12/27/2016 05:20:00 0.1147
2016_12_27_S28 12/27/2016 05:25:00 0.0573
2016_12_27_S28 12/27/2016 05:30:00 0.0
2016_12_27_S28 12/27/2016 05:35:00 0.0
2016_12_27_S28 12/27/2016 05:40:00 0.0
2016_12_27_S28 12/27/2016 05:45:00 0.0
2016_12_27_S28 12/27/2016 05:50:00 0.0
2016_12_27_S28 12/27/2016 05:55:00 0.0
2016_12_27_S28 12/27/2016 06:00:00 0.0
2016_12_27_S28 12/27/2016 06:05:00 0.0
2016_12_27_S28 12/27/2016 06:10:00 0.0
2016_12_27_S28 12/27/2016 06:15:00 0.0
2016_12_27_S28 12/27/2016 06:20:00 0.0
2016_12_27_S28 12/27/2016 06:25:00 0.0
2016_12_27_S28 12/27/2016 06:30:00 0.0
2016_12_27_S28 12/27/2016 06:35:00 0.0
2016_12_27_S28 12/27/2016 06:40:00 0.0115
2016_12_27_S28 12/27/2016 06:45:00 0.0317
2016_12_27_S28 12/27/2016 06:50:00 0.0527
2016_12_27_S28 12/27/2016 06:55:00 0.0213
2016_12_27_S28 12/27/2016 07:00:00 0.4471
2016_12_27_S28 12/27/2016 07:05:00 0.2553
2016_12_27_S28 12/27/2016 07:10:00 0.8021
2016_12_27_S28 12/27/2016 07:15:00 0.4254
2016_12_27_S28 12/27/2016 07:20:00 0.8328
2016_12_27_S28 12/27/2016 07:25:00 0.5045
2016_12_27_S28 12/27/2016 07:30:00 0.3423
2016_12_27_S28 12/27/2016 07:35:00 0.3505
2016_12_27_S28 12/27/2016 07:40:00 0.1955
2016_12_27_S28 12/27/2016 07:45:00 0.2609
2016_12_27_S28 12/27/2016 07:50:00 0.6195
2016_12_27_S28 12/27/2016 07:55:00 1.7218
2016_12_27_S28 12/27/2016 08:00:00 0.393
2016_12_27_S28 12/27/2016 08:05:00 0.1439
2016_12_27_S28 12/27/2016 08:10:00 0.178
2016_12_27_S28 12/27/2016 08:15:00 0.2899
2016_12_27_S28 12/27/2016 08:20:00 0.8788
2016_12_27_S28 12/27/2016 08:25:00 0.1263
2016_12_27_S28 12/27/2016 08:30:00 0.107
2016_12_27_S28 12/27/2016 08:35:00 0.272
2016_12_27_S28 12/27/2016 08:40:00 0.6605
2016_12_27_S28 12/27/2016 08:45:00 0.7276
2016_12_27_S28 12/27/2016 08:50:00 1.0252
2016_12_27_S28 12/27/2016 08:55:00 1.1632
2016_12_27_S28 12/27/2016 09:00:00 0.5605
2016_12_27_S28 12/27/2016 09:05:00 0.585
2016_12_27_S28 12/27/2016 09:10:00 0.5105
2016_12_27_S28 12/27/2016 09:15:00 0.1772
2016_12_27_S28 12/27/2016 09:20:00 1.0719
2016_12_27_S28 12/27/2016 09:25:00 0.8068
2016_12_27_S28 12/27/2016 09:30:00 0.1821
2016_12_27_S28 12/27/2016 09:35:00 0.2131
2016_12_27_S28 12/27/2016 09:40:00 0.3443
2016_12_27_S28 12/27/2016 09:45:00 0.8714
2016_12_27_S28 12/27/2016 09:50:00 0.2339
2016_12_27_S28 12/27/2016 09:55:00 0.0
2016_12_27_S28 12/27/2016 10:00:00 0.0423
2016_12_27_S28 12/27/2016 10:05:00 0.3337
2016_12_27_S28 12/27/2016 10:10:00 0.7913
2016_12_27_S28 12/27/2016 10:15:00 0.2492
2016_12_27_S28 12/27/2016 10:20:00 0.0517
2016_12_27_S28 12/27/2016 10:25:00 0.0993
2016_12_27_S28 12/27/2016 10:30:00 0.0197
2016_12_27_S28 12/27/2016 10:35:00 0.0184
2016_12_27_S28 12/27/2016 10:40:00 0.0141
2016_12_27_S28 12/27/2016 10:45:00 1.0028
2016_12_27_S28 12/27/2016 10:50:00 0.2801
2016_12_27_S28 12/27/2016 10:55:00 0.4945
2016_12_27_S28 12/27/2016 11:00:00 0.235
2016_12_27_S28 12/27/2016 11:05:00 0.2991
2016_12_27_S28 12/27/2016 11:10:00 0.1164
2016_12_27_S28 12/27/2016 11:15:00 0.3074
2016_12_27_S28 12/27/2016 11:20:00 0.157
2016_12_27_S28 12/27/2016 11:25:00 0.3489
2016_12_27_S28 12/27/2016 11:30:00 0.3355
2016_12_27_S28 12/27/2016 11:35:00 0.5155
2016_12_27_S28 12/27/2016 11:40:00 0.6709
2016_12_27_S28 12/27/2016 11:45:00 0.3703
2016_12_27_S28 12/27/2016 11:50:00 1.0681
2016_12_27_S28 12/27/2016 11:55:00 2.5172
2016_12_27_S28 12/27/2016 12:00:00 0.3161
2016_12_27_S28 12/27/2016 12:05:00 0.1964
2016_12_27_S28 12/27/2016 12:10:00 0.4376
2016_12_27_S28 12/27/2016 12:15:00 0.3619
2016_12_27_S28 12/27/2016 12:20:00 0.0713
2016_12_27_S28 12/27/2016 12:25:00 0.0866
2016_12_27_S28 12/27/2016 12:30:00 0.2585
2016_12_27_S28 12/27/2016 12:35:00 0.0674
2016_12_27_S28 12/27/2016 12:40:00 0.033
2016_12_27_S28 12/27/2016 12:45:00 0.0551
2016_12_27_S28 12/27/2016 12:50:00 0.0068
2016_12_27_S28 12/27/2016 12:55:00 0.0003
2016_12_27_S28 12/27/2016 13:00:00 0.0225
2016_12_27_S28 12/27/2016 13:05:00 0.0174
2016_12_27_S28 12/27/2016 13:10:00 0.0
2016_12_27_S28 12/27/2016 13:15:00 0.0
2016_12_27_S28 12/27/2016 13:20:00 0.0
2016_12_27_S28 12/27/2016 13:25:00 0.0059
2016_12_27_S28 12/27/2016 13:30:00 0.1475
2016_12_27_S28 12/27/2016 13:35:00 0.2077
2016_12_27_S28 12/27/2016 13:40:00 0.1747
2016_12_27_S28 12/27/2016 13:45:00 0.1333
2016_12_27_S28 12/27/2016 13:50:00 0.247
2016_12_27_S28 12/27/2016 13:55:00 0.0097
2016_12_27_S28 12/27/2016 14:00:00 0.0433
2016_12_27_S28 12/27/2016 14:05:00 0.0858
2016_12_27_S28 12/27/2016 14:10:00 0.0326
2016_12_27_S28 12/27/2016 14:15:00 0.0004
2016_12_27_S28 12/27/2016 14:20:00 0.0074
2016_12_27_S28 12/27/2016 14:25:00 0.0117
2016_12_27_S28 12/27/2016 14:30:00 0.0114
2016_12_27_S28 12/27/2016 14:35:00 0.0
2016_12_27_S28 12/27/2016 14:40:00 0.0097
2016_12_27_S28 12/27/2016 14:45:00 0.0
2016_12_27_S28 12/27/2016 14:50:00 0.0
2016_12_27_S28 12/27/2016 14:55:00 0.0
2016_12_27_S28 12/27/2016 15:00:00 0.0
2016_12_27_S28 12/27/2016 15:05:00 0.0
2016_12_27_S28 12/27/2016 15:10:00 0.0
2016_12_27_S28 12/27/2016 15:15:00 0.0
2016_12_27_S28 12/27/2016 15:20:00 0.0
2016_12_27_S28 12/27/2016 15:25:00 0.0
2016_12_27_S28 12/27/2016 15:30:00 0.0
2016_12_27_S28 12/27/2016 15:35:00 0.0
2016_12_27_S28 12/27/2016 15:40:00 0.0
2016_12_27_S28 12/27/2016 15:45:00 0.0
2016_12_27_S28 12/27/2016 15:50:00 0.0
2016_12_27_S28 12/27/2016 15:55:00 0.0
2016_12_27_S28 12/27/2016 16:00:00 0.2431
2016_12_27_S28 12/27/2016 16:05:00 0.0778
2016_12_27_S28 12/27/2016 16:10:00 0.0
2016_12_27_S28 12/27/2016 16:15:00 0.0
2016_12_27_S28 12/27/2016 16:20:00 0.0404
2016_12_27_S28 12/27/2016 16:25:00 0.0038
2016_12_27_S28 12/27/2016 16:30:00 0.0
2016_12_27_S28 12/27/2016 16:35:00 0.0004
2016_12_27_S28 12/27/2016 16:40:00 0.082
2016_12_27_S28 12/27/2016 16:45:00 0.0
2016_12_27_S28 12/27/2016 16:50:00 0.0
2016_12_27_S28 12/27/2016 16:55:00 0.0
2016_12_27_S28 12/27/2016 17:00:00 0.0
2016_12_27_S28 12/27/2016 17:05:00 0.0
2016_12_27_S28 12/27/2016 17:10:00 0.0
2016_12_27_S28 12/27/2016 17:15:00 0.0
2016_12_27_S28 12/27/2016 17:20:00 0.0
2016_12_27_S28 12/27/2016 17:25:00 0.0
2016_12_27_S28 12/27/2016 17:30:00 0.0
2016_12_27_S28 12/27/2016 17:35:00 0.0
2016_12_27_S28 12/27/2016 17:40:00 0.0063
2016_12_27_S28 12/27/2016 17:45:00 0.1821
2016_12_27_S28 12/27/2016 17:50:00 0.0773
2016_12_27_S28 12/27/2016 17:55:00 0.0165
2016_12_27_S28 12/27/2016 18:00:00 0.0
2016_12_27_S28 12/27/2016 18:05:00 0.0069
2016_12_27_S28 12/27/2016 18:10:00 0.0
2016_12_27_S28 12/27/2016 18:15:00 0.0
2016_12_27_S28 12/27/2016 18:20:00 0.0001
2016_12_27_S28 12/27/2016 18:25:00 0.0579
2016_12_27_S28 12/27/2016 18:30:00 0.008
2016_12_27_S28 12/27/2016 18:35:00 0.0413
2016_12_27_S28 12/27/2016 18:40:00 0.0109
2016_12_27_S28 12/27/2016 18:45:00 0.0
2016_12_27_S28 12/27/2016 18:50:00 0.0
2016_12_27_S28 12/27/2016 18:55:00 0.0
2016_12_27_S28 12/27/2016 19:00:00 0.0
2016_12_27_S28 12/27/2016 19:05:00 0.0
2016_12_27_S28 12/27/2016 19:10:00 0.0573
2016_12_27_S28 12/27/2016 19:15:00 0.0004
2016_12_27_S28 12/27/2016 19:20:00 0.0
2016_12_27_S28 12/27/2016 19:25:00 0.0
2016_12_27_S28 12/27/2016 19:30:00 0.0099
2016_12_27_S28 12/27/2016 19:35:00 0.6431
2016_12_27_S28 12/27/2016 19:40:00 0.5363
2016_12_27_S28 12/27/2016 19:45:00 1.9331
2016_12_27_S28 12/27/2016 19:50:00 0.1363
2016_12_27_S28 12/27/2016 19:55:00 0.0476
2016_12_27_S28 12/27/2016 20:00:00 0.0717
2016_12_27_S28 12/27/2016 20:05:00 0.0044
2016_12_27_S28 12/27/2016 20:10:00 0.0
2016_12_27_S28 12/27/2016 20:15:00 0.0029
2016_12_27_S28 12/27/2016 20:20:00 0.0
2016_12_27_S28 12/27/2016 20:25:00 0.0
2016_12_27_S28 12/27/2016 20:30:00 0.0
2016_12_27_S28 12/27/2016 20:35:00 0.0
2016_12_27_S28 12/27/2016 20:40:00 0.0
2016_12_27_S28 12/27/2016 20:45:00 0.0
2016_12_27_S28 12/27/2016 20:50:00 0.0
2016_12_27_S28 12/27/2016 20:55:00 0.0
2016_12_27_S28 12/27/2016 21:00:00 0.0
2016_12_27_S28 12/27/2016 21:05:00 0.0
2016_12_27_S28 12/27/2016 21:10:00 0.0
2016_12_27_S28 12/27/2016 21:15:00 0.0
2016_12_27_S28 12/27/2016 21:20:00 0.0
2016_12_27_S28 12/27/2016 21:25:00 0.0
2016_12_27_S28 12/27/2016 21:30:00 0.0
2016_12_27_S28 12/27/2016 21:35:00 0.0
2016_12_27_S28 12/27/2016 21:40:00 0.0
2016_12_27_S28 12/27/2016 21:45:00 0.0
2016_12_27_S28 12/27/2016 21:50:00 0.0
2016_12_27_S28 12/27/2016 21:55:00 0.0
2016_12_27_S28 12/27/2016 22:00:00 0.1496
2016_12_27_S28 12/27/2016 22:05:00 0.0283
2016_12_27_S28 12/27/2016 22:10:00 0.1837
2016_12_27_S28 12/27/2016 22:15:00 0.5741
2016_12_27_S28 12/27/2016 22:20:00 0.0
2016_12_27_S28 12/27/2016 22:25:00 0.0
2016_12_27_S28 12/27/2016 22:30:00 0.3885
2016_12_27_S28 12/27/2016 22:35:00 0.0536
2016_12_27_S28 12/27/2016 22:40:00 0.0
2016_12_27_S28 12/27/2016 22:45:00 0.0
2016_12_27_S28 12/27/2016 22:50:00 0.0
2016_12_27_S28 12/27/2016 22:55:00 0.0
2016_12_27_S28 12/27/2016 23:00:00 0.0
2016_12_27_S28 12/27/2016 23:05:00 0.0
2016_12_27_S28 12/27/2016 23:10:00 0.0
2016_12_27_S28 12/27/2016 23:15:00 0.0
2016_12_27_S28 12/27/2016 23:20:00 0.0016
2016_12_27_S28 12/27/2016 23:25:00 0.0059
2016_12_27_S28 12/27/2016 23:30:00 0.0
2016_12_27_S28 12/27/2016 23:35:00 0.0033
2016_12_27_S28 12/27/2016 23:40:00 0.0
2016_12_27_S28 12/27/2016 23:45:00 0.0
2016_12_27_S28 12/27/2016 23:50:00 0.0
2016_12_27_S28 12/27/2016 23:55:00 0.0
2016_12_27_S28 12/28/2016 00:00:00 0.0
2016_12_27_S28 12/28/2016 00:05:00 0.0
2016_12_27_S28 12/28/2016 00:10:00 0.0
2016_12_27_S28 12/28/2016 00:15:00 0.0
2016_12_27_S28 12/28/2016 00:20:00 0.0
2016_12_27_S28 12/28/2016 00:25:00 0.0
2016_12_27_S28 12/28/2016 00:30:00 0.0
2016_12_27_S28 12/28/2016 00:35:00 0.0
2016_12_27_S28 12/28/2016 00:40:00 0.0
2016_12_27_S28 12/28/2016 00:45:00 0.0
2016_12_27_S28 12/28/2016 00:50:00 0.0
2016_12_27_S28 12/28/2016 00:55:00 0.0
2016_12_27_S28 12/28/2016 01:00:00 0.0
2016_12_27_S28 12/28/2016 01:05:00 0.0
2016_12_27_S28 12/28/2016 01:10:00 0.0
2016_12_27_S28 12/28/2016 01:15:00 0.0
2016_12_27_S28 12/28/2016 01:20:00 0.0
2016_12_27_S28 12/28/2016 01:25:00 0.0
2016_12_27_S28 12/28/2016 01:30:00 0.0
2016_12_27_S28 12/28/2016 01:35:00 0.0
2016_12_27_S28 12/28/2016 01:40:00 0.0
2016_12_27_S28 12/28/2016 01:45:00 0.0
2016_12_27_S28 12/28/2016 01:50:00 0.0
2016_12_27_S28 12/28/2016 01:55:00 0.0
2016_12_27_S28 12/28/2016 02:00:00 0.0
2016_12_27_S28 12/28/2016 02:05:00 0.0
2016_12_27_S28 12/28/2016 02:10:00 0.0
2016_12_27_S28 12/28/2016 02:15:00 0.0
2016_12_27_S28 12/28/2016 02:20:00 0.0
2016_12_27_S28 12/28/2016 02:25:00 0.0
2016_12_27_S28 12/28/2016 02:30:00 0.0
2016_12_27_S28 12/28/2016 02:35:00 0.0
2016_12_27_S28 12/28/2016 02:40:00 0.0
2016_12_27_S28 12/28/2016 02:45:00 0.0
2016_12_27_S28 12/28/2016 02:50:00 0.0
2016_12_27_S28 12/28/2016 02:55:00 0.0
2016_12_27_S28 12/28/2016 03:00:00 0.0
2016_12_27_S28 12/28/2016 03:05:00 0.0
2016_12_27_S28 12/28/2016 03:10:00 0.0
2016_12_27_S28 12/28/2016 03:15:00 0.0
2016_12_27_S28 12/28/2016 03:20:00 0.0
2016_12_27_S28 12/28/2016 03:25:00 0.0
2016_12_27_S28 12/28/2016 03:30:00 0.0
2016_12_27_S28 12/28/2016 03:35:00 0.0
2016_12_27_S28 12/28/2016 03:40:00 0.0
2016_12_27_S28 12/28/2016 03:45:00 0.0
2016_12_27_S28 12/28/2016 03:50:00 0.0
2016_12_27_S28 12/28/2016 03:55:00 0.0
2016_12_27_S28 12/28/2016 04:00:00 0.0
2016_12_27_S28 12/28/2016 04:05:00 0.0
2016_12_27_S28 12/28/2016 04:10:00 0.0
2016_12_27_S28 12/28/2016 04:15:00 0.0
2016_12_27_S28 12/28/2016 04:20:00 0.0
2016_12_27_S28 12/28/2016 04:25:00 0.0
2016_12_27_S28 12/28/2016 04:30:00 0.0
2016_12_27_S28 12/28/2016 04:35:00 0.0
2016_12_27_S28 12/28/2016 04:40:00 0.0
2016_12_27_S28 12/28/2016 04:45:00 0.0
2016_12_27_S28 12/28/2016 04:50:00 0.0
2016_12_27_S28 12/28/2016 04:55:00 0.0
2016_12_27_S28 12/28/2016 05:00:00 0.0
2016_12_27_S28 12/28/2016 05:05:00 0.0
2016_12_27_S28 12/28/2016 05:10:00 0.0
2016_12_27_S28 12/28/2016 05:15:00 0.0
2016_12_27_S28 12/28/2016 05:20:00 0.0
2016_12_27_S28 12/28/2016 05:25:00 0.0
2016_12_27_S28 12/28/2016 05:30:00 0.0
2016_12_27_S28 12/28/2016 05:35:00 0.0
2016_12_27_S28 12/28/2016 05:40:00 0.0
2016_12_27_S28 12/28/2016 05:45:00 0.0
2016_12_27_S28 12/28/2016 05:50:00 0.0
2016_12_27_S28 12/28/2016 05:55:00 0.0
2016_12_27_S28 12/28/2016 06:00:00 0.0
2016_12_27_S28 12/28/2016 06:05:00 0.0
2016_12_27_S28 12/28/2016 06:10:00 0.0
2016_12_27_S28 12/28/2016 06:15:00 0.0
2016_12_27_S28 12/28/2016 06:20:00 0.0
2016_12_27_S28 12/28/2016 06:25:00 0.0
2016_12_27_S28 12/28/2016 06:30:00 0.0
2016_12_27_S28 12/28/2016 06:35:00 0.0
2016_12_27_S28 12/28/2016 06:40:00 0.0
2016_12_27_S28 12/28/2016 06:45:00 0.0
2016_12_27_S28 12/28/2016 06:50:00 0.0
2016_12_27_S28 12/28/2016 06:55:00 0.0
2016_12_27_S28 12/28/2016 07:00:00 0.0
2016_12_27_S28 12/28/2016 07:05:00 0.0
2016_12_27_S28 12/28/2016 07:10:00 0.0
2016_12_27_S28 12/28/2016 07:15:00 0.0
2016_12_27_S28 12/28/2016 07:20:00 0.0
2016_12_27_S28 12/28/2016 07:25:00 0.0
2016_12_27_S28 12/28/2016 07:30:00 0.0
2016_12_27_S28 12/28/2016 07:35:00 0.0
2016_12_27_S28 12/28/2016 07:40:00 0.0
2016_12_27_S28 12/28/2016 07:45:00 0.0
2016_12_27_S28 12/28/2016 07:50:00 0.0
2016_12_27_S28 12/28/2016 07:55:00 0.0
2016_12_27_S28 12/28/2016 08:00:00 0.0

;;____________________________________________________________________________________________________
[REPORT]
;;Reporting Options
SUBCATCHMENTS ALL
NODES ALL
LINKS ALL

;;____________________________________________________________________________________________________
[MAP]
DIMENSIONS 185865.396 673350.000 190772.001 679332.930
Units      Meters

;;____________________________________________________________________________________________________
[COORDINATES]
;;Node           X-Coord            Y-Coord           
;;-------------- ------------------ ------------------
J1               188416.573         678864.133        
J10              187876.949         676421.351        
J11              187771.585         676118.430        
J12              187745.244         675971.909        
J13              187705.733         675874.777        
J14              187172.330         676006.482        
J15              186808.496         675525.760        
J16              187588.852         675315.403        
J17              187325.287         674633.430        
J18              186976.064         674336.920        
J2               188485.717         678548.042        
J20              188922.377         677824.394        
J21              189159.110         677387.020        
J22              189116.281         676672.101        
J23              188928.977         676213.404        
J24              188829.655         675802.338        
J25              188998.163         675748.871        
J26              189650.485         676542.859        
J3               188483.151         678441.702        
J4               188316.513         677812.480        
J5               188232.551         677631.386        
J6               188137.065         677425.598        
J7               188104.139         677267.552        
J8               188018.531         676976.156        
J9               187918.106         676592.567        
O1               188423.158         679007.361

;;____________________________________________________________________________________________________
[VERTICES]
;;Link           X-Coord            Y-Coord           
;;-------------- ------------------ ------------------
C2               188487.548         678593.979        
C2               188403.586         678740.501        
C21              189211.773         677639.351        
C21              189047.045         677701.947        
C21              189037.161         677797.490        
C22              189218.362         677049.625        
C22              189093.169         677092.455        
C23              188968.026         676309.700        
C23              189040.506         676306.405        
C4               188383.830         677872.897        
C4               188365.721         677925.579        
C4               188360.782         678067.161        
C4               188415.110         678221.914        
C4               188480.962         678429.349        
C5               188251.288         677708.747

;;____________________________________________________________________________________________________
[POLYGONS]
;;Subcatchment   X-Coord            Y-Coord           
;;-------------- ------------------ ------------------
S01              187279.862         678858.156        
S01              187414.939         678805.443        
S01              187494.009         678798.854        
S01              187622.496         678838.389        
S01              187675.209         678818.621        
S01              187790.519         678812.032        
S01              187823.464         678848.272        
S01              187866.293         678854.861        
S01              187899.239         678868.040        
S01              187981.603         678802.148        
S01              188027.727         678798.854        
S01              188077.145         678805.443        
S01              188123.269         678821.916        
S01              188162.804         678844.978        
S01              188205.633         678861.450        
S01              188281.408         678874.629        
S01              188337.415         678910.869        
S01              188390.128         678950.403        
S01              188406.601         678999.822        
S01              188446.135         679009.705        
S01              188446.135         678980.054        
S01              188423.073         678854.861        
S01              188416.484         678756.025        
S01              188495.554         678591.297        
S01              188067.261         678535.289        
S01              187734.511         678525.406        
S01              187095.367         678528.700        
S01              187194.204         678607.770        
S01              187167.848         678634.126        
S01              187164.553         678680.250        
S01              187276.568         678841.683        
S02              188311.826         678562.991        
S02              188093.122         678531.748        
S02              187825.817         678517.862        
S02              187121.103         678531.748        
S02              187034.315         678455.375        
S02              186964.886         678427.603        
S02              187003.072         678170.712        
S02              186968.357         678125.583        
S02              186933.642         678021.438        
S02              186874.627         677899.935        
S02              186982.243         677882.578        
S02              187207.890         677858.277        
S02              187277.320         677872.163        
S02              187659.185         677872.163        
S02              188023.692         677865.220        
S02              188318.769         677851.334        
S02              188322.241         677934.650        
S02              188339.598         678087.396        
S02              188402.085         678212.370        
S02              188412.500         678292.215        
S02              188468.044         678431.074        
S02              188464.572         678583.820        
S03              186866.088         677850.375        
S03              186852.202         677826.075        
S03              186855.674         677753.174        
S03              186914.689         677610.842        
S03              186994.534         677586.542        
S03              187067.435         677558.770        
S03              187109.093         677503.226        
S03              187154.222         677492.811        
S03              187244.481         677524.055        
S03              187383.341         677562.241        
S03              187466.657         677576.127        
S03              187570.802         677534.469        
S03              187855.465         677503.226        
S03              187987.382         677548.355        
S03              188126.241         677635.143        
S03              188188.728         677697.630        
S03              188240.801         677718.459        
S03              188285.930         677774.003        
S03              188320.645         677843.432        
S03              187740.905         677857.318        
S03              187185.466         677846.904        
S03              186886.917         677878.147        
S04              187214.648         677432.470        
S04              187264.984         677411.641        
S04              187275.399         677323.118        
S04              187509.725         677234.595        
S04              187551.383         677357.833        
S04              187709.336         677323.118        
S04              187735.372         677366.512        
S04              187898.533         677333.532        
S04              187919.361         677422.056        
S04              188125.916         677369.983        
S04              188223.117         677611.252        
S04              188240.475         677727.547        
S04              188037.392         677592.159        
S04              187900.268         677515.786        
S04              187593.041         677538.351        
S04              187488.896         677571.330        
S04              187419.466         677571.330        
S04              187232.005         677514.050        
S05              187478.475         677233.098        
S05              187442.024         677106.389        
S05              187785.702         677003.980        
S05              187822.153         677102.917        
S05              187962.749         677075.145        
S05              187985.313         677113.332        
S05              188053.008         677106.389        
S05              188139.795         677359.808        
S05              187924.562         677406.673        
S05              187910.676         677325.093        
S05              187740.573         677354.601        
S05              187712.801         677323.357        
S05              187539.226         677342.450        
S05              187527.076         677264.342        
S05              187494.097         677220.948        
S06              186705.854         677552.926        
S06              186698.911         677467.875        
S06              186665.932         677434.896        
S06              186657.253         677073.860        
S06              186627.745         677021.788        
S06              186652.046         676938.472        
S06              187217.900         676783.990        
S06              187261.293         676910.700        
S06              187933.028         676740.596        
S06              188044.116         677108.575        
S06              187981.629         677118.989        
S06              187946.914         677089.482        
S06              187813.261         677125.932        
S06              187792.432         677009.637        
S06              187441.811         677108.575        
S06              187466.112         677242.228        
S06              187259.558         677320.336        
S06              187250.879         677412.331        
S06              187197.071         677408.859        
S06              187209.221         677500.854        
S06              187117.226         677493.911        
S06              187056.475         677565.077        
S06              186898.522         677613.678        
S06              186836.035         677537.305        
S06              186711.061         677559.869        
S07              186650.642         676928.193        
S07              186604.518         676855.713        
S07              186578.162         676763.466        
S07              186650.642         676608.621        
S07              186742.890         676457.072        
S07              186917.501         676407.654        
S07              186940.563         676473.545        
S07              187457.809         676331.879        
S07              187431.452         676256.104        
S07              187790.559         676147.384        
S07              187978.348         676727.226        
S07              187260.135         676921.604        
S07              187227.190         676786.528        
S07              186644.053         676931.488        
S08              186765.952         676443.894        
S08              186848.316         676364.824        
S08              186756.068         676249.515        
S08              186769.246         676239.631        
S08              187105.291         676134.205        
S08              187141.531         676018.896        
S08              187711.489         675864.052        
S08              187810.326         676144.089        
S08              187434.747         676236.337        
S08              187464.398         676331.879        
S08              186940.563         676476.839        
S08              186930.680         676407.654        
S08              186746.184         676453.777        
S09              186774.094         676232.497        
S09              187105.622         676117.938        
S09              187136.865         676013.793        
S09              187254.896         675973.871        
S09              187091.736         675496.540        
S09              186834.845         675557.291        
S09              186846.995         675678.794        
S09              186650.856         675720.452        
S09              186619.612         675847.161        
S09              186609.198         676031.151        
S09              186640.441         676112.731        
S09              186770.622         676249.855        
S10              186660.526         675669.673        
S10              186588.046         675623.549        
S10              186541.922         675534.596        
S10              186403.551         675514.829        
S10              186370.605         675465.410        
S10              186367.310         675386.341        
S10              186291.536         675359.985        
S10              186258.590         675294.094        
S10              186278.357         675261.148        
S10              186261.885         675211.730        
S10              186268.474         675089.831        
S10              186298.125         675116.188        
S10              186360.721         675053.591        
S10              186456.263         675040.413        
S10              186476.031         674967.932        
S10              186624.286         674911.925        
S10              186848.316         675053.591        
S10              186924.090         675231.497        
S10              186999.865         675521.418        
S10              186825.254         675551.069        
S10              186851.610         675676.262        
S10              186627.580         675722.386        
S11              186996.571         675488.472        
S11              186943.858         675290.799        
S11              186854.905         675066.769        
S11              186630.875         674921.809        
S11              186627.580         674625.299        
S11              186574.867         674526.462        
S11              186739.595         674302.432        
S11              186733.006         674167.355        
S11              187306.259         674061.929        
S11              187372.150         674028.984        
S11              187263.430         674529.756        
S11              187167.888         674533.051        
S11              187227.190         674895.452        
S11              187335.910         675228.202        
S11              187319.437         675310.566        
S11              187246.957         675392.930        
S11              187131.647         675491.767        
S11              186996.571         675514.829        
S12              186752.882         674155.010        
S12              187356.922         674047.394        
S12              187353.450         673849.518        
S12              187304.850         673898.119        
S12              187204.176         673918.948        
S12              187075.731         673936.306        
S12              187016.715         673842.575        
S12              186752.882         673832.161        
S12              186669.566         673905.062        
S12              186659.151         673932.834        
S12              186738.996         674016.150        
S12              186735.524         674144.595        
S13              187362.328         673864.932        
S13              187369.271         674069.750        
S13              187279.013         674527.988        
S13              187174.868         674538.402        
S13              187268.598         675059.126        
S13              187334.556         675257.002        
S13              187289.427         675357.675        
S13              187192.225         675434.048        
S13              187108.909         675472.235        
S13              187258.184         675968.659        
S13              187806.680         675833.270        
S13              187806.680         675753.426        
S13              188230.203         675645.809        
S13              188230.203         675562.493        
S13              188414.192         675562.493        
S13              188455.850         675007.054        
S13              188275.332         674850.837        
S13              188094.814         674753.635        
S13              188039.270         674538.402        
S13              187955.954         674462.029        
S13              187917.768         674267.625        
S13              187942.068         674205.138        
S13              187949.011         674062.807        
S13              187883.053         673996.849        
S13              187848.338         674000.320        
S13              187758.079         673962.134        
S13              187695.592         673812.859        
S13              187626.162         673764.258        
S13              187476.888         673788.559        
S13              187358.857         673864.932        
S14              187715.284         675871.166        
S14              187833.314         676235.673        
S14              188503.313         676062.098        
S14              188454.712         675905.881        
S14              188291.552         675912.824        
S14              188246.423         675659.404        
S14              187819.429         675756.606        
S14              187812.486         675857.280        
S14              187729.170         675874.637        
S15              188699.856         674898.747        
S15              188604.314         674846.034        
S15              188469.237         674987.700        
S15              188423.114         675570.836        
S15              188235.324         675560.953        
S15              188228.735         675643.317        
S15              188245.207         675705.913        
S15              188274.858         675722.386        
S15              188571.369         675643.317        
S15              188614.198         675794.866        
S15              189009.545         675705.913        
S15              189035.901         675788.277        
S15              189388.419         675323.745        
S15              189312.644         675336.923        
S15              189200.629         675307.272        
S15              189095.203         675191.962        
S15              189088.614         675014.056        
S15              188956.832         674974.522        
S15              188917.297         674872.390        
S15              188762.453         674859.212        
S15              188706.445         674905.336        
S16              189072.141         675738.859        
S16              189391.713         675310.566        
S16              189427.953         675336.923        
S16              189622.332         675336.923        
S16              189734.347         675373.163        
S16              189803.533         675313.861        
S16              189935.315         675458.821        
S16              189968.260         675633.433        
S16              189510.317         675653.200        
S16              189507.023         675808.044        
S16              189605.859         676018.896        
S16              189605.859         676068.314        
S16              189424.659         676078.198        
S16              189358.767         675775.099        
S16              189049.079         675775.099        
S17              188292.964         675915.061        
S17              188470.010         675880.346        
S17              188619.285         676414.957        
S17              188640.114         676418.428        
S17              189521.874         676165.009        
S17              189501.045         676078.221        
S17              189431.615         676071.278        
S17              189421.200         676046.978        
S17              189348.299         675779.673        
S17              189028.921         675793.559        
S17              189018.507         675724.129        
S17              188612.342         675803.973        
S17              188588.041         675661.642        
S17              188275.607         675734.543        
S17              188310.322         675911.590        
S18              187933.690         676600.013        
S18              187833.017         676245.920        
S18              188506.487         676075.817        
S18              188624.518         676422.967        
S18              187937.162         676596.541        
S19              188046.282         676980.558        
S19              188310.116         676883.356        
S19              188337.888         676956.257        
S19              188712.810         676865.998        
S19              188716.281         676848.641        
S19              188629.494         676588.278        
S19              188639.908         676439.004        
S19              187931.723         676602.164        
S19              188046.282         676977.086        
S20              188151.099         677391.191        
S20              188699.596         677300.932        
S20              188692.653         677186.373        
S20              188786.383         677148.186        
S20              188716.953         676839.223        
S20              188345.503         676960.726        
S20              188314.260         676898.239        
S20              188046.954         676967.669        
S20              188151.099         677384.248        
S21              188644.301         676422.695        
S21              188630.415         676474.768        
S21              188717.202         676811.503        
S21              188800.518         677141.295        
S21              189776.009         676901.762        
S21              189633.677         676290.778        
S21              189592.019         676075.545        
S21              189505.232         676072.074        
S21              189519.118         676186.633        
S21              188640.829         676433.110        
S22              189609.358         676094.851        
S22              189796.819         676879.409        
S22              189828.062         676993.969        
S22              189848.891         676948.839        
S22              189921.793         676855.109        
S22              189977.337         676827.337        
S22              190053.710         676733.606        
S22              190119.668         676695.420        
S22              190185.627         676695.420        
S22              190268.943         676636.404        
S22              190362.673         676660.705        
S22              190432.103         676594.746        
S22              190452.932         676521.845        
S22              190425.160         676476.716        
S22              190553.605         676386.457        
S22              190557.077         676303.141        
S22              190494.590         676202.467        
S22              190525.833         676060.136        
S22              190515.419         675955.991        
S22              190414.745         675865.732        
S22              190161.326         675667.857        
S22              190088.425         675695.629        
S22              189977.337         675640.085        
S22              189522.571         675647.028        
S22              189508.685         675792.831        
S22              189619.773         676063.608        
S23              188878.835         677825.274        
S23              188944.793         677832.217        
S23              189187.798         677755.844        
S23              189392.616         677717.657        
S23              189691.165         677696.828        
S23              189684.222         677578.797        
S23              189760.595         677540.611        
S23              189750.181         677429.523        
S23              189718.937         677349.679        
S23              189791.838         677269.834        
S23              189798.781         677040.716        
S23              189777.953         676922.685        
S23              188944.793         677134.446        
S23              188965.622         677262.891        
S23              188913.550         677262.891        
S23              188930.907         677495.482        
S23              188885.778         677498.953        
S23              188861.477         677825.274        
S24              188340.468         677855.197        
S24              188784.820         677851.726        
S24              188868.135         677834.368        
S24              188864.664         677511.519        
S24              188923.679         677490.690        
S24              188902.850         677261.571        
S24              188951.451         677258.100        
S24              188947.980         677140.069        
S24              188916.736         677140.069        
S24              188708.447         677209.499        
S24              188684.146         677615.664        
S24              188267.567         677671.208        
S24              188333.525         677855.197        
S25              188250.451         677657.676        
S25              188691.331         677605.603        
S25              188691.331         677588.246        
S25              188698.274         677463.272        
S25              188712.160         677400.785        
S25              188705.217         677310.526        
S25              188160.192         677386.899        
S25              188246.979         677654.204        
S26              188709.123         678042.797        
S26              188719.538         677869.222        
S26              188820.211         677876.165        
S26              188861.869         677844.922        
S26              189007.672         677820.621        
S26              189299.278         677747.720        
S26              189688.085         677681.761        
S26              189698.500         677713.005        
S26              189681.142         677855.336        
S26              189629.070         677980.310        
S26              189483.267         678126.113        
S26              189313.163         678122.641        
S26              189268.034         678146.942        
S26              189014.615         678136.527        
S26              189004.200         678098.341        
S26              188702.180         678042.797        
S27              188509.779         678591.953        
S27              188617.395         678623.196        
S27              188929.830         678640.554        
S27              188884.700         679064.076        
S27              188981.902         679039.776        
S27              189207.550         679022.419        
S27              189259.622         678970.346        
S27              189419.311         678959.932        
S27              189467.912         678932.160        
S27              189471.383         678817.600        
S27              189433.197         678758.585        
S27              189502.627         678720.398        
S27              189572.057         678682.212        
S27              189596.357         678598.896        
S27              189565.114         678581.538        
S27              189526.927         678539.881        
S27              189509.570         678456.565        
S27              189471.383         678383.663        
S27              189471.383         678144.130        
S27              189308.223         678123.301        
S27              189290.866         678161.487        
S27              189006.203         678147.601        
S27              189009.674         678105.943        
S27              188714.597         678050.400        
S27              188718.069         677883.768        
S27              188363.976         677855.996        
S27              188363.976         677883.768        
S27              188377.862         678060.814        
S27              188409.105         678137.187        
S27              188475.064         678376.720        
S27              188506.307         678598.896        
S28              188431.500         678929.384        
S28              188415.027         678744.888        
S28              188474.329         678599.928        
S28              188569.871         678616.401        
S28              188747.777         678636.168        
S28              188849.908         678639.463        
S28              188909.210         678622.990        
S28              188912.505         678688.881        
S28              188892.738         678850.314        
S28              188863.087         679061.166        
S28              188635.762         679067.755        
S28              188606.111         679051.282        
S28              188507.274         678988.686        
S28              188434.794         678988.686

;;____________________________________________________________________________________________________
[SYMBOLS]
;;Gage           X-Coord            Y-Coord           
;;-------------- ------------------ ------------------

;;____________________________________________________________________________________________________
[BACKDROP]
FILE       "raanana_24subcatchments.png"
DIMENSIONS 185865.396 673350.000 190728.391 679250.737