[TITLE]
;;Project Title/Notes

;;____________________________________________________________________________________________________
[OPTIONS]
FLOW_UNITS           CMS
INFILTRATION         CURVE_NUMBER
FLOW_ROUTING         DYNWAVE
LINK_OFFSETS         DEPTH
MIN_SLOPE            0
ALLOW_PONDING        NO
SKIP_STEADY_STATE    NO
START_DATE           12/19/2016
START_TIME           14:00:00
REPORT_START_DATE    12/19/2016
REPORT_START_TIME    14:00:00
END_DATE             12/19/2016
END_TIME             21:00:00
SWEEP_START          01/01
SWEEP_END            12/31
DRY_DAYS             0
REPORT_STEP          00:05:00
WET_STEP             00:05:00
DRY_STEP             01:00:00
ROUTING_STEP         0:00:20
RULE_STEP            00:00:00
INERTIAL_DAMPING     PARTIAL
NORMAL_FLOW_LIMITED  BOTH
FORCE_MAIN_EQUATION  H-W
VARIABLE_STEP        0.75
LENGTHENING_STEP     0
MIN_SURFAREA         1.167
MAX_TRIALS           8
HEAD_TOLERANCE       0.0015
SYS_FLOW_TOL         5
LAT_FLOW_TOL         5
MINIMUM_STEP         0.5
THREADS              1

;;____________________________________________________________________________________________________
[EVAPORATION]
CONSTANT  4
DRY_ONLY  NO

;;____________________________________________________________________________________________________
[RAINGAGES]
R01 VOLUME 0:05 0 TIMESERIES 2016_12_19_S1
R02 VOLUME 0:05 0 TIMESERIES 2016_12_19_S2
R03 VOLUME 0:05 0 TIMESERIES 2016_12_19_S3
R04 VOLUME 0:05 0 TIMESERIES 2016_12_19_S4
R05 VOLUME 0:05 0 TIMESERIES 2016_12_19_S5
R06 VOLUME 0:05 0 TIMESERIES 2016_12_19_S6
R07 VOLUME 0:05 0 TIMESERIES 2016_12_19_S7
R08 VOLUME 0:05 0 TIMESERIES 2016_12_19_S8
R09 VOLUME 0:05 0 TIMESERIES 2016_12_19_S9
R10 VOLUME 0:05 0 TIMESERIES 2016_12_19_S10
R11 VOLUME 0:05 0 TIMESERIES 2016_12_19_S11
R12 VOLUME 0:05 0 TIMESERIES 2016_12_19_S12
R13 VOLUME 0:05 0 TIMESERIES 2016_12_19_S13
R14 VOLUME 0:05 0 TIMESERIES 2016_12_19_S14
R15 VOLUME 0:05 0 TIMESERIES 2016_12_19_S15
R16 VOLUME 0:05 0 TIMESERIES 2016_12_19_S16
R17 VOLUME 0:05 0 TIMESERIES 2016_12_19_S17
R18 VOLUME 0:05 0 TIMESERIES 2016_12_19_S18
R19 VOLUME 0:05 0 TIMESERIES 2016_12_19_S19
R20 VOLUME 0:05 0 TIMESERIES 2016_12_19_S20
R21 VOLUME 0:05 0 TIMESERIES 2016_12_19_S21
R22 VOLUME 0:05 0 TIMESERIES 2016_12_19_S22
R23 VOLUME 0:05 0 TIMESERIES 2016_12_19_S23
R24 VOLUME 0:05 0 TIMESERIES 2016_12_19_S24
R25 VOLUME 0:05 0 TIMESERIES 2016_12_19_S25
R26 VOLUME 0:05 0 TIMESERIES 2016_12_19_S26
R27 VOLUME 0:05 0 TIMESERIES 2016_12_19_S27
R28 VOLUME 0:05 0 TIMESERIES 2016_12_19_S28

;;____________________________________________________________________________________________________
[SUBCATCHMENTS]
S01 R01 J1 35.9 6 3211 3 0
S02 R02 J2 92.9 54 3640 2.6 0
S03 R03 J4 40.8 64.5 3640 2.2 0
S04 R04 J6 20.1 70.5 2457 2.4 0
S05 R05 J7 17.4 67.5 1508 3.5 0
S06 R06 J8 61.1 70.5 3692 1.9 0
S07 R07 J9 60.2 70.5 3458 2 0
S08 R08 J11 29 70.5 2600 2.8 0
S09 R09 J14 31.1 19.5 1482 3 0
S10 R10 J15 35.6 70.5 1820 2.2 0
S11 R11 J17 67.4 70.5 702 3.5 0
S12 R12 J18 15.2 16.5 2860 4 0
S13 R13 J16 177.1 10.5 5408 1.3 0
S14 R14 J12 27 73.5 1391 3 0
S15 R15 J24 59.2 24 1703 2.5 0
S16 R16 J25 28.6 45 1703 2.3 0
S17 R17 J23 53.4 73.5 1560 2.4 0
S18 R18 J10 25.4 73.5 1872 2.9 0
S19 R19 J8 27.8 73.5 1820 3.2 0
S20 R20 J7 28.2 70.5 1820 3.3 0
S21 R21 J22 76.7 70.5 1976 2.8 0
S22 R22 J26 87.9 82.5 2405 2.4 0
S23 R23 J21 60.3 69 2262 2.1 0
S24 R24 J4 21.6 70.5 3255.2 2 0
S25 R25 J5 14 76.5 1274 3.6 0
S26 R26 J20 30.9 94.5 2470 2.1 0
S27 R27 J3 82 97.5 2782 1.9 0
S28 R28 J1 18.8 3 1235 2.4 0


;;____________________________________________________________________________________________________
[SUBAREAS]
S01 0.011 0.06 14.4 40 30 PERVIOUS 45
S02 0.011 0.06 14.4 40 50 PERVIOUS 45
S03 0.011 0.06 14.4 40 50 PERVIOUS 45
S04 0.011 0.06 14.4 40 50 PERVIOUS 45
S05 0.011 0.06 14.4 40 50 PERVIOUS 45
S06 0.011 0.06 14.4 40 50 PERVIOUS 45
S07 0.011 0.06 14.4 40 50 PERVIOUS 45
S08 0.011 0.06 14.4 40 50 PERVIOUS 45
S09 0.011 0.06 14.4 40 30 PERVIOUS 45
S10 0.011 0.06 14.4 40 50 PERVIOUS 45
S11 0.011 0.06 14.4 40 50 PERVIOUS 45
S12 0.011 0.06 14.4 40 30 PERVIOUS 45
S13 0.011 0.06 14.4 40 30 PERVIOUS 45
S14 0.011 0.06 14.4 40 50 PERVIOUS 45
S15 0.011 0.06 14.4 40 30 PERVIOUS 45
S16 0.011 0.06 14.4 40 50 PERVIOUS 45
S17 0.011 0.06 14.4 40 50 PERVIOUS 45
S18 0.011 0.06 14.4 40 50 PERVIOUS 45
S19 0.011 0.06 14.4 40 50 PERVIOUS 45
S20 0.011 0.06 14.4 40 50 PERVIOUS 45
S21 0.011 0.06 14.4 40 50 PERVIOUS 45
S22 0.011 0.06 14.4 40 60 PERVIOUS 45
S23 0.011 0.06 14.4 40 50 PERVIOUS 45
S24 0.011 0.06 14.4 40 50 PERVIOUS 45
S25 0.011 0.06 14.4 40 50 PERVIOUS 45
S26 0.011 0.06 14.4 40 60 PERVIOUS 45
S27 0.011 0.06 14.4 40 60 PERVIOUS 45
S28 0.011 0.06 14.4 40 30 PERVIOUS 45


;;____________________________________________________________________________________________________
[INFILTRATION]
S01 39 0.5 4
S02 39 0.5 4
S03 39 0.5 4
S04 39 0.5 4
S05 39 0.5 4
S06 39 0.5 4
S07 39 0.5 4
S08 39 0.5 4
S09 39 0.5 4
S10 39 0.5 4
S11 39 0.5 4
S12 39 0.5 4
S13 39 0.5 4
S14 39 0.5 4
S15 39 0.5 4
S16 39 0.5 4
S17 39 0.5 4
S18 39 0.5 4
S19 39 0.5 4
S20 39 0.5 4
S21 39 0.5 4
S22 39 0.5 4
S23 39 0.5 4
S24 39 0.5 4
S25 39 0.5 4
S26 39 0.5 4
S27 39 0.5 4
S28 39 0.5 4


;;____________________________________________________________________________________________________
[JUNCTIONS]
;;Name           Elevation  MaxDepth   InitDepth  SurDepth   Aponded   
;;-------------- ---------- ---------- ---------- ---------- ----------
J1               28.6       0          0          0          0         
J10              41.7       0          0          0          0         
J11              43.4       0          0          0          0         
J12              44.5       0          0          0          0         
J13              45.2       0          0          0          0         
J14              54.6       0          0          0          0         
J15              60.3       0          0          0          0         
J16              49         0          0          0          0         
J17              55.5       0          0          0          0         
J18              65.1       0          0          0          0         
J2               31.6       0          0          0          0         
J20              37.3       0          0          0          0         
J21              42.7       0          0          0          0         
J22              46.8       0          0          0          0         
J23              49.5       0          0          0          0         
J24              50.1       0          0          0          0         
J25              53.6       0          0          0          0         
J26              53.8       0          0          0          0         
J3               31.8       0          0          0          0         
J4               33.2       0          0          0          0         
J5               35.8       0          0          0          0         
J6               38         0          0          0          0         
J7               38.5       0          0          0          0         
J8               39.9       0          0          0          0         
J9               40.6       0          0          0          0

;;____________________________________________________________________________________________________
[OUTFALLS]
;;Name           Elevation  Type       Stage Data       Gated    Route To        
;;-------------- ---------- ---------- ---------------- -------- ----------------
O1               28         FREE                        NO

;;____________________________________________________________________________________________________
[CONDUITS]
;;Name           From Node        To Node          Length     Roughness  InOffset   OutOffset  InitFlow   MaxFlow   
;;-------------- ---------------- ---------------- ---------- ---------- ---------- ---------- ---------- ----------
C1               J1               O1               130        0.05       0          0          0          0         
C10              J10              J9               320        0.01       0          0          0          0         
C11              J11              J10              315        0.01       0          0          0          0         
C12              J12              J11              130        0.01       0          0          0          0         
C13              J13              J12              110        0.01       0          0          0          0         
C14              J13              J14              550        0.01       0          0          0          0         
C15              J15              J14              540        0.01       0          0          0          0         
C16              J16              J13              590        0.01       0          0          0          0         
C17              J17              J16              770        0.01       0          0          0          0         
C18              J18              J17              505        0.01       0          0          0          0         
C2               J2               J1               330        0.01       0          0          0          0         
C20              J20              J4               600        0.01       0          0          0          0         
C21              J21              J20              620        0.01       0          0          0          0         
C22              J22              J21              850        0.01       0          0          0          0         
C23              J23              J22              530        0.01       0          0          0          0         
C24              J24              J23              440        0.01       0          0          0          0         
C25              J25              J24              190        0.01       0          0          0          0         
C26              J26              J22              600        0.01       0          0          0          0         
C3               J3               J2               95         0.01       0          0          0          0         
C4               J4               J3               660        0.01       0          0          0          0         
C5               J5               J4               175        0.01       0          0          0          0         
C6               J6               J5               280        0.01       0          0          0          0         
C7               J7               J6               120        0.01       0          0          0          0         
C8               J8               J7               300        0.01       0          0          0          0         
C9               J9               J8               250        0.01       0          0          0          0

;;____________________________________________________________________________________________________
[XSECTIONS]
;;Link           Shape        Geom1            Geom2      Geom3      Geom4      Barrels    Culvert   
;;-------------- ------------ ---------------- ---------- ---------- ---------- ---------- ----------
C1               PARABOLIC    5                12         0          0          1                    
C10              RECT_CLOSED  1.5              1.7        0          0          1                    
C11              RECT_CLOSED  1.25             1.5        0          0          1                    
C12              RECT_CLOSED  1.25             1.5        0          0          1                    
C13              RECT_CLOSED  1.95             3.85       0          0          1                    
C14              CIRCULAR     0.6              0          0          0          1                    
C15              RECT_CLOSED  1.95             3.85       0          0          1                    
C16              PARABOLIC    1.95             3.85       0          0          1                    
C17              RECT_CLOSED  1.95             3.85       0          0          1                    
C18              RECT_CLOSED  1.95             3.85       0          0          1                    
C2               PARABOLIC    5                12         0          0          1                    
C20              RECT_CLOSED  1.25             4.5        0          0          1                    
C21              CIRCULAR     1.5              0          0          0          1                    
C22              CIRCULAR     1.8              0          0          0          1                    
C23              CIRCULAR     1.25             0          0          0          1                    
C24              CIRCULAR     1.5              0          0          0          1                    
C25              RECT_CLOSED  1.95             3.85       0          0          1                    
C26              CIRCULAR     1.25             0          0          0          1                    
C3               RECT_CLOSED  3.70             6          0          0          1                    
C4               RECT_CLOSED  3.60             5.85       0          0          1                    
C5               RECT_CLOSED  1.85             2.5        0          0          1                    
C6               RECT_CLOSED  1.85             2.5        0          0          1                    
C7               RECT_CLOSED  1.95             3.85       0          0          1                    
C8               RECT_CLOSED  1.85             2          0          0          1                    
C9               RECT_CLOSED  1.85             2          0          0          1

;;____________________________________________________________________________________________________
[TIMESERIES]
2016_12_19_S1 12/19/2016 15:20:00 0.0242
2016_12_19_S1 12/19/2016 15:25:00 0.2306
2016_12_19_S1 12/19/2016 15:30:00 0.2676
2016_12_19_S1 12/19/2016 15:35:00 0.0028
2016_12_19_S1 12/19/2016 15:40:00 0.0
2016_12_19_S1 12/19/2016 15:45:00 0.0349
2016_12_19_S1 12/19/2016 15:50:00 0.0378
2016_12_19_S1 12/19/2016 15:55:00 1.159
2016_12_19_S1 12/19/2016 16:00:00 0.475
2016_12_19_S1 12/19/2016 16:05:00 0.8221
2016_12_19_S1 12/19/2016 16:10:00 5.4467
2016_12_19_S1 12/19/2016 16:15:00 3.9093
2016_12_19_S1 12/19/2016 16:20:00 2.8729
2016_12_19_S1 12/19/2016 16:25:00 2.5068
2016_12_19_S1 12/19/2016 16:30:00 0.6264
2016_12_19_S1 12/19/2016 16:35:00 0.1488
2016_12_19_S1 12/19/2016 16:40:00 0.4131
2016_12_19_S1 12/19/2016 16:45:00 0.1595
2016_12_19_S1 12/19/2016 16:50:00 0.0303
2016_12_19_S1 12/19/2016 16:55:00 0.0884
2016_12_19_S1 12/19/2016 17:00:00 0.0826
2016_12_19_S1 12/19/2016 17:05:00 0.1569
2016_12_19_S1 12/19/2016 17:10:00 0.2011
2016_12_19_S1 12/19/2016 17:15:00 0.2955
2016_12_19_S1 12/19/2016 17:20:00 0.3977
2016_12_19_S1 12/19/2016 17:25:00 0.3365
2016_12_19_S1 12/19/2016 17:30:00 0.2657
2016_12_19_S1 12/19/2016 17:35:00 0.0592
2016_12_19_S1 12/19/2016 17:40:00 0.2385
2016_12_19_S1 12/19/2016 17:45:00 0.0825
2016_12_19_S1 12/19/2016 17:50:00 0.0121
2016_12_19_S1 12/19/2016 17:55:00 0.0
2016_12_19_S1 12/19/2016 18:00:00 0.0
2016_12_19_S1 12/19/2016 18:05:00 0.0
2016_12_19_S1 12/19/2016 18:10:00 0.0
2016_12_19_S1 12/19/2016 18:15:00 0.0
2016_12_19_S1 12/19/2016 18:20:00 0.0
2016_12_19_S1 12/19/2016 18:25:00 0.0
2016_12_19_S1 12/19/2016 18:30:00 0.0
2016_12_19_S1 12/19/2016 18:35:00 0.0
2016_12_19_S1 12/19/2016 18:40:00 0.0
2016_12_19_S1 12/19/2016 18:45:00 0.0
2016_12_19_S1 12/19/2016 18:50:00 0.0
2016_12_19_S1 12/19/2016 18:55:00 0.0
2016_12_19_S1 12/19/2016 19:00:00 0.0
2016_12_19_S1 12/19/2016 19:05:00 0.0
2016_12_19_S1 12/19/2016 19:10:00 0.0
2016_12_19_S1 12/19/2016 19:15:00 0.0066
2016_12_19_S1 12/19/2016 19:20:00 0.0141
2016_12_19_S1 12/19/2016 19:25:00 0.0402
2016_12_19_S1 12/19/2016 19:30:00 0.0177
2016_12_19_S1 12/19/2016 19:35:00 0.0472
2016_12_19_S1 12/19/2016 19:40:00 0.0373
2016_12_19_S1 12/19/2016 19:45:00 0.0209
2016_12_19_S1 12/19/2016 19:50:00 0.0006
2016_12_19_S1 12/19/2016 19:55:00 0.0023
2016_12_19_S1 12/19/2016 20:00:00 0.0059
2016_12_19_S1 12/19/2016 20:05:00 0.0
2016_12_19_S1 12/19/2016 20:10:00 0.0
2016_12_19_S1 12/19/2016 20:15:00 0.0
2016_12_19_S1 12/19/2016 20:20:00 0.0
2016_12_19_S1 12/19/2016 20:25:00 0.0
2016_12_19_S1 12/19/2016 20:30:00 0.0
2016_12_19_S1 12/19/2016 20:35:00 0.0
2016_12_19_S1 12/19/2016 20:40:00 0.0
2016_12_19_S1 12/19/2016 20:45:00 0.0
2016_12_19_S1 12/19/2016 20:50:00 0.0
2016_12_19_S1 12/19/2016 20:55:00 0.0
2016_12_19_S1 12/19/2016 21:00:00 0.0
2016_12_19_S1 12/19/2016 21:05:00 0.0
2016_12_19_S1 12/19/2016 21:10:00 0.0
2016_12_19_S1 12/19/2016 21:15:00 0.0
2016_12_19_S1 12/19/2016 21:20:00 0.0
2016_12_19_S1 12/19/2016 21:25:00 0.0
2016_12_19_S1 12/19/2016 21:30:00 0.0
2016_12_19_S1 12/19/2016 21:35:00 0.0
2016_12_19_S1 12/19/2016 21:40:00 0.0
2016_12_19_S1 12/19/2016 21:45:00 0.0
2016_12_19_S1 12/19/2016 21:50:00 0.0
2016_12_19_S1 12/19/2016 21:55:00 0.0
2016_12_19_S1 12/19/2016 22:00:00 0.0
2016_12_19_S1 12/19/2016 22:05:00 0.0
2016_12_19_S1 12/19/2016 22:10:00 0.0
2016_12_19_S1 12/19/2016 22:15:00 0.0
2016_12_19_S1 12/19/2016 22:20:00 0.0
2016_12_19_S1 12/19/2016 22:25:00 0.0
2016_12_19_S1 12/19/2016 22:30:00 0.0
2016_12_19_S1 12/19/2016 22:35:00 0.0
2016_12_19_S1 12/19/2016 22:40:00 0.0
2016_12_19_S1 12/19/2016 22:45:00 0.0
2016_12_19_S1 12/19/2016 22:50:00 0.0
2016_12_19_S1 12/19/2016 22:55:00 0.0
2016_12_19_S1 12/19/2016 23:00:00 0.0
2016_12_19_S1 12/19/2016 23:05:00 0.0
2016_12_19_S1 12/19/2016 23:10:00 0.0
2016_12_19_S1 12/19/2016 23:15:00 0.0
2016_12_19_S1 12/19/2016 23:20:00 0.0
2016_12_19_S1 12/19/2016 23:25:00 0.0
2016_12_19_S1 12/19/2016 23:30:00 0.0
2016_12_19_S1 12/19/2016 23:35:00 0.0
2016_12_19_S1 12/19/2016 23:40:00 0.0
2016_12_19_S1 12/19/2016 23:45:00 0.0
2016_12_19_S1 12/19/2016 23:50:00 0.0
2016_12_19_S1 12/19/2016 23:55:00 0.0
2016_12_19_S1 12/20/2016 00:00:00 0.0
2016_12_19_S1 12/20/2016 00:05:00 0.0
2016_12_19_S1 12/20/2016 00:10:00 0.0
2016_12_19_S1 12/20/2016 00:15:00 0.0
2016_12_19_S1 12/20/2016 00:20:00 0.0
2016_12_19_S1 12/20/2016 00:25:00 0.0
2016_12_19_S1 12/20/2016 00:30:00 0.0
2016_12_19_S1 12/20/2016 00:35:00 0.0
2016_12_19_S1 12/20/2016 00:40:00 0.0
2016_12_19_S1 12/20/2016 00:45:00 0.0
2016_12_19_S1 12/20/2016 00:50:00 0.0
2016_12_19_S1 12/20/2016 00:55:00 0.0
2016_12_19_S1 12/20/2016 01:00:00 0.0
2016_12_19_S1 12/20/2016 01:05:00 0.0
2016_12_19_S1 12/20/2016 01:10:00 0.0
2016_12_19_S1 12/20/2016 01:15:00 0.0
2016_12_19_S1 12/20/2016 01:20:00 0.0
2016_12_19_S1 12/20/2016 01:25:00 0.0
2016_12_19_S1 12/20/2016 01:30:00 0.0
2016_12_19_S1 12/20/2016 01:35:00 0.0
2016_12_19_S1 12/20/2016 01:40:00 0.0
2016_12_19_S1 12/20/2016 01:45:00 0.0
2016_12_19_S1 12/20/2016 01:50:00 0.0
2016_12_19_S1 12/20/2016 01:55:00 0.0
2016_12_19_S1 12/20/2016 02:00:00 0.0
2016_12_19_S1 12/20/2016 02:05:00 0.0
2016_12_19_S1 12/20/2016 02:10:00 0.0
2016_12_19_S1 12/20/2016 02:15:00 0.0
2016_12_19_S1 12/20/2016 02:20:00 0.0
2016_12_19_S1 12/20/2016 02:25:00 0.0
2016_12_19_S1 12/20/2016 02:30:00 0.0
2016_12_19_S1 12/20/2016 02:35:00 0.0
2016_12_19_S1 12/20/2016 02:40:00 0.0
2016_12_19_S1 12/20/2016 02:45:00 0.0
2016_12_19_S1 12/20/2016 02:50:00 0.0
2016_12_19_S1 12/20/2016 02:55:00 0.0
2016_12_19_S1 12/20/2016 03:00:00 0.0
2016_12_19_S1 12/20/2016 03:05:00 0.0
2016_12_19_S1 12/20/2016 03:10:00 0.0
2016_12_19_S1 12/20/2016 03:15:00 0.0
2016_12_19_S1 12/20/2016 03:20:00 0.0
2016_12_19_S1 12/20/2016 03:25:00 0.0
2016_12_19_S1 12/20/2016 03:30:00 0.0
2016_12_19_S1 12/20/2016 03:35:00 0.0
2016_12_19_S1 12/20/2016 03:40:00 0.0
2016_12_19_S1 12/20/2016 03:45:00 0.0
2016_12_19_S1 12/20/2016 03:50:00 0.0
2016_12_19_S1 12/20/2016 03:55:00 0.0
2016_12_19_S1 12/20/2016 04:00:00 0.0
2016_12_19_S1 12/20/2016 04:05:00 0.0
2016_12_19_S1 12/20/2016 04:10:00 0.0
2016_12_19_S1 12/20/2016 04:15:00 0.0
2016_12_19_S1 12/20/2016 04:20:00 0.0
2016_12_19_S1 12/20/2016 04:25:00 0.0
2016_12_19_S1 12/20/2016 04:30:00 0.0
2016_12_19_S1 12/20/2016 04:35:00 0.0
2016_12_19_S1 12/20/2016 04:40:00 0.0
2016_12_19_S1 12/20/2016 04:45:00 0.0
2016_12_19_S1 12/20/2016 04:50:00 0.0
2016_12_19_S1 12/20/2016 04:55:00 0.0
2016_12_19_S1 12/20/2016 05:00:00 0.0
2016_12_19_S1 12/20/2016 05:05:00 0.0
2016_12_19_S1 12/20/2016 05:10:00 0.0
2016_12_19_S1 12/20/2016 05:15:00 0.0
2016_12_19_S1 12/20/2016 05:20:00 0.0
2016_12_19_S1 12/20/2016 05:25:00 0.0
2016_12_19_S1 12/20/2016 05:30:00 0.0
2016_12_19_S1 12/20/2016 05:35:00 0.0
2016_12_19_S1 12/20/2016 05:40:00 0.0
2016_12_19_S1 12/20/2016 05:45:00 0.0
2016_12_19_S1 12/20/2016 05:50:00 0.0
2016_12_19_S1 12/20/2016 05:55:00 0.0
2016_12_19_S1 12/20/2016 06:00:00 0.0
2016_12_19_S1 12/20/2016 06:05:00 0.0
2016_12_19_S1 12/20/2016 06:10:00 0.0
2016_12_19_S1 12/20/2016 06:15:00 0.0
2016_12_19_S1 12/20/2016 06:20:00 0.0
2016_12_19_S1 12/20/2016 06:25:00 0.0
2016_12_19_S1 12/20/2016 06:30:00 0.0
2016_12_19_S1 12/20/2016 06:35:00 0.0
2016_12_19_S1 12/20/2016 06:40:00 0.0
2016_12_19_S1 12/20/2016 06:45:00 0.0
2016_12_19_S1 12/20/2016 06:50:00 0.0
2016_12_19_S1 12/20/2016 06:55:00 0.0
2016_12_19_S1 12/20/2016 07:00:00 0.0
2016_12_19_S1 12/20/2016 07:05:00 0.0
2016_12_19_S1 12/20/2016 07:10:00 0.0
2016_12_19_S1 12/20/2016 07:15:00 0.0
2016_12_19_S1 12/20/2016 07:20:00 0.0
2016_12_19_S1 12/20/2016 07:25:00 0.0
2016_12_19_S1 12/20/2016 07:30:00 0.0
2016_12_19_S1 12/20/2016 07:35:00 0.0
2016_12_19_S1 12/20/2016 07:40:00 0.0
2016_12_19_S1 12/20/2016 07:45:00 0.0
2016_12_19_S1 12/20/2016 07:50:00 0.0
2016_12_19_S1 12/20/2016 07:55:00 0.0
2016_12_19_S1 12/20/2016 08:00:00 0.0

2016_12_19_S2 12/19/2016 15:20:00 0.0394
2016_12_19_S2 12/19/2016 15:25:00 0.2615
2016_12_19_S2 12/19/2016 15:30:00 0.1366
2016_12_19_S2 12/19/2016 15:35:00 0.0009
2016_12_19_S2 12/19/2016 15:40:00 0.0
2016_12_19_S2 12/19/2016 15:45:00 0.015
2016_12_19_S2 12/19/2016 15:50:00 0.0536
2016_12_19_S2 12/19/2016 15:55:00 1.2003
2016_12_19_S2 12/19/2016 16:00:00 0.4422
2016_12_19_S2 12/19/2016 16:05:00 1.5508
2016_12_19_S2 12/19/2016 16:10:00 5.7736
2016_12_19_S2 12/19/2016 16:15:00 5.4286
2016_12_19_S2 12/19/2016 16:20:00 3.4481
2016_12_19_S2 12/19/2016 16:25:00 2.482
2016_12_19_S2 12/19/2016 16:30:00 0.5702
2016_12_19_S2 12/19/2016 16:35:00 0.1999
2016_12_19_S2 12/19/2016 16:40:00 0.4224
2016_12_19_S2 12/19/2016 16:45:00 0.1576
2016_12_19_S2 12/19/2016 16:50:00 0.0307
2016_12_19_S2 12/19/2016 16:55:00 0.0913
2016_12_19_S2 12/19/2016 17:00:00 0.0864
2016_12_19_S2 12/19/2016 17:05:00 0.1524
2016_12_19_S2 12/19/2016 17:10:00 0.1776
2016_12_19_S2 12/19/2016 17:15:00 0.2699
2016_12_19_S2 12/19/2016 17:20:00 0.3485
2016_12_19_S2 12/19/2016 17:25:00 0.2761
2016_12_19_S2 12/19/2016 17:30:00 0.2041
2016_12_19_S2 12/19/2016 17:35:00 0.075
2016_12_19_S2 12/19/2016 17:40:00 0.1976
2016_12_19_S2 12/19/2016 17:45:00 0.0679
2016_12_19_S2 12/19/2016 17:50:00 0.0088
2016_12_19_S2 12/19/2016 17:55:00 0.0
2016_12_19_S2 12/19/2016 18:00:00 0.0
2016_12_19_S2 12/19/2016 18:05:00 0.0
2016_12_19_S2 12/19/2016 18:10:00 0.0
2016_12_19_S2 12/19/2016 18:15:00 0.0
2016_12_19_S2 12/19/2016 18:20:00 0.0
2016_12_19_S2 12/19/2016 18:25:00 0.0
2016_12_19_S2 12/19/2016 18:30:00 0.0
2016_12_19_S2 12/19/2016 18:35:00 0.0
2016_12_19_S2 12/19/2016 18:40:00 0.0
2016_12_19_S2 12/19/2016 18:45:00 0.0
2016_12_19_S2 12/19/2016 18:50:00 0.0
2016_12_19_S2 12/19/2016 18:55:00 0.0
2016_12_19_S2 12/19/2016 19:00:00 0.0
2016_12_19_S2 12/19/2016 19:05:00 0.0
2016_12_19_S2 12/19/2016 19:10:00 0.0
2016_12_19_S2 12/19/2016 19:15:00 0.006
2016_12_19_S2 12/19/2016 19:20:00 0.0191
2016_12_19_S2 12/19/2016 19:25:00 0.0409
2016_12_19_S2 12/19/2016 19:30:00 0.0156
2016_12_19_S2 12/19/2016 19:35:00 0.0507
2016_12_19_S2 12/19/2016 19:40:00 0.038
2016_12_19_S2 12/19/2016 19:45:00 0.0162
2016_12_19_S2 12/19/2016 19:50:00 0.0013
2016_12_19_S2 12/19/2016 19:55:00 0.0
2016_12_19_S2 12/19/2016 20:00:00 0.0048
2016_12_19_S2 12/19/2016 20:05:00 0.0
2016_12_19_S2 12/19/2016 20:10:00 0.0
2016_12_19_S2 12/19/2016 20:15:00 0.0
2016_12_19_S2 12/19/2016 20:20:00 0.0
2016_12_19_S2 12/19/2016 20:25:00 0.0
2016_12_19_S2 12/19/2016 20:30:00 0.0
2016_12_19_S2 12/19/2016 20:35:00 0.0
2016_12_19_S2 12/19/2016 20:40:00 0.0
2016_12_19_S2 12/19/2016 20:45:00 0.0
2016_12_19_S2 12/19/2016 20:50:00 0.0
2016_12_19_S2 12/19/2016 20:55:00 0.0
2016_12_19_S2 12/19/2016 21:00:00 0.0
2016_12_19_S2 12/19/2016 21:05:00 0.0
2016_12_19_S2 12/19/2016 21:10:00 0.0
2016_12_19_S2 12/19/2016 21:15:00 0.0
2016_12_19_S2 12/19/2016 21:20:00 0.0
2016_12_19_S2 12/19/2016 21:25:00 0.0
2016_12_19_S2 12/19/2016 21:30:00 0.0
2016_12_19_S2 12/19/2016 21:35:00 0.0
2016_12_19_S2 12/19/2016 21:40:00 0.0
2016_12_19_S2 12/19/2016 21:45:00 0.0
2016_12_19_S2 12/19/2016 21:50:00 0.0
2016_12_19_S2 12/19/2016 21:55:00 0.0
2016_12_19_S2 12/19/2016 22:00:00 0.0
2016_12_19_S2 12/19/2016 22:05:00 0.0
2016_12_19_S2 12/19/2016 22:10:00 0.0
2016_12_19_S2 12/19/2016 22:15:00 0.0
2016_12_19_S2 12/19/2016 22:20:00 0.0
2016_12_19_S2 12/19/2016 22:25:00 0.0
2016_12_19_S2 12/19/2016 22:30:00 0.0
2016_12_19_S2 12/19/2016 22:35:00 0.0
2016_12_19_S2 12/19/2016 22:40:00 0.0
2016_12_19_S2 12/19/2016 22:45:00 0.0
2016_12_19_S2 12/19/2016 22:50:00 0.0
2016_12_19_S2 12/19/2016 22:55:00 0.0
2016_12_19_S2 12/19/2016 23:00:00 0.0
2016_12_19_S2 12/19/2016 23:05:00 0.0
2016_12_19_S2 12/19/2016 23:10:00 0.0
2016_12_19_S2 12/19/2016 23:15:00 0.0
2016_12_19_S2 12/19/2016 23:20:00 0.0
2016_12_19_S2 12/19/2016 23:25:00 0.0
2016_12_19_S2 12/19/2016 23:30:00 0.0
2016_12_19_S2 12/19/2016 23:35:00 0.0
2016_12_19_S2 12/19/2016 23:40:00 0.0
2016_12_19_S2 12/19/2016 23:45:00 0.0
2016_12_19_S2 12/19/2016 23:50:00 0.0
2016_12_19_S2 12/19/2016 23:55:00 0.0
2016_12_19_S2 12/20/2016 00:00:00 0.0
2016_12_19_S2 12/20/2016 00:05:00 0.0
2016_12_19_S2 12/20/2016 00:10:00 0.0
2016_12_19_S2 12/20/2016 00:15:00 0.0
2016_12_19_S2 12/20/2016 00:20:00 0.0
2016_12_19_S2 12/20/2016 00:25:00 0.0
2016_12_19_S2 12/20/2016 00:30:00 0.0
2016_12_19_S2 12/20/2016 00:35:00 0.0
2016_12_19_S2 12/20/2016 00:40:00 0.0
2016_12_19_S2 12/20/2016 00:45:00 0.0
2016_12_19_S2 12/20/2016 00:50:00 0.0
2016_12_19_S2 12/20/2016 00:55:00 0.0
2016_12_19_S2 12/20/2016 01:00:00 0.0
2016_12_19_S2 12/20/2016 01:05:00 0.0
2016_12_19_S2 12/20/2016 01:10:00 0.0
2016_12_19_S2 12/20/2016 01:15:00 0.0
2016_12_19_S2 12/20/2016 01:20:00 0.0
2016_12_19_S2 12/20/2016 01:25:00 0.0
2016_12_19_S2 12/20/2016 01:30:00 0.0
2016_12_19_S2 12/20/2016 01:35:00 0.0
2016_12_19_S2 12/20/2016 01:40:00 0.0
2016_12_19_S2 12/20/2016 01:45:00 0.0
2016_12_19_S2 12/20/2016 01:50:00 0.0
2016_12_19_S2 12/20/2016 01:55:00 0.0
2016_12_19_S2 12/20/2016 02:00:00 0.0
2016_12_19_S2 12/20/2016 02:05:00 0.0
2016_12_19_S2 12/20/2016 02:10:00 0.0
2016_12_19_S2 12/20/2016 02:15:00 0.0
2016_12_19_S2 12/20/2016 02:20:00 0.0
2016_12_19_S2 12/20/2016 02:25:00 0.0
2016_12_19_S2 12/20/2016 02:30:00 0.0
2016_12_19_S2 12/20/2016 02:35:00 0.0
2016_12_19_S2 12/20/2016 02:40:00 0.0
2016_12_19_S2 12/20/2016 02:45:00 0.0
2016_12_19_S2 12/20/2016 02:50:00 0.0
2016_12_19_S2 12/20/2016 02:55:00 0.0
2016_12_19_S2 12/20/2016 03:00:00 0.0
2016_12_19_S2 12/20/2016 03:05:00 0.0
2016_12_19_S2 12/20/2016 03:10:00 0.0
2016_12_19_S2 12/20/2016 03:15:00 0.0
2016_12_19_S2 12/20/2016 03:20:00 0.0
2016_12_19_S2 12/20/2016 03:25:00 0.0
2016_12_19_S2 12/20/2016 03:30:00 0.0
2016_12_19_S2 12/20/2016 03:35:00 0.0
2016_12_19_S2 12/20/2016 03:40:00 0.0
2016_12_19_S2 12/20/2016 03:45:00 0.0
2016_12_19_S2 12/20/2016 03:50:00 0.0
2016_12_19_S2 12/20/2016 03:55:00 0.0
2016_12_19_S2 12/20/2016 04:00:00 0.0
2016_12_19_S2 12/20/2016 04:05:00 0.0
2016_12_19_S2 12/20/2016 04:10:00 0.0
2016_12_19_S2 12/20/2016 04:15:00 0.0
2016_12_19_S2 12/20/2016 04:20:00 0.0
2016_12_19_S2 12/20/2016 04:25:00 0.0
2016_12_19_S2 12/20/2016 04:30:00 0.0
2016_12_19_S2 12/20/2016 04:35:00 0.0
2016_12_19_S2 12/20/2016 04:40:00 0.0
2016_12_19_S2 12/20/2016 04:45:00 0.0
2016_12_19_S2 12/20/2016 04:50:00 0.0
2016_12_19_S2 12/20/2016 04:55:00 0.0
2016_12_19_S2 12/20/2016 05:00:00 0.0
2016_12_19_S2 12/20/2016 05:05:00 0.0
2016_12_19_S2 12/20/2016 05:10:00 0.0
2016_12_19_S2 12/20/2016 05:15:00 0.0
2016_12_19_S2 12/20/2016 05:20:00 0.0
2016_12_19_S2 12/20/2016 05:25:00 0.0
2016_12_19_S2 12/20/2016 05:30:00 0.0
2016_12_19_S2 12/20/2016 05:35:00 0.0
2016_12_19_S2 12/20/2016 05:40:00 0.0
2016_12_19_S2 12/20/2016 05:45:00 0.0
2016_12_19_S2 12/20/2016 05:50:00 0.0
2016_12_19_S2 12/20/2016 05:55:00 0.0
2016_12_19_S2 12/20/2016 06:00:00 0.0
2016_12_19_S2 12/20/2016 06:05:00 0.0
2016_12_19_S2 12/20/2016 06:10:00 0.0
2016_12_19_S2 12/20/2016 06:15:00 0.0
2016_12_19_S2 12/20/2016 06:20:00 0.0
2016_12_19_S2 12/20/2016 06:25:00 0.0
2016_12_19_S2 12/20/2016 06:30:00 0.0
2016_12_19_S2 12/20/2016 06:35:00 0.0
2016_12_19_S2 12/20/2016 06:40:00 0.0
2016_12_19_S2 12/20/2016 06:45:00 0.0
2016_12_19_S2 12/20/2016 06:50:00 0.0
2016_12_19_S2 12/20/2016 06:55:00 0.0
2016_12_19_S2 12/20/2016 07:00:00 0.0
2016_12_19_S2 12/20/2016 07:05:00 0.0
2016_12_19_S2 12/20/2016 07:10:00 0.0
2016_12_19_S2 12/20/2016 07:15:00 0.0
2016_12_19_S2 12/20/2016 07:20:00 0.0
2016_12_19_S2 12/20/2016 07:25:00 0.0
2016_12_19_S2 12/20/2016 07:30:00 0.0
2016_12_19_S2 12/20/2016 07:35:00 0.0
2016_12_19_S2 12/20/2016 07:40:00 0.0
2016_12_19_S2 12/20/2016 07:45:00 0.0
2016_12_19_S2 12/20/2016 07:50:00 0.0
2016_12_19_S2 12/20/2016 07:55:00 0.0
2016_12_19_S2 12/20/2016 08:00:00 0.0

2016_12_19_S3 12/19/2016 15:20:00 0.0668
2016_12_19_S3 12/19/2016 15:25:00 0.272
2016_12_19_S3 12/19/2016 15:30:00 0.041
2016_12_19_S3 12/19/2016 15:35:00 0.0
2016_12_19_S3 12/19/2016 15:40:00 0.0
2016_12_19_S3 12/19/2016 15:45:00 0.0099
2016_12_19_S3 12/19/2016 15:50:00 0.068
2016_12_19_S3 12/19/2016 15:55:00 1.2731
2016_12_19_S3 12/19/2016 16:00:00 0.4982
2016_12_19_S3 12/19/2016 16:05:00 2.2589
2016_12_19_S3 12/19/2016 16:10:00 5.3787
2016_12_19_S3 12/19/2016 16:15:00 6.1506
2016_12_19_S3 12/19/2016 16:20:00 3.7774
2016_12_19_S3 12/19/2016 16:25:00 2.3788
2016_12_19_S3 12/19/2016 16:30:00 0.5024
2016_12_19_S3 12/19/2016 16:35:00 0.2767
2016_12_19_S3 12/19/2016 16:40:00 0.4612
2016_12_19_S3 12/19/2016 16:45:00 0.1338
2016_12_19_S3 12/19/2016 16:50:00 0.0319
2016_12_19_S3 12/19/2016 16:55:00 0.0908
2016_12_19_S3 12/19/2016 17:00:00 0.0943
2016_12_19_S3 12/19/2016 17:05:00 0.1292
2016_12_19_S3 12/19/2016 17:10:00 0.1505
2016_12_19_S3 12/19/2016 17:15:00 0.2501
2016_12_19_S3 12/19/2016 17:20:00 0.3489
2016_12_19_S3 12/19/2016 17:25:00 0.2742
2016_12_19_S3 12/19/2016 17:30:00 0.1971
2016_12_19_S3 12/19/2016 17:35:00 0.0975
2016_12_19_S3 12/19/2016 17:40:00 0.1733
2016_12_19_S3 12/19/2016 17:45:00 0.0458
2016_12_19_S3 12/19/2016 17:50:00 0.0063
2016_12_19_S3 12/19/2016 17:55:00 0.0
2016_12_19_S3 12/19/2016 18:00:00 0.0
2016_12_19_S3 12/19/2016 18:05:00 0.0
2016_12_19_S3 12/19/2016 18:10:00 0.0
2016_12_19_S3 12/19/2016 18:15:00 0.0
2016_12_19_S3 12/19/2016 18:20:00 0.0
2016_12_19_S3 12/19/2016 18:25:00 0.0
2016_12_19_S3 12/19/2016 18:30:00 0.0
2016_12_19_S3 12/19/2016 18:35:00 0.0
2016_12_19_S3 12/19/2016 18:40:00 0.0
2016_12_19_S3 12/19/2016 18:45:00 0.0
2016_12_19_S3 12/19/2016 18:50:00 0.0
2016_12_19_S3 12/19/2016 18:55:00 0.0
2016_12_19_S3 12/19/2016 19:00:00 0.0
2016_12_19_S3 12/19/2016 19:05:00 0.0
2016_12_19_S3 12/19/2016 19:10:00 0.0
2016_12_19_S3 12/19/2016 19:15:00 0.0061
2016_12_19_S3 12/19/2016 19:20:00 0.0333
2016_12_19_S3 12/19/2016 19:25:00 0.0407
2016_12_19_S3 12/19/2016 19:30:00 0.0165
2016_12_19_S3 12/19/2016 19:35:00 0.0472
2016_12_19_S3 12/19/2016 19:40:00 0.0412
2016_12_19_S3 12/19/2016 19:45:00 0.0112
2016_12_19_S3 12/19/2016 19:50:00 0.0006
2016_12_19_S3 12/19/2016 19:55:00 0.0
2016_12_19_S3 12/19/2016 20:00:00 0.0035
2016_12_19_S3 12/19/2016 20:05:00 0.0
2016_12_19_S3 12/19/2016 20:10:00 0.0
2016_12_19_S3 12/19/2016 20:15:00 0.0
2016_12_19_S3 12/19/2016 20:20:00 0.0
2016_12_19_S3 12/19/2016 20:25:00 0.0
2016_12_19_S3 12/19/2016 20:30:00 0.0
2016_12_19_S3 12/19/2016 20:35:00 0.0
2016_12_19_S3 12/19/2016 20:40:00 0.0
2016_12_19_S3 12/19/2016 20:45:00 0.0
2016_12_19_S3 12/19/2016 20:50:00 0.0
2016_12_19_S3 12/19/2016 20:55:00 0.0
2016_12_19_S3 12/19/2016 21:00:00 0.0
2016_12_19_S3 12/19/2016 21:05:00 0.0
2016_12_19_S3 12/19/2016 21:10:00 0.0
2016_12_19_S3 12/19/2016 21:15:00 0.0
2016_12_19_S3 12/19/2016 21:20:00 0.0
2016_12_19_S3 12/19/2016 21:25:00 0.0
2016_12_19_S3 12/19/2016 21:30:00 0.0
2016_12_19_S3 12/19/2016 21:35:00 0.0
2016_12_19_S3 12/19/2016 21:40:00 0.0
2016_12_19_S3 12/19/2016 21:45:00 0.0
2016_12_19_S3 12/19/2016 21:50:00 0.0
2016_12_19_S3 12/19/2016 21:55:00 0.0
2016_12_19_S3 12/19/2016 22:00:00 0.0
2016_12_19_S3 12/19/2016 22:05:00 0.0
2016_12_19_S3 12/19/2016 22:10:00 0.0
2016_12_19_S3 12/19/2016 22:15:00 0.0
2016_12_19_S3 12/19/2016 22:20:00 0.0
2016_12_19_S3 12/19/2016 22:25:00 0.0
2016_12_19_S3 12/19/2016 22:30:00 0.0
2016_12_19_S3 12/19/2016 22:35:00 0.0
2016_12_19_S3 12/19/2016 22:40:00 0.0
2016_12_19_S3 12/19/2016 22:45:00 0.0
2016_12_19_S3 12/19/2016 22:50:00 0.0
2016_12_19_S3 12/19/2016 22:55:00 0.0
2016_12_19_S3 12/19/2016 23:00:00 0.0
2016_12_19_S3 12/19/2016 23:05:00 0.0
2016_12_19_S3 12/19/2016 23:10:00 0.0
2016_12_19_S3 12/19/2016 23:15:00 0.0
2016_12_19_S3 12/19/2016 23:20:00 0.0
2016_12_19_S3 12/19/2016 23:25:00 0.0
2016_12_19_S3 12/19/2016 23:30:00 0.0
2016_12_19_S3 12/19/2016 23:35:00 0.0
2016_12_19_S3 12/19/2016 23:40:00 0.0
2016_12_19_S3 12/19/2016 23:45:00 0.0
2016_12_19_S3 12/19/2016 23:50:00 0.0
2016_12_19_S3 12/19/2016 23:55:00 0.0
2016_12_19_S3 12/20/2016 00:00:00 0.0
2016_12_19_S3 12/20/2016 00:05:00 0.0
2016_12_19_S3 12/20/2016 00:10:00 0.0
2016_12_19_S3 12/20/2016 00:15:00 0.0
2016_12_19_S3 12/20/2016 00:20:00 0.0
2016_12_19_S3 12/20/2016 00:25:00 0.0
2016_12_19_S3 12/20/2016 00:30:00 0.0
2016_12_19_S3 12/20/2016 00:35:00 0.0
2016_12_19_S3 12/20/2016 00:40:00 0.0
2016_12_19_S3 12/20/2016 00:45:00 0.0
2016_12_19_S3 12/20/2016 00:50:00 0.0
2016_12_19_S3 12/20/2016 00:55:00 0.0
2016_12_19_S3 12/20/2016 01:00:00 0.0
2016_12_19_S3 12/20/2016 01:05:00 0.0
2016_12_19_S3 12/20/2016 01:10:00 0.0
2016_12_19_S3 12/20/2016 01:15:00 0.0
2016_12_19_S3 12/20/2016 01:20:00 0.0
2016_12_19_S3 12/20/2016 01:25:00 0.0
2016_12_19_S3 12/20/2016 01:30:00 0.0
2016_12_19_S3 12/20/2016 01:35:00 0.0
2016_12_19_S3 12/20/2016 01:40:00 0.0
2016_12_19_S3 12/20/2016 01:45:00 0.0
2016_12_19_S3 12/20/2016 01:50:00 0.0
2016_12_19_S3 12/20/2016 01:55:00 0.0
2016_12_19_S3 12/20/2016 02:00:00 0.0
2016_12_19_S3 12/20/2016 02:05:00 0.0
2016_12_19_S3 12/20/2016 02:10:00 0.0
2016_12_19_S3 12/20/2016 02:15:00 0.0
2016_12_19_S3 12/20/2016 02:20:00 0.0
2016_12_19_S3 12/20/2016 02:25:00 0.0
2016_12_19_S3 12/20/2016 02:30:00 0.0
2016_12_19_S3 12/20/2016 02:35:00 0.0
2016_12_19_S3 12/20/2016 02:40:00 0.0
2016_12_19_S3 12/20/2016 02:45:00 0.0
2016_12_19_S3 12/20/2016 02:50:00 0.0
2016_12_19_S3 12/20/2016 02:55:00 0.0
2016_12_19_S3 12/20/2016 03:00:00 0.0
2016_12_19_S3 12/20/2016 03:05:00 0.0
2016_12_19_S3 12/20/2016 03:10:00 0.0
2016_12_19_S3 12/20/2016 03:15:00 0.0
2016_12_19_S3 12/20/2016 03:20:00 0.0
2016_12_19_S3 12/20/2016 03:25:00 0.0
2016_12_19_S3 12/20/2016 03:30:00 0.0
2016_12_19_S3 12/20/2016 03:35:00 0.0
2016_12_19_S3 12/20/2016 03:40:00 0.0
2016_12_19_S3 12/20/2016 03:45:00 0.0
2016_12_19_S3 12/20/2016 03:50:00 0.0
2016_12_19_S3 12/20/2016 03:55:00 0.0
2016_12_19_S3 12/20/2016 04:00:00 0.0
2016_12_19_S3 12/20/2016 04:05:00 0.0
2016_12_19_S3 12/20/2016 04:10:00 0.0
2016_12_19_S3 12/20/2016 04:15:00 0.0
2016_12_19_S3 12/20/2016 04:20:00 0.0
2016_12_19_S3 12/20/2016 04:25:00 0.0
2016_12_19_S3 12/20/2016 04:30:00 0.0
2016_12_19_S3 12/20/2016 04:35:00 0.0
2016_12_19_S3 12/20/2016 04:40:00 0.0
2016_12_19_S3 12/20/2016 04:45:00 0.0
2016_12_19_S3 12/20/2016 04:50:00 0.0
2016_12_19_S3 12/20/2016 04:55:00 0.0
2016_12_19_S3 12/20/2016 05:00:00 0.0
2016_12_19_S3 12/20/2016 05:05:00 0.0
2016_12_19_S3 12/20/2016 05:10:00 0.0
2016_12_19_S3 12/20/2016 05:15:00 0.0
2016_12_19_S3 12/20/2016 05:20:00 0.0
2016_12_19_S3 12/20/2016 05:25:00 0.0
2016_12_19_S3 12/20/2016 05:30:00 0.0
2016_12_19_S3 12/20/2016 05:35:00 0.0
2016_12_19_S3 12/20/2016 05:40:00 0.0
2016_12_19_S3 12/20/2016 05:45:00 0.0
2016_12_19_S3 12/20/2016 05:50:00 0.0
2016_12_19_S3 12/20/2016 05:55:00 0.0
2016_12_19_S3 12/20/2016 06:00:00 0.0
2016_12_19_S3 12/20/2016 06:05:00 0.0
2016_12_19_S3 12/20/2016 06:10:00 0.0
2016_12_19_S3 12/20/2016 06:15:00 0.0
2016_12_19_S3 12/20/2016 06:20:00 0.0
2016_12_19_S3 12/20/2016 06:25:00 0.0
2016_12_19_S3 12/20/2016 06:30:00 0.0
2016_12_19_S3 12/20/2016 06:35:00 0.0
2016_12_19_S3 12/20/2016 06:40:00 0.0
2016_12_19_S3 12/20/2016 06:45:00 0.0
2016_12_19_S3 12/20/2016 06:50:00 0.0
2016_12_19_S3 12/20/2016 06:55:00 0.0
2016_12_19_S3 12/20/2016 07:00:00 0.0
2016_12_19_S3 12/20/2016 07:05:00 0.0
2016_12_19_S3 12/20/2016 07:10:00 0.0
2016_12_19_S3 12/20/2016 07:15:00 0.0
2016_12_19_S3 12/20/2016 07:20:00 0.0
2016_12_19_S3 12/20/2016 07:25:00 0.0
2016_12_19_S3 12/20/2016 07:30:00 0.0
2016_12_19_S3 12/20/2016 07:35:00 0.0
2016_12_19_S3 12/20/2016 07:40:00 0.0
2016_12_19_S3 12/20/2016 07:45:00 0.0
2016_12_19_S3 12/20/2016 07:50:00 0.0
2016_12_19_S3 12/20/2016 07:55:00 0.0
2016_12_19_S3 12/20/2016 08:00:00 0.0

2016_12_19_S4 12/19/2016 15:20:00 0.0793
2016_12_19_S4 12/19/2016 15:25:00 0.3072
2016_12_19_S4 12/19/2016 15:30:00 0.0542
2016_12_19_S4 12/19/2016 15:35:00 0.0
2016_12_19_S4 12/19/2016 15:40:00 0.0
2016_12_19_S4 12/19/2016 15:45:00 0.0096
2016_12_19_S4 12/19/2016 15:50:00 0.0827
2016_12_19_S4 12/19/2016 15:55:00 1.2563
2016_12_19_S4 12/19/2016 16:00:00 0.5707
2016_12_19_S4 12/19/2016 16:05:00 2.3418
2016_12_19_S4 12/19/2016 16:10:00 5.459
2016_12_19_S4 12/19/2016 16:15:00 5.329
2016_12_19_S4 12/19/2016 16:20:00 4.5204
2016_12_19_S4 12/19/2016 16:25:00 2.9141
2016_12_19_S4 12/19/2016 16:30:00 0.5047
2016_12_19_S4 12/19/2016 16:35:00 0.3874
2016_12_19_S4 12/19/2016 16:40:00 0.6396
2016_12_19_S4 12/19/2016 16:45:00 0.1177
2016_12_19_S4 12/19/2016 16:50:00 0.0353
2016_12_19_S4 12/19/2016 16:55:00 0.0896
2016_12_19_S4 12/19/2016 17:00:00 0.1052
2016_12_19_S4 12/19/2016 17:05:00 0.1087
2016_12_19_S4 12/19/2016 17:10:00 0.1177
2016_12_19_S4 12/19/2016 17:15:00 0.2076
2016_12_19_S4 12/19/2016 17:20:00 0.352
2016_12_19_S4 12/19/2016 17:25:00 0.274
2016_12_19_S4 12/19/2016 17:30:00 0.1964
2016_12_19_S4 12/19/2016 17:35:00 0.1089
2016_12_19_S4 12/19/2016 17:40:00 0.1612
2016_12_19_S4 12/19/2016 17:45:00 0.0451
2016_12_19_S4 12/19/2016 17:50:00 0.0055
2016_12_19_S4 12/19/2016 17:55:00 0.0
2016_12_19_S4 12/19/2016 18:00:00 0.0
2016_12_19_S4 12/19/2016 18:05:00 0.0
2016_12_19_S4 12/19/2016 18:10:00 0.0
2016_12_19_S4 12/19/2016 18:15:00 0.0
2016_12_19_S4 12/19/2016 18:20:00 0.0
2016_12_19_S4 12/19/2016 18:25:00 0.0
2016_12_19_S4 12/19/2016 18:30:00 0.0
2016_12_19_S4 12/19/2016 18:35:00 0.0
2016_12_19_S4 12/19/2016 18:40:00 0.0
2016_12_19_S4 12/19/2016 18:45:00 0.0
2016_12_19_S4 12/19/2016 18:50:00 0.0
2016_12_19_S4 12/19/2016 18:55:00 0.0
2016_12_19_S4 12/19/2016 19:00:00 0.0
2016_12_19_S4 12/19/2016 19:05:00 0.0
2016_12_19_S4 12/19/2016 19:10:00 0.0
2016_12_19_S4 12/19/2016 19:15:00 0.0049
2016_12_19_S4 12/19/2016 19:20:00 0.0436
2016_12_19_S4 12/19/2016 19:25:00 0.0409
2016_12_19_S4 12/19/2016 19:30:00 0.0162
2016_12_19_S4 12/19/2016 19:35:00 0.0381
2016_12_19_S4 12/19/2016 19:40:00 0.0451
2016_12_19_S4 12/19/2016 19:45:00 0.0095
2016_12_19_S4 12/19/2016 19:50:00 0.0001
2016_12_19_S4 12/19/2016 19:55:00 0.0
2016_12_19_S4 12/19/2016 20:00:00 0.0018
2016_12_19_S4 12/19/2016 20:05:00 0.0
2016_12_19_S4 12/19/2016 20:10:00 0.0
2016_12_19_S4 12/19/2016 20:15:00 0.0
2016_12_19_S4 12/19/2016 20:20:00 0.0
2016_12_19_S4 12/19/2016 20:25:00 0.0
2016_12_19_S4 12/19/2016 20:30:00 0.0
2016_12_19_S4 12/19/2016 20:35:00 0.0
2016_12_19_S4 12/19/2016 20:40:00 0.0
2016_12_19_S4 12/19/2016 20:45:00 0.0
2016_12_19_S4 12/19/2016 20:50:00 0.0
2016_12_19_S4 12/19/2016 20:55:00 0.0
2016_12_19_S4 12/19/2016 21:00:00 0.0
2016_12_19_S4 12/19/2016 21:05:00 0.0
2016_12_19_S4 12/19/2016 21:10:00 0.0
2016_12_19_S4 12/19/2016 21:15:00 0.0
2016_12_19_S4 12/19/2016 21:20:00 0.0
2016_12_19_S4 12/19/2016 21:25:00 0.0
2016_12_19_S4 12/19/2016 21:30:00 0.0
2016_12_19_S4 12/19/2016 21:35:00 0.0
2016_12_19_S4 12/19/2016 21:40:00 0.0
2016_12_19_S4 12/19/2016 21:45:00 0.0
2016_12_19_S4 12/19/2016 21:50:00 0.0
2016_12_19_S4 12/19/2016 21:55:00 0.0
2016_12_19_S4 12/19/2016 22:00:00 0.0
2016_12_19_S4 12/19/2016 22:05:00 0.0
2016_12_19_S4 12/19/2016 22:10:00 0.0
2016_12_19_S4 12/19/2016 22:15:00 0.0
2016_12_19_S4 12/19/2016 22:20:00 0.0
2016_12_19_S4 12/19/2016 22:25:00 0.0
2016_12_19_S4 12/19/2016 22:30:00 0.0
2016_12_19_S4 12/19/2016 22:35:00 0.0
2016_12_19_S4 12/19/2016 22:40:00 0.0
2016_12_19_S4 12/19/2016 22:45:00 0.0
2016_12_19_S4 12/19/2016 22:50:00 0.0
2016_12_19_S4 12/19/2016 22:55:00 0.0
2016_12_19_S4 12/19/2016 23:00:00 0.0
2016_12_19_S4 12/19/2016 23:05:00 0.0
2016_12_19_S4 12/19/2016 23:10:00 0.0
2016_12_19_S4 12/19/2016 23:15:00 0.0
2016_12_19_S4 12/19/2016 23:20:00 0.0
2016_12_19_S4 12/19/2016 23:25:00 0.0
2016_12_19_S4 12/19/2016 23:30:00 0.0
2016_12_19_S4 12/19/2016 23:35:00 0.0
2016_12_19_S4 12/19/2016 23:40:00 0.0
2016_12_19_S4 12/19/2016 23:45:00 0.0
2016_12_19_S4 12/19/2016 23:50:00 0.0
2016_12_19_S4 12/19/2016 23:55:00 0.0
2016_12_19_S4 12/20/2016 00:00:00 0.0
2016_12_19_S4 12/20/2016 00:05:00 0.0
2016_12_19_S4 12/20/2016 00:10:00 0.0
2016_12_19_S4 12/20/2016 00:15:00 0.0
2016_12_19_S4 12/20/2016 00:20:00 0.0
2016_12_19_S4 12/20/2016 00:25:00 0.0
2016_12_19_S4 12/20/2016 00:30:00 0.0
2016_12_19_S4 12/20/2016 00:35:00 0.0
2016_12_19_S4 12/20/2016 00:40:00 0.0
2016_12_19_S4 12/20/2016 00:45:00 0.0
2016_12_19_S4 12/20/2016 00:50:00 0.0
2016_12_19_S4 12/20/2016 00:55:00 0.0
2016_12_19_S4 12/20/2016 01:00:00 0.0
2016_12_19_S4 12/20/2016 01:05:00 0.0
2016_12_19_S4 12/20/2016 01:10:00 0.0
2016_12_19_S4 12/20/2016 01:15:00 0.0
2016_12_19_S4 12/20/2016 01:20:00 0.0
2016_12_19_S4 12/20/2016 01:25:00 0.0
2016_12_19_S4 12/20/2016 01:30:00 0.0
2016_12_19_S4 12/20/2016 01:35:00 0.0
2016_12_19_S4 12/20/2016 01:40:00 0.0
2016_12_19_S4 12/20/2016 01:45:00 0.0
2016_12_19_S4 12/20/2016 01:50:00 0.0
2016_12_19_S4 12/20/2016 01:55:00 0.0
2016_12_19_S4 12/20/2016 02:00:00 0.0
2016_12_19_S4 12/20/2016 02:05:00 0.0
2016_12_19_S4 12/20/2016 02:10:00 0.0
2016_12_19_S4 12/20/2016 02:15:00 0.0
2016_12_19_S4 12/20/2016 02:20:00 0.0
2016_12_19_S4 12/20/2016 02:25:00 0.0
2016_12_19_S4 12/20/2016 02:30:00 0.0
2016_12_19_S4 12/20/2016 02:35:00 0.0
2016_12_19_S4 12/20/2016 02:40:00 0.0
2016_12_19_S4 12/20/2016 02:45:00 0.0
2016_12_19_S4 12/20/2016 02:50:00 0.0
2016_12_19_S4 12/20/2016 02:55:00 0.0
2016_12_19_S4 12/20/2016 03:00:00 0.0
2016_12_19_S4 12/20/2016 03:05:00 0.0
2016_12_19_S4 12/20/2016 03:10:00 0.0
2016_12_19_S4 12/20/2016 03:15:00 0.0
2016_12_19_S4 12/20/2016 03:20:00 0.0
2016_12_19_S4 12/20/2016 03:25:00 0.0
2016_12_19_S4 12/20/2016 03:30:00 0.0
2016_12_19_S4 12/20/2016 03:35:00 0.0
2016_12_19_S4 12/20/2016 03:40:00 0.0
2016_12_19_S4 12/20/2016 03:45:00 0.0
2016_12_19_S4 12/20/2016 03:50:00 0.0
2016_12_19_S4 12/20/2016 03:55:00 0.0
2016_12_19_S4 12/20/2016 04:00:00 0.0
2016_12_19_S4 12/20/2016 04:05:00 0.0
2016_12_19_S4 12/20/2016 04:10:00 0.0
2016_12_19_S4 12/20/2016 04:15:00 0.0
2016_12_19_S4 12/20/2016 04:20:00 0.0
2016_12_19_S4 12/20/2016 04:25:00 0.0
2016_12_19_S4 12/20/2016 04:30:00 0.0
2016_12_19_S4 12/20/2016 04:35:00 0.0
2016_12_19_S4 12/20/2016 04:40:00 0.0
2016_12_19_S4 12/20/2016 04:45:00 0.0
2016_12_19_S4 12/20/2016 04:50:00 0.0
2016_12_19_S4 12/20/2016 04:55:00 0.0
2016_12_19_S4 12/20/2016 05:00:00 0.0
2016_12_19_S4 12/20/2016 05:05:00 0.0
2016_12_19_S4 12/20/2016 05:10:00 0.0
2016_12_19_S4 12/20/2016 05:15:00 0.0
2016_12_19_S4 12/20/2016 05:20:00 0.0
2016_12_19_S4 12/20/2016 05:25:00 0.0
2016_12_19_S4 12/20/2016 05:30:00 0.0
2016_12_19_S4 12/20/2016 05:35:00 0.0
2016_12_19_S4 12/20/2016 05:40:00 0.0
2016_12_19_S4 12/20/2016 05:45:00 0.0
2016_12_19_S4 12/20/2016 05:50:00 0.0
2016_12_19_S4 12/20/2016 05:55:00 0.0
2016_12_19_S4 12/20/2016 06:00:00 0.0
2016_12_19_S4 12/20/2016 06:05:00 0.0
2016_12_19_S4 12/20/2016 06:10:00 0.0
2016_12_19_S4 12/20/2016 06:15:00 0.0
2016_12_19_S4 12/20/2016 06:20:00 0.0
2016_12_19_S4 12/20/2016 06:25:00 0.0
2016_12_19_S4 12/20/2016 06:30:00 0.0
2016_12_19_S4 12/20/2016 06:35:00 0.0
2016_12_19_S4 12/20/2016 06:40:00 0.0
2016_12_19_S4 12/20/2016 06:45:00 0.0
2016_12_19_S4 12/20/2016 06:50:00 0.0
2016_12_19_S4 12/20/2016 06:55:00 0.0
2016_12_19_S4 12/20/2016 07:00:00 0.0
2016_12_19_S4 12/20/2016 07:05:00 0.0
2016_12_19_S4 12/20/2016 07:10:00 0.0
2016_12_19_S4 12/20/2016 07:15:00 0.0
2016_12_19_S4 12/20/2016 07:20:00 0.0
2016_12_19_S4 12/20/2016 07:25:00 0.0
2016_12_19_S4 12/20/2016 07:30:00 0.0
2016_12_19_S4 12/20/2016 07:35:00 0.0
2016_12_19_S4 12/20/2016 07:40:00 0.0
2016_12_19_S4 12/20/2016 07:45:00 0.0
2016_12_19_S4 12/20/2016 07:50:00 0.0
2016_12_19_S4 12/20/2016 07:55:00 0.0
2016_12_19_S4 12/20/2016 08:00:00 0.0

2016_12_19_S5 12/19/2016 15:20:00 0.0878
2016_12_19_S5 12/19/2016 15:25:00 0.2951
2016_12_19_S5 12/19/2016 15:30:00 0.0619
2016_12_19_S5 12/19/2016 15:35:00 0.0
2016_12_19_S5 12/19/2016 15:40:00 0.0
2016_12_19_S5 12/19/2016 15:45:00 0.0155
2016_12_19_S5 12/19/2016 15:50:00 0.0984
2016_12_19_S5 12/19/2016 15:55:00 1.3673
2016_12_19_S5 12/19/2016 16:00:00 0.5792
2016_12_19_S5 12/19/2016 16:05:00 2.6304
2016_12_19_S5 12/19/2016 16:10:00 5.4376
2016_12_19_S5 12/19/2016 16:15:00 4.6705
2016_12_19_S5 12/19/2016 16:20:00 5.1338
2016_12_19_S5 12/19/2016 16:25:00 3.4005
2016_12_19_S5 12/19/2016 16:30:00 0.5887
2016_12_19_S5 12/19/2016 16:35:00 0.4232
2016_12_19_S5 12/19/2016 16:40:00 0.7393
2016_12_19_S5 12/19/2016 16:45:00 0.1279
2016_12_19_S5 12/19/2016 16:50:00 0.0402
2016_12_19_S5 12/19/2016 16:55:00 0.0907
2016_12_19_S5 12/19/2016 17:00:00 0.1134
2016_12_19_S5 12/19/2016 17:05:00 0.1094
2016_12_19_S5 12/19/2016 17:10:00 0.1079
2016_12_19_S5 12/19/2016 17:15:00 0.2311
2016_12_19_S5 12/19/2016 17:20:00 0.3424
2016_12_19_S5 12/19/2016 17:25:00 0.285
2016_12_19_S5 12/19/2016 17:30:00 0.196
2016_12_19_S5 12/19/2016 17:35:00 0.1135
2016_12_19_S5 12/19/2016 17:40:00 0.164
2016_12_19_S5 12/19/2016 17:45:00 0.0464
2016_12_19_S5 12/19/2016 17:50:00 0.0055
2016_12_19_S5 12/19/2016 17:55:00 0.0
2016_12_19_S5 12/19/2016 18:00:00 0.0
2016_12_19_S5 12/19/2016 18:05:00 0.0
2016_12_19_S5 12/19/2016 18:10:00 0.0
2016_12_19_S5 12/19/2016 18:15:00 0.0
2016_12_19_S5 12/19/2016 18:20:00 0.0
2016_12_19_S5 12/19/2016 18:25:00 0.0
2016_12_19_S5 12/19/2016 18:30:00 0.0
2016_12_19_S5 12/19/2016 18:35:00 0.0
2016_12_19_S5 12/19/2016 18:40:00 0.0
2016_12_19_S5 12/19/2016 18:45:00 0.0
2016_12_19_S5 12/19/2016 18:50:00 0.0
2016_12_19_S5 12/19/2016 18:55:00 0.0
2016_12_19_S5 12/19/2016 19:00:00 0.0
2016_12_19_S5 12/19/2016 19:05:00 0.0
2016_12_19_S5 12/19/2016 19:10:00 0.0
2016_12_19_S5 12/19/2016 19:15:00 0.0046
2016_12_19_S5 12/19/2016 19:20:00 0.0381
2016_12_19_S5 12/19/2016 19:25:00 0.0428
2016_12_19_S5 12/19/2016 19:30:00 0.0157
2016_12_19_S5 12/19/2016 19:35:00 0.0375
2016_12_19_S5 12/19/2016 19:40:00 0.0517
2016_12_19_S5 12/19/2016 19:45:00 0.0098
2016_12_19_S5 12/19/2016 19:50:00 0.0
2016_12_19_S5 12/19/2016 19:55:00 0.0
2016_12_19_S5 12/19/2016 20:00:00 0.0021
2016_12_19_S5 12/19/2016 20:05:00 0.0
2016_12_19_S5 12/19/2016 20:10:00 0.0
2016_12_19_S5 12/19/2016 20:15:00 0.0
2016_12_19_S5 12/19/2016 20:20:00 0.0
2016_12_19_S5 12/19/2016 20:25:00 0.0
2016_12_19_S5 12/19/2016 20:30:00 0.0
2016_12_19_S5 12/19/2016 20:35:00 0.0
2016_12_19_S5 12/19/2016 20:40:00 0.0
2016_12_19_S5 12/19/2016 20:45:00 0.0
2016_12_19_S5 12/19/2016 20:50:00 0.0
2016_12_19_S5 12/19/2016 20:55:00 0.0
2016_12_19_S5 12/19/2016 21:00:00 0.0
2016_12_19_S5 12/19/2016 21:05:00 0.0
2016_12_19_S5 12/19/2016 21:10:00 0.0
2016_12_19_S5 12/19/2016 21:15:00 0.0
2016_12_19_S5 12/19/2016 21:20:00 0.0
2016_12_19_S5 12/19/2016 21:25:00 0.0
2016_12_19_S5 12/19/2016 21:30:00 0.0
2016_12_19_S5 12/19/2016 21:35:00 0.0
2016_12_19_S5 12/19/2016 21:40:00 0.0
2016_12_19_S5 12/19/2016 21:45:00 0.0
2016_12_19_S5 12/19/2016 21:50:00 0.0
2016_12_19_S5 12/19/2016 21:55:00 0.0
2016_12_19_S5 12/19/2016 22:00:00 0.0
2016_12_19_S5 12/19/2016 22:05:00 0.0
2016_12_19_S5 12/19/2016 22:10:00 0.0
2016_12_19_S5 12/19/2016 22:15:00 0.0
2016_12_19_S5 12/19/2016 22:20:00 0.0
2016_12_19_S5 12/19/2016 22:25:00 0.0
2016_12_19_S5 12/19/2016 22:30:00 0.0
2016_12_19_S5 12/19/2016 22:35:00 0.0
2016_12_19_S5 12/19/2016 22:40:00 0.0
2016_12_19_S5 12/19/2016 22:45:00 0.0
2016_12_19_S5 12/19/2016 22:50:00 0.0
2016_12_19_S5 12/19/2016 22:55:00 0.0
2016_12_19_S5 12/19/2016 23:00:00 0.0
2016_12_19_S5 12/19/2016 23:05:00 0.0
2016_12_19_S5 12/19/2016 23:10:00 0.0
2016_12_19_S5 12/19/2016 23:15:00 0.0
2016_12_19_S5 12/19/2016 23:20:00 0.0
2016_12_19_S5 12/19/2016 23:25:00 0.0
2016_12_19_S5 12/19/2016 23:30:00 0.0
2016_12_19_S5 12/19/2016 23:35:00 0.0
2016_12_19_S5 12/19/2016 23:40:00 0.0
2016_12_19_S5 12/19/2016 23:45:00 0.0
2016_12_19_S5 12/19/2016 23:50:00 0.0
2016_12_19_S5 12/19/2016 23:55:00 0.0
2016_12_19_S5 12/20/2016 00:00:00 0.0
2016_12_19_S5 12/20/2016 00:05:00 0.0
2016_12_19_S5 12/20/2016 00:10:00 0.0
2016_12_19_S5 12/20/2016 00:15:00 0.0
2016_12_19_S5 12/20/2016 00:20:00 0.0
2016_12_19_S5 12/20/2016 00:25:00 0.0
2016_12_19_S5 12/20/2016 00:30:00 0.0
2016_12_19_S5 12/20/2016 00:35:00 0.0
2016_12_19_S5 12/20/2016 00:40:00 0.0
2016_12_19_S5 12/20/2016 00:45:00 0.0
2016_12_19_S5 12/20/2016 00:50:00 0.0
2016_12_19_S5 12/20/2016 00:55:00 0.0
2016_12_19_S5 12/20/2016 01:00:00 0.0
2016_12_19_S5 12/20/2016 01:05:00 0.0
2016_12_19_S5 12/20/2016 01:10:00 0.0
2016_12_19_S5 12/20/2016 01:15:00 0.0
2016_12_19_S5 12/20/2016 01:20:00 0.0
2016_12_19_S5 12/20/2016 01:25:00 0.0
2016_12_19_S5 12/20/2016 01:30:00 0.0
2016_12_19_S5 12/20/2016 01:35:00 0.0
2016_12_19_S5 12/20/2016 01:40:00 0.0
2016_12_19_S5 12/20/2016 01:45:00 0.0
2016_12_19_S5 12/20/2016 01:50:00 0.0
2016_12_19_S5 12/20/2016 01:55:00 0.0
2016_12_19_S5 12/20/2016 02:00:00 0.0
2016_12_19_S5 12/20/2016 02:05:00 0.0
2016_12_19_S5 12/20/2016 02:10:00 0.0
2016_12_19_S5 12/20/2016 02:15:00 0.0
2016_12_19_S5 12/20/2016 02:20:00 0.0
2016_12_19_S5 12/20/2016 02:25:00 0.0
2016_12_19_S5 12/20/2016 02:30:00 0.0
2016_12_19_S5 12/20/2016 02:35:00 0.0
2016_12_19_S5 12/20/2016 02:40:00 0.0
2016_12_19_S5 12/20/2016 02:45:00 0.0
2016_12_19_S5 12/20/2016 02:50:00 0.0
2016_12_19_S5 12/20/2016 02:55:00 0.0
2016_12_19_S5 12/20/2016 03:00:00 0.0
2016_12_19_S5 12/20/2016 03:05:00 0.0
2016_12_19_S5 12/20/2016 03:10:00 0.0
2016_12_19_S5 12/20/2016 03:15:00 0.0
2016_12_19_S5 12/20/2016 03:20:00 0.0
2016_12_19_S5 12/20/2016 03:25:00 0.0
2016_12_19_S5 12/20/2016 03:30:00 0.0
2016_12_19_S5 12/20/2016 03:35:00 0.0
2016_12_19_S5 12/20/2016 03:40:00 0.0
2016_12_19_S5 12/20/2016 03:45:00 0.0
2016_12_19_S5 12/20/2016 03:50:00 0.0
2016_12_19_S5 12/20/2016 03:55:00 0.0
2016_12_19_S5 12/20/2016 04:00:00 0.0
2016_12_19_S5 12/20/2016 04:05:00 0.0
2016_12_19_S5 12/20/2016 04:10:00 0.0
2016_12_19_S5 12/20/2016 04:15:00 0.0
2016_12_19_S5 12/20/2016 04:20:00 0.0
2016_12_19_S5 12/20/2016 04:25:00 0.0
2016_12_19_S5 12/20/2016 04:30:00 0.0
2016_12_19_S5 12/20/2016 04:35:00 0.0
2016_12_19_S5 12/20/2016 04:40:00 0.0
2016_12_19_S5 12/20/2016 04:45:00 0.0
2016_12_19_S5 12/20/2016 04:50:00 0.0
2016_12_19_S5 12/20/2016 04:55:00 0.0
2016_12_19_S5 12/20/2016 05:00:00 0.0
2016_12_19_S5 12/20/2016 05:05:00 0.0
2016_12_19_S5 12/20/2016 05:10:00 0.0
2016_12_19_S5 12/20/2016 05:15:00 0.0
2016_12_19_S5 12/20/2016 05:20:00 0.0
2016_12_19_S5 12/20/2016 05:25:00 0.0
2016_12_19_S5 12/20/2016 05:30:00 0.0
2016_12_19_S5 12/20/2016 05:35:00 0.0
2016_12_19_S5 12/20/2016 05:40:00 0.0
2016_12_19_S5 12/20/2016 05:45:00 0.0
2016_12_19_S5 12/20/2016 05:50:00 0.0
2016_12_19_S5 12/20/2016 05:55:00 0.0
2016_12_19_S5 12/20/2016 06:00:00 0.0
2016_12_19_S5 12/20/2016 06:05:00 0.0
2016_12_19_S5 12/20/2016 06:10:00 0.0
2016_12_19_S5 12/20/2016 06:15:00 0.0
2016_12_19_S5 12/20/2016 06:20:00 0.0
2016_12_19_S5 12/20/2016 06:25:00 0.0
2016_12_19_S5 12/20/2016 06:30:00 0.0
2016_12_19_S5 12/20/2016 06:35:00 0.0
2016_12_19_S5 12/20/2016 06:40:00 0.0
2016_12_19_S5 12/20/2016 06:45:00 0.0
2016_12_19_S5 12/20/2016 06:50:00 0.0
2016_12_19_S5 12/20/2016 06:55:00 0.0
2016_12_19_S5 12/20/2016 07:00:00 0.0
2016_12_19_S5 12/20/2016 07:05:00 0.0
2016_12_19_S5 12/20/2016 07:10:00 0.0
2016_12_19_S5 12/20/2016 07:15:00 0.0
2016_12_19_S5 12/20/2016 07:20:00 0.0
2016_12_19_S5 12/20/2016 07:25:00 0.0
2016_12_19_S5 12/20/2016 07:30:00 0.0
2016_12_19_S5 12/20/2016 07:35:00 0.0
2016_12_19_S5 12/20/2016 07:40:00 0.0
2016_12_19_S5 12/20/2016 07:45:00 0.0
2016_12_19_S5 12/20/2016 07:50:00 0.0
2016_12_19_S5 12/20/2016 07:55:00 0.0
2016_12_19_S5 12/20/2016 08:00:00 0.0

2016_12_19_S6 12/19/2016 15:20:00 0.1624
2016_12_19_S6 12/19/2016 15:25:00 0.4733
2016_12_19_S6 12/19/2016 15:30:00 0.0241
2016_12_19_S6 12/19/2016 15:35:00 0.0
2016_12_19_S6 12/19/2016 15:40:00 0.0
2016_12_19_S6 12/19/2016 15:45:00 0.0542
2016_12_19_S6 12/19/2016 15:50:00 0.1146
2016_12_19_S6 12/19/2016 15:55:00 1.1119
2016_12_19_S6 12/19/2016 16:00:00 0.6288
2016_12_19_S6 12/19/2016 16:05:00 4.7319
2016_12_19_S6 12/19/2016 16:10:00 5.4384
2016_12_19_S6 12/19/2016 16:15:00 6.8017
2016_12_19_S6 12/19/2016 16:20:00 4.979
2016_12_19_S6 12/19/2016 16:25:00 2.3011
2016_12_19_S6 12/19/2016 16:30:00 0.5769
2016_12_19_S6 12/19/2016 16:35:00 0.5043
2016_12_19_S6 12/19/2016 16:40:00 0.5617
2016_12_19_S6 12/19/2016 16:45:00 0.0846
2016_12_19_S6 12/19/2016 16:50:00 0.0318
2016_12_19_S6 12/19/2016 16:55:00 0.0809
2016_12_19_S6 12/19/2016 17:00:00 0.0926
2016_12_19_S6 12/19/2016 17:05:00 0.0679
2016_12_19_S6 12/19/2016 17:10:00 0.1303
2016_12_19_S6 12/19/2016 17:15:00 0.2733
2016_12_19_S6 12/19/2016 17:20:00 0.3633
2016_12_19_S6 12/19/2016 17:25:00 0.3125
2016_12_19_S6 12/19/2016 17:30:00 0.1891
2016_12_19_S6 12/19/2016 17:35:00 0.1415
2016_12_19_S6 12/19/2016 17:40:00 0.1396
2016_12_19_S6 12/19/2016 17:45:00 0.0309
2016_12_19_S6 12/19/2016 17:50:00 0.0048
2016_12_19_S6 12/19/2016 17:55:00 0.0
2016_12_19_S6 12/19/2016 18:00:00 0.0
2016_12_19_S6 12/19/2016 18:05:00 0.0
2016_12_19_S6 12/19/2016 18:10:00 0.0
2016_12_19_S6 12/19/2016 18:15:00 0.0
2016_12_19_S6 12/19/2016 18:20:00 0.0
2016_12_19_S6 12/19/2016 18:25:00 0.0
2016_12_19_S6 12/19/2016 18:30:00 0.0
2016_12_19_S6 12/19/2016 18:35:00 0.0
2016_12_19_S6 12/19/2016 18:40:00 0.0
2016_12_19_S6 12/19/2016 18:45:00 0.0
2016_12_19_S6 12/19/2016 18:50:00 0.0
2016_12_19_S6 12/19/2016 18:55:00 0.0
2016_12_19_S6 12/19/2016 19:00:00 0.0
2016_12_19_S6 12/19/2016 19:05:00 0.0
2016_12_19_S6 12/19/2016 19:10:00 0.0
2016_12_19_S6 12/19/2016 19:15:00 0.008
2016_12_19_S6 12/19/2016 19:20:00 0.0668
2016_12_19_S6 12/19/2016 19:25:00 0.0405
2016_12_19_S6 12/19/2016 19:30:00 0.0188
2016_12_19_S6 12/19/2016 19:35:00 0.0343
2016_12_19_S6 12/19/2016 19:40:00 0.0448
2016_12_19_S6 12/19/2016 19:45:00 0.007
2016_12_19_S6 12/19/2016 19:50:00 0.0
2016_12_19_S6 12/19/2016 19:55:00 0.0
2016_12_19_S6 12/19/2016 20:00:00 0.0
2016_12_19_S6 12/19/2016 20:05:00 0.0
2016_12_19_S6 12/19/2016 20:10:00 0.0
2016_12_19_S6 12/19/2016 20:15:00 0.0
2016_12_19_S6 12/19/2016 20:20:00 0.0
2016_12_19_S6 12/19/2016 20:25:00 0.0
2016_12_19_S6 12/19/2016 20:30:00 0.0
2016_12_19_S6 12/19/2016 20:35:00 0.0
2016_12_19_S6 12/19/2016 20:40:00 0.0
2016_12_19_S6 12/19/2016 20:45:00 0.0
2016_12_19_S6 12/19/2016 20:50:00 0.0
2016_12_19_S6 12/19/2016 20:55:00 0.0
2016_12_19_S6 12/19/2016 21:00:00 0.0
2016_12_19_S6 12/19/2016 21:05:00 0.0
2016_12_19_S6 12/19/2016 21:10:00 0.0
2016_12_19_S6 12/19/2016 21:15:00 0.0
2016_12_19_S6 12/19/2016 21:20:00 0.0
2016_12_19_S6 12/19/2016 21:25:00 0.0
2016_12_19_S6 12/19/2016 21:30:00 0.0
2016_12_19_S6 12/19/2016 21:35:00 0.0
2016_12_19_S6 12/19/2016 21:40:00 0.0
2016_12_19_S6 12/19/2016 21:45:00 0.0
2016_12_19_S6 12/19/2016 21:50:00 0.0
2016_12_19_S6 12/19/2016 21:55:00 0.0
2016_12_19_S6 12/19/2016 22:00:00 0.0
2016_12_19_S6 12/19/2016 22:05:00 0.0
2016_12_19_S6 12/19/2016 22:10:00 0.0
2016_12_19_S6 12/19/2016 22:15:00 0.0
2016_12_19_S6 12/19/2016 22:20:00 0.0
2016_12_19_S6 12/19/2016 22:25:00 0.0
2016_12_19_S6 12/19/2016 22:30:00 0.0
2016_12_19_S6 12/19/2016 22:35:00 0.0
2016_12_19_S6 12/19/2016 22:40:00 0.0
2016_12_19_S6 12/19/2016 22:45:00 0.0
2016_12_19_S6 12/19/2016 22:50:00 0.0
2016_12_19_S6 12/19/2016 22:55:00 0.0
2016_12_19_S6 12/19/2016 23:00:00 0.0
2016_12_19_S6 12/19/2016 23:05:00 0.0
2016_12_19_S6 12/19/2016 23:10:00 0.0
2016_12_19_S6 12/19/2016 23:15:00 0.0
2016_12_19_S6 12/19/2016 23:20:00 0.0
2016_12_19_S6 12/19/2016 23:25:00 0.0
2016_12_19_S6 12/19/2016 23:30:00 0.0
2016_12_19_S6 12/19/2016 23:35:00 0.0
2016_12_19_S6 12/19/2016 23:40:00 0.0
2016_12_19_S6 12/19/2016 23:45:00 0.0
2016_12_19_S6 12/19/2016 23:50:00 0.0
2016_12_19_S6 12/19/2016 23:55:00 0.0
2016_12_19_S6 12/20/2016 00:00:00 0.0
2016_12_19_S6 12/20/2016 00:05:00 0.0
2016_12_19_S6 12/20/2016 00:10:00 0.0
2016_12_19_S6 12/20/2016 00:15:00 0.0
2016_12_19_S6 12/20/2016 00:20:00 0.0
2016_12_19_S6 12/20/2016 00:25:00 0.0
2016_12_19_S6 12/20/2016 00:30:00 0.0
2016_12_19_S6 12/20/2016 00:35:00 0.0
2016_12_19_S6 12/20/2016 00:40:00 0.0
2016_12_19_S6 12/20/2016 00:45:00 0.0
2016_12_19_S6 12/20/2016 00:50:00 0.0
2016_12_19_S6 12/20/2016 00:55:00 0.0
2016_12_19_S6 12/20/2016 01:00:00 0.0
2016_12_19_S6 12/20/2016 01:05:00 0.0
2016_12_19_S6 12/20/2016 01:10:00 0.0
2016_12_19_S6 12/20/2016 01:15:00 0.0
2016_12_19_S6 12/20/2016 01:20:00 0.0
2016_12_19_S6 12/20/2016 01:25:00 0.0
2016_12_19_S6 12/20/2016 01:30:00 0.0
2016_12_19_S6 12/20/2016 01:35:00 0.0
2016_12_19_S6 12/20/2016 01:40:00 0.0
2016_12_19_S6 12/20/2016 01:45:00 0.0
2016_12_19_S6 12/20/2016 01:50:00 0.0
2016_12_19_S6 12/20/2016 01:55:00 0.0
2016_12_19_S6 12/20/2016 02:00:00 0.0
2016_12_19_S6 12/20/2016 02:05:00 0.0
2016_12_19_S6 12/20/2016 02:10:00 0.0
2016_12_19_S6 12/20/2016 02:15:00 0.0
2016_12_19_S6 12/20/2016 02:20:00 0.0
2016_12_19_S6 12/20/2016 02:25:00 0.0
2016_12_19_S6 12/20/2016 02:30:00 0.0
2016_12_19_S6 12/20/2016 02:35:00 0.0
2016_12_19_S6 12/20/2016 02:40:00 0.0
2016_12_19_S6 12/20/2016 02:45:00 0.0
2016_12_19_S6 12/20/2016 02:50:00 0.0
2016_12_19_S6 12/20/2016 02:55:00 0.0
2016_12_19_S6 12/20/2016 03:00:00 0.0
2016_12_19_S6 12/20/2016 03:05:00 0.0
2016_12_19_S6 12/20/2016 03:10:00 0.0
2016_12_19_S6 12/20/2016 03:15:00 0.0
2016_12_19_S6 12/20/2016 03:20:00 0.0
2016_12_19_S6 12/20/2016 03:25:00 0.0
2016_12_19_S6 12/20/2016 03:30:00 0.0
2016_12_19_S6 12/20/2016 03:35:00 0.0
2016_12_19_S6 12/20/2016 03:40:00 0.0
2016_12_19_S6 12/20/2016 03:45:00 0.0
2016_12_19_S6 12/20/2016 03:50:00 0.0
2016_12_19_S6 12/20/2016 03:55:00 0.0
2016_12_19_S6 12/20/2016 04:00:00 0.0
2016_12_19_S6 12/20/2016 04:05:00 0.0
2016_12_19_S6 12/20/2016 04:10:00 0.0
2016_12_19_S6 12/20/2016 04:15:00 0.0
2016_12_19_S6 12/20/2016 04:20:00 0.0
2016_12_19_S6 12/20/2016 04:25:00 0.0
2016_12_19_S6 12/20/2016 04:30:00 0.0
2016_12_19_S6 12/20/2016 04:35:00 0.0
2016_12_19_S6 12/20/2016 04:40:00 0.0
2016_12_19_S6 12/20/2016 04:45:00 0.0
2016_12_19_S6 12/20/2016 04:50:00 0.0
2016_12_19_S6 12/20/2016 04:55:00 0.0
2016_12_19_S6 12/20/2016 05:00:00 0.0
2016_12_19_S6 12/20/2016 05:05:00 0.0
2016_12_19_S6 12/20/2016 05:10:00 0.0
2016_12_19_S6 12/20/2016 05:15:00 0.0
2016_12_19_S6 12/20/2016 05:20:00 0.0
2016_12_19_S6 12/20/2016 05:25:00 0.0
2016_12_19_S6 12/20/2016 05:30:00 0.0
2016_12_19_S6 12/20/2016 05:35:00 0.0
2016_12_19_S6 12/20/2016 05:40:00 0.0
2016_12_19_S6 12/20/2016 05:45:00 0.0
2016_12_19_S6 12/20/2016 05:50:00 0.0
2016_12_19_S6 12/20/2016 05:55:00 0.0
2016_12_19_S6 12/20/2016 06:00:00 0.0
2016_12_19_S6 12/20/2016 06:05:00 0.0
2016_12_19_S6 12/20/2016 06:10:00 0.0
2016_12_19_S6 12/20/2016 06:15:00 0.0
2016_12_19_S6 12/20/2016 06:20:00 0.0
2016_12_19_S6 12/20/2016 06:25:00 0.0
2016_12_19_S6 12/20/2016 06:30:00 0.0
2016_12_19_S6 12/20/2016 06:35:00 0.0
2016_12_19_S6 12/20/2016 06:40:00 0.0
2016_12_19_S6 12/20/2016 06:45:00 0.0
2016_12_19_S6 12/20/2016 06:50:00 0.0
2016_12_19_S6 12/20/2016 06:55:00 0.0
2016_12_19_S6 12/20/2016 07:00:00 0.0
2016_12_19_S6 12/20/2016 07:05:00 0.0
2016_12_19_S6 12/20/2016 07:10:00 0.0
2016_12_19_S6 12/20/2016 07:15:00 0.0
2016_12_19_S6 12/20/2016 07:20:00 0.0
2016_12_19_S6 12/20/2016 07:25:00 0.0
2016_12_19_S6 12/20/2016 07:30:00 0.0
2016_12_19_S6 12/20/2016 07:35:00 0.0
2016_12_19_S6 12/20/2016 07:40:00 0.0
2016_12_19_S6 12/20/2016 07:45:00 0.0
2016_12_19_S6 12/20/2016 07:50:00 0.0
2016_12_19_S6 12/20/2016 07:55:00 0.0
2016_12_19_S6 12/20/2016 08:00:00 0.0

2016_12_19_S7 12/19/2016 15:20:00 0.2448
2016_12_19_S7 12/19/2016 15:25:00 0.4819
2016_12_19_S7 12/19/2016 15:30:00 0.0289
2016_12_19_S7 12/19/2016 15:35:00 0.0
2016_12_19_S7 12/19/2016 15:40:00 0.0
2016_12_19_S7 12/19/2016 15:45:00 0.1067
2016_12_19_S7 12/19/2016 15:50:00 0.1828
2016_12_19_S7 12/19/2016 15:55:00 1.2216
2016_12_19_S7 12/19/2016 16:00:00 0.8725
2016_12_19_S7 12/19/2016 16:05:00 6.2047
2016_12_19_S7 12/19/2016 16:10:00 5.0826
2016_12_19_S7 12/19/2016 16:15:00 5.759
2016_12_19_S7 12/19/2016 16:20:00 5.5816
2016_12_19_S7 12/19/2016 16:25:00 2.7678
2016_12_19_S7 12/19/2016 16:30:00 1.0158
2016_12_19_S7 12/19/2016 16:35:00 1.2988
2016_12_19_S7 12/19/2016 16:40:00 0.5724
2016_12_19_S7 12/19/2016 16:45:00 0.0958
2016_12_19_S7 12/19/2016 16:50:00 0.0334
2016_12_19_S7 12/19/2016 16:55:00 0.081
2016_12_19_S7 12/19/2016 17:00:00 0.1026
2016_12_19_S7 12/19/2016 17:05:00 0.0602
2016_12_19_S7 12/19/2016 17:10:00 0.1165
2016_12_19_S7 12/19/2016 17:15:00 0.4101
2016_12_19_S7 12/19/2016 17:20:00 0.2792
2016_12_19_S7 12/19/2016 17:25:00 0.3398
2016_12_19_S7 12/19/2016 17:30:00 0.1716
2016_12_19_S7 12/19/2016 17:35:00 0.1438
2016_12_19_S7 12/19/2016 17:40:00 0.1256
2016_12_19_S7 12/19/2016 17:45:00 0.0263
2016_12_19_S7 12/19/2016 17:50:00 0.0043
2016_12_19_S7 12/19/2016 17:55:00 0.0
2016_12_19_S7 12/19/2016 18:00:00 0.0
2016_12_19_S7 12/19/2016 18:05:00 0.0
2016_12_19_S7 12/19/2016 18:10:00 0.0
2016_12_19_S7 12/19/2016 18:15:00 0.0
2016_12_19_S7 12/19/2016 18:20:00 0.0
2016_12_19_S7 12/19/2016 18:25:00 0.0
2016_12_19_S7 12/19/2016 18:30:00 0.0
2016_12_19_S7 12/19/2016 18:35:00 0.0
2016_12_19_S7 12/19/2016 18:40:00 0.0
2016_12_19_S7 12/19/2016 18:45:00 0.0
2016_12_19_S7 12/19/2016 18:50:00 0.0
2016_12_19_S7 12/19/2016 18:55:00 0.0
2016_12_19_S7 12/19/2016 19:00:00 0.0
2016_12_19_S7 12/19/2016 19:05:00 0.0
2016_12_19_S7 12/19/2016 19:10:00 0.0003
2016_12_19_S7 12/19/2016 19:15:00 0.0096
2016_12_19_S7 12/19/2016 19:20:00 0.0643
2016_12_19_S7 12/19/2016 19:25:00 0.0477
2016_12_19_S7 12/19/2016 19:30:00 0.0225
2016_12_19_S7 12/19/2016 19:35:00 0.031
2016_12_19_S7 12/19/2016 19:40:00 0.055
2016_12_19_S7 12/19/2016 19:45:00 0.0072
2016_12_19_S7 12/19/2016 19:50:00 0.0
2016_12_19_S7 12/19/2016 19:55:00 0.0
2016_12_19_S7 12/19/2016 20:00:00 0.0
2016_12_19_S7 12/19/2016 20:05:00 0.0
2016_12_19_S7 12/19/2016 20:10:00 0.0
2016_12_19_S7 12/19/2016 20:15:00 0.0
2016_12_19_S7 12/19/2016 20:20:00 0.0
2016_12_19_S7 12/19/2016 20:25:00 0.0
2016_12_19_S7 12/19/2016 20:30:00 0.0
2016_12_19_S7 12/19/2016 20:35:00 0.0
2016_12_19_S7 12/19/2016 20:40:00 0.0
2016_12_19_S7 12/19/2016 20:45:00 0.0
2016_12_19_S7 12/19/2016 20:50:00 0.0
2016_12_19_S7 12/19/2016 20:55:00 0.0
2016_12_19_S7 12/19/2016 21:00:00 0.0
2016_12_19_S7 12/19/2016 21:05:00 0.0
2016_12_19_S7 12/19/2016 21:10:00 0.0
2016_12_19_S7 12/19/2016 21:15:00 0.0
2016_12_19_S7 12/19/2016 21:20:00 0.0
2016_12_19_S7 12/19/2016 21:25:00 0.0
2016_12_19_S7 12/19/2016 21:30:00 0.0
2016_12_19_S7 12/19/2016 21:35:00 0.0
2016_12_19_S7 12/19/2016 21:40:00 0.0
2016_12_19_S7 12/19/2016 21:45:00 0.0
2016_12_19_S7 12/19/2016 21:50:00 0.0
2016_12_19_S7 12/19/2016 21:55:00 0.0
2016_12_19_S7 12/19/2016 22:00:00 0.0
2016_12_19_S7 12/19/2016 22:05:00 0.0
2016_12_19_S7 12/19/2016 22:10:00 0.0
2016_12_19_S7 12/19/2016 22:15:00 0.0
2016_12_19_S7 12/19/2016 22:20:00 0.0
2016_12_19_S7 12/19/2016 22:25:00 0.0
2016_12_19_S7 12/19/2016 22:30:00 0.0
2016_12_19_S7 12/19/2016 22:35:00 0.0
2016_12_19_S7 12/19/2016 22:40:00 0.0
2016_12_19_S7 12/19/2016 22:45:00 0.0
2016_12_19_S7 12/19/2016 22:50:00 0.0
2016_12_19_S7 12/19/2016 22:55:00 0.0
2016_12_19_S7 12/19/2016 23:00:00 0.0
2016_12_19_S7 12/19/2016 23:05:00 0.0
2016_12_19_S7 12/19/2016 23:10:00 0.0
2016_12_19_S7 12/19/2016 23:15:00 0.0
2016_12_19_S7 12/19/2016 23:20:00 0.0
2016_12_19_S7 12/19/2016 23:25:00 0.0
2016_12_19_S7 12/19/2016 23:30:00 0.0
2016_12_19_S7 12/19/2016 23:35:00 0.0
2016_12_19_S7 12/19/2016 23:40:00 0.0
2016_12_19_S7 12/19/2016 23:45:00 0.0
2016_12_19_S7 12/19/2016 23:50:00 0.0
2016_12_19_S7 12/19/2016 23:55:00 0.0
2016_12_19_S7 12/20/2016 00:00:00 0.0
2016_12_19_S7 12/20/2016 00:05:00 0.0
2016_12_19_S7 12/20/2016 00:10:00 0.0
2016_12_19_S7 12/20/2016 00:15:00 0.0
2016_12_19_S7 12/20/2016 00:20:00 0.0
2016_12_19_S7 12/20/2016 00:25:00 0.0
2016_12_19_S7 12/20/2016 00:30:00 0.0
2016_12_19_S7 12/20/2016 00:35:00 0.0
2016_12_19_S7 12/20/2016 00:40:00 0.0
2016_12_19_S7 12/20/2016 00:45:00 0.0
2016_12_19_S7 12/20/2016 00:50:00 0.0
2016_12_19_S7 12/20/2016 00:55:00 0.0
2016_12_19_S7 12/20/2016 01:00:00 0.0
2016_12_19_S7 12/20/2016 01:05:00 0.0
2016_12_19_S7 12/20/2016 01:10:00 0.0
2016_12_19_S7 12/20/2016 01:15:00 0.0
2016_12_19_S7 12/20/2016 01:20:00 0.0
2016_12_19_S7 12/20/2016 01:25:00 0.0
2016_12_19_S7 12/20/2016 01:30:00 0.0
2016_12_19_S7 12/20/2016 01:35:00 0.0
2016_12_19_S7 12/20/2016 01:40:00 0.0
2016_12_19_S7 12/20/2016 01:45:00 0.0
2016_12_19_S7 12/20/2016 01:50:00 0.0
2016_12_19_S7 12/20/2016 01:55:00 0.0
2016_12_19_S7 12/20/2016 02:00:00 0.0
2016_12_19_S7 12/20/2016 02:05:00 0.0
2016_12_19_S7 12/20/2016 02:10:00 0.0
2016_12_19_S7 12/20/2016 02:15:00 0.0
2016_12_19_S7 12/20/2016 02:20:00 0.0
2016_12_19_S7 12/20/2016 02:25:00 0.0
2016_12_19_S7 12/20/2016 02:30:00 0.0
2016_12_19_S7 12/20/2016 02:35:00 0.0
2016_12_19_S7 12/20/2016 02:40:00 0.0
2016_12_19_S7 12/20/2016 02:45:00 0.0
2016_12_19_S7 12/20/2016 02:50:00 0.0
2016_12_19_S7 12/20/2016 02:55:00 0.0
2016_12_19_S7 12/20/2016 03:00:00 0.0
2016_12_19_S7 12/20/2016 03:05:00 0.0
2016_12_19_S7 12/20/2016 03:10:00 0.0
2016_12_19_S7 12/20/2016 03:15:00 0.0
2016_12_19_S7 12/20/2016 03:20:00 0.0
2016_12_19_S7 12/20/2016 03:25:00 0.0
2016_12_19_S7 12/20/2016 03:30:00 0.0
2016_12_19_S7 12/20/2016 03:35:00 0.0
2016_12_19_S7 12/20/2016 03:40:00 0.0
2016_12_19_S7 12/20/2016 03:45:00 0.0
2016_12_19_S7 12/20/2016 03:50:00 0.0
2016_12_19_S7 12/20/2016 03:55:00 0.0
2016_12_19_S7 12/20/2016 04:00:00 0.0
2016_12_19_S7 12/20/2016 04:05:00 0.0
2016_12_19_S7 12/20/2016 04:10:00 0.0
2016_12_19_S7 12/20/2016 04:15:00 0.0
2016_12_19_S7 12/20/2016 04:20:00 0.0
2016_12_19_S7 12/20/2016 04:25:00 0.0
2016_12_19_S7 12/20/2016 04:30:00 0.0
2016_12_19_S7 12/20/2016 04:35:00 0.0
2016_12_19_S7 12/20/2016 04:40:00 0.0
2016_12_19_S7 12/20/2016 04:45:00 0.0
2016_12_19_S7 12/20/2016 04:50:00 0.0
2016_12_19_S7 12/20/2016 04:55:00 0.0
2016_12_19_S7 12/20/2016 05:00:00 0.0
2016_12_19_S7 12/20/2016 05:05:00 0.0
2016_12_19_S7 12/20/2016 05:10:00 0.0
2016_12_19_S7 12/20/2016 05:15:00 0.0
2016_12_19_S7 12/20/2016 05:20:00 0.0
2016_12_19_S7 12/20/2016 05:25:00 0.0
2016_12_19_S7 12/20/2016 05:30:00 0.0
2016_12_19_S7 12/20/2016 05:35:00 0.0
2016_12_19_S7 12/20/2016 05:40:00 0.0
2016_12_19_S7 12/20/2016 05:45:00 0.0
2016_12_19_S7 12/20/2016 05:50:00 0.0
2016_12_19_S7 12/20/2016 05:55:00 0.0
2016_12_19_S7 12/20/2016 06:00:00 0.0
2016_12_19_S7 12/20/2016 06:05:00 0.0
2016_12_19_S7 12/20/2016 06:10:00 0.0
2016_12_19_S7 12/20/2016 06:15:00 0.0
2016_12_19_S7 12/20/2016 06:20:00 0.0
2016_12_19_S7 12/20/2016 06:25:00 0.0
2016_12_19_S7 12/20/2016 06:30:00 0.0
2016_12_19_S7 12/20/2016 06:35:00 0.0
2016_12_19_S7 12/20/2016 06:40:00 0.0
2016_12_19_S7 12/20/2016 06:45:00 0.0
2016_12_19_S7 12/20/2016 06:50:00 0.0
2016_12_19_S7 12/20/2016 06:55:00 0.0
2016_12_19_S7 12/20/2016 07:00:00 0.0
2016_12_19_S7 12/20/2016 07:05:00 0.0
2016_12_19_S7 12/20/2016 07:10:00 0.0
2016_12_19_S7 12/20/2016 07:15:00 0.0
2016_12_19_S7 12/20/2016 07:20:00 0.0
2016_12_19_S7 12/20/2016 07:25:00 0.0
2016_12_19_S7 12/20/2016 07:30:00 0.0
2016_12_19_S7 12/20/2016 07:35:00 0.0
2016_12_19_S7 12/20/2016 07:40:00 0.0
2016_12_19_S7 12/20/2016 07:45:00 0.0
2016_12_19_S7 12/20/2016 07:50:00 0.0
2016_12_19_S7 12/20/2016 07:55:00 0.0
2016_12_19_S7 12/20/2016 08:00:00 0.0

2016_12_19_S8 12/19/2016 15:20:00 0.2721
2016_12_19_S8 12/19/2016 15:25:00 0.4338
2016_12_19_S8 12/19/2016 15:30:00 0.0344
2016_12_19_S8 12/19/2016 15:35:00 0.0
2016_12_19_S8 12/19/2016 15:40:00 0.0012
2016_12_19_S8 12/19/2016 15:45:00 0.1428
2016_12_19_S8 12/19/2016 15:50:00 0.4251
2016_12_19_S8 12/19/2016 15:55:00 1.4977
2016_12_19_S8 12/19/2016 16:00:00 1.0631
2016_12_19_S8 12/19/2016 16:05:00 6.0703
2016_12_19_S8 12/19/2016 16:10:00 5.0612
2016_12_19_S8 12/19/2016 16:15:00 5.1244
2016_12_19_S8 12/19/2016 16:20:00 4.6854
2016_12_19_S8 12/19/2016 16:25:00 3.5936
2016_12_19_S8 12/19/2016 16:30:00 1.2578
2016_12_19_S8 12/19/2016 16:35:00 2.1346
2016_12_19_S8 12/19/2016 16:40:00 0.4927
2016_12_19_S8 12/19/2016 16:45:00 0.1
2016_12_19_S8 12/19/2016 16:50:00 0.0309
2016_12_19_S8 12/19/2016 16:55:00 0.079
2016_12_19_S8 12/19/2016 17:00:00 0.094
2016_12_19_S8 12/19/2016 17:05:00 0.0587
2016_12_19_S8 12/19/2016 17:10:00 0.1262
2016_12_19_S8 12/19/2016 17:15:00 0.4973
2016_12_19_S8 12/19/2016 17:20:00 0.2016
2016_12_19_S8 12/19/2016 17:25:00 0.3089
2016_12_19_S8 12/19/2016 17:30:00 0.1197
2016_12_19_S8 12/19/2016 17:35:00 0.1243
2016_12_19_S8 12/19/2016 17:40:00 0.0998
2016_12_19_S8 12/19/2016 17:45:00 0.0224
2016_12_19_S8 12/19/2016 17:50:00 0.0028
2016_12_19_S8 12/19/2016 17:55:00 0.0
2016_12_19_S8 12/19/2016 18:00:00 0.0
2016_12_19_S8 12/19/2016 18:05:00 0.0
2016_12_19_S8 12/19/2016 18:10:00 0.0
2016_12_19_S8 12/19/2016 18:15:00 0.0
2016_12_19_S8 12/19/2016 18:20:00 0.0
2016_12_19_S8 12/19/2016 18:25:00 0.0
2016_12_19_S8 12/19/2016 18:30:00 0.0
2016_12_19_S8 12/19/2016 18:35:00 0.0
2016_12_19_S8 12/19/2016 18:40:00 0.0
2016_12_19_S8 12/19/2016 18:45:00 0.0
2016_12_19_S8 12/19/2016 18:50:00 0.0
2016_12_19_S8 12/19/2016 18:55:00 0.0
2016_12_19_S8 12/19/2016 19:00:00 0.0
2016_12_19_S8 12/19/2016 19:05:00 0.0
2016_12_19_S8 12/19/2016 19:10:00 0.0004
2016_12_19_S8 12/19/2016 19:15:00 0.0143
2016_12_19_S8 12/19/2016 19:20:00 0.0562
2016_12_19_S8 12/19/2016 19:25:00 0.0517
2016_12_19_S8 12/19/2016 19:30:00 0.0277
2016_12_19_S8 12/19/2016 19:35:00 0.036
2016_12_19_S8 12/19/2016 19:40:00 0.0568
2016_12_19_S8 12/19/2016 19:45:00 0.0073
2016_12_19_S8 12/19/2016 19:50:00 0.0
2016_12_19_S8 12/19/2016 19:55:00 0.0
2016_12_19_S8 12/19/2016 20:00:00 0.0
2016_12_19_S8 12/19/2016 20:05:00 0.0
2016_12_19_S8 12/19/2016 20:10:00 0.0
2016_12_19_S8 12/19/2016 20:15:00 0.0
2016_12_19_S8 12/19/2016 20:20:00 0.0
2016_12_19_S8 12/19/2016 20:25:00 0.0
2016_12_19_S8 12/19/2016 20:30:00 0.0
2016_12_19_S8 12/19/2016 20:35:00 0.0
2016_12_19_S8 12/19/2016 20:40:00 0.0
2016_12_19_S8 12/19/2016 20:45:00 0.0
2016_12_19_S8 12/19/2016 20:50:00 0.0
2016_12_19_S8 12/19/2016 20:55:00 0.0
2016_12_19_S8 12/19/2016 21:00:00 0.0
2016_12_19_S8 12/19/2016 21:05:00 0.0
2016_12_19_S8 12/19/2016 21:10:00 0.0
2016_12_19_S8 12/19/2016 21:15:00 0.0
2016_12_19_S8 12/19/2016 21:20:00 0.0
2016_12_19_S8 12/19/2016 21:25:00 0.0
2016_12_19_S8 12/19/2016 21:30:00 0.0
2016_12_19_S8 12/19/2016 21:35:00 0.0
2016_12_19_S8 12/19/2016 21:40:00 0.0
2016_12_19_S8 12/19/2016 21:45:00 0.0
2016_12_19_S8 12/19/2016 21:50:00 0.0
2016_12_19_S8 12/19/2016 21:55:00 0.0
2016_12_19_S8 12/19/2016 22:00:00 0.0
2016_12_19_S8 12/19/2016 22:05:00 0.0
2016_12_19_S8 12/19/2016 22:10:00 0.0
2016_12_19_S8 12/19/2016 22:15:00 0.0
2016_12_19_S8 12/19/2016 22:20:00 0.0
2016_12_19_S8 12/19/2016 22:25:00 0.0
2016_12_19_S8 12/19/2016 22:30:00 0.0
2016_12_19_S8 12/19/2016 22:35:00 0.0
2016_12_19_S8 12/19/2016 22:40:00 0.0
2016_12_19_S8 12/19/2016 22:45:00 0.0
2016_12_19_S8 12/19/2016 22:50:00 0.0
2016_12_19_S8 12/19/2016 22:55:00 0.0
2016_12_19_S8 12/19/2016 23:00:00 0.0
2016_12_19_S8 12/19/2016 23:05:00 0.0
2016_12_19_S8 12/19/2016 23:10:00 0.0
2016_12_19_S8 12/19/2016 23:15:00 0.0
2016_12_19_S8 12/19/2016 23:20:00 0.0
2016_12_19_S8 12/19/2016 23:25:00 0.0
2016_12_19_S8 12/19/2016 23:30:00 0.0
2016_12_19_S8 12/19/2016 23:35:00 0.0
2016_12_19_S8 12/19/2016 23:40:00 0.0
2016_12_19_S8 12/19/2016 23:45:00 0.0
2016_12_19_S8 12/19/2016 23:50:00 0.0
2016_12_19_S8 12/19/2016 23:55:00 0.0
2016_12_19_S8 12/20/2016 00:00:00 0.0
2016_12_19_S8 12/20/2016 00:05:00 0.0
2016_12_19_S8 12/20/2016 00:10:00 0.0
2016_12_19_S8 12/20/2016 00:15:00 0.0
2016_12_19_S8 12/20/2016 00:20:00 0.0
2016_12_19_S8 12/20/2016 00:25:00 0.0
2016_12_19_S8 12/20/2016 00:30:00 0.0
2016_12_19_S8 12/20/2016 00:35:00 0.0
2016_12_19_S8 12/20/2016 00:40:00 0.0
2016_12_19_S8 12/20/2016 00:45:00 0.0
2016_12_19_S8 12/20/2016 00:50:00 0.0
2016_12_19_S8 12/20/2016 00:55:00 0.0
2016_12_19_S8 12/20/2016 01:00:00 0.0
2016_12_19_S8 12/20/2016 01:05:00 0.0
2016_12_19_S8 12/20/2016 01:10:00 0.0
2016_12_19_S8 12/20/2016 01:15:00 0.0
2016_12_19_S8 12/20/2016 01:20:00 0.0
2016_12_19_S8 12/20/2016 01:25:00 0.0
2016_12_19_S8 12/20/2016 01:30:00 0.0
2016_12_19_S8 12/20/2016 01:35:00 0.0
2016_12_19_S8 12/20/2016 01:40:00 0.0
2016_12_19_S8 12/20/2016 01:45:00 0.0
2016_12_19_S8 12/20/2016 01:50:00 0.0
2016_12_19_S8 12/20/2016 01:55:00 0.0
2016_12_19_S8 12/20/2016 02:00:00 0.0
2016_12_19_S8 12/20/2016 02:05:00 0.0
2016_12_19_S8 12/20/2016 02:10:00 0.0
2016_12_19_S8 12/20/2016 02:15:00 0.0
2016_12_19_S8 12/20/2016 02:20:00 0.0
2016_12_19_S8 12/20/2016 02:25:00 0.0
2016_12_19_S8 12/20/2016 02:30:00 0.0
2016_12_19_S8 12/20/2016 02:35:00 0.0
2016_12_19_S8 12/20/2016 02:40:00 0.0
2016_12_19_S8 12/20/2016 02:45:00 0.0
2016_12_19_S8 12/20/2016 02:50:00 0.0
2016_12_19_S8 12/20/2016 02:55:00 0.0
2016_12_19_S8 12/20/2016 03:00:00 0.0
2016_12_19_S8 12/20/2016 03:05:00 0.0
2016_12_19_S8 12/20/2016 03:10:00 0.0
2016_12_19_S8 12/20/2016 03:15:00 0.0
2016_12_19_S8 12/20/2016 03:20:00 0.0
2016_12_19_S8 12/20/2016 03:25:00 0.0
2016_12_19_S8 12/20/2016 03:30:00 0.0
2016_12_19_S8 12/20/2016 03:35:00 0.0
2016_12_19_S8 12/20/2016 03:40:00 0.0
2016_12_19_S8 12/20/2016 03:45:00 0.0
2016_12_19_S8 12/20/2016 03:50:00 0.0
2016_12_19_S8 12/20/2016 03:55:00 0.0
2016_12_19_S8 12/20/2016 04:00:00 0.0
2016_12_19_S8 12/20/2016 04:05:00 0.0
2016_12_19_S8 12/20/2016 04:10:00 0.0
2016_12_19_S8 12/20/2016 04:15:00 0.0
2016_12_19_S8 12/20/2016 04:20:00 0.0
2016_12_19_S8 12/20/2016 04:25:00 0.0
2016_12_19_S8 12/20/2016 04:30:00 0.0
2016_12_19_S8 12/20/2016 04:35:00 0.0
2016_12_19_S8 12/20/2016 04:40:00 0.0
2016_12_19_S8 12/20/2016 04:45:00 0.0
2016_12_19_S8 12/20/2016 04:50:00 0.0
2016_12_19_S8 12/20/2016 04:55:00 0.0
2016_12_19_S8 12/20/2016 05:00:00 0.0
2016_12_19_S8 12/20/2016 05:05:00 0.0
2016_12_19_S8 12/20/2016 05:10:00 0.0
2016_12_19_S8 12/20/2016 05:15:00 0.0
2016_12_19_S8 12/20/2016 05:20:00 0.0
2016_12_19_S8 12/20/2016 05:25:00 0.0
2016_12_19_S8 12/20/2016 05:30:00 0.0
2016_12_19_S8 12/20/2016 05:35:00 0.0
2016_12_19_S8 12/20/2016 05:40:00 0.0
2016_12_19_S8 12/20/2016 05:45:00 0.0
2016_12_19_S8 12/20/2016 05:50:00 0.0
2016_12_19_S8 12/20/2016 05:55:00 0.0
2016_12_19_S8 12/20/2016 06:00:00 0.0
2016_12_19_S8 12/20/2016 06:05:00 0.0
2016_12_19_S8 12/20/2016 06:10:00 0.0
2016_12_19_S8 12/20/2016 06:15:00 0.0
2016_12_19_S8 12/20/2016 06:20:00 0.0
2016_12_19_S8 12/20/2016 06:25:00 0.0
2016_12_19_S8 12/20/2016 06:30:00 0.0
2016_12_19_S8 12/20/2016 06:35:00 0.0
2016_12_19_S8 12/20/2016 06:40:00 0.0
2016_12_19_S8 12/20/2016 06:45:00 0.0
2016_12_19_S8 12/20/2016 06:50:00 0.0
2016_12_19_S8 12/20/2016 06:55:00 0.0
2016_12_19_S8 12/20/2016 07:00:00 0.0
2016_12_19_S8 12/20/2016 07:05:00 0.0
2016_12_19_S8 12/20/2016 07:10:00 0.0
2016_12_19_S8 12/20/2016 07:15:00 0.0
2016_12_19_S8 12/20/2016 07:20:00 0.0
2016_12_19_S8 12/20/2016 07:25:00 0.0
2016_12_19_S8 12/20/2016 07:30:00 0.0
2016_12_19_S8 12/20/2016 07:35:00 0.0
2016_12_19_S8 12/20/2016 07:40:00 0.0
2016_12_19_S8 12/20/2016 07:45:00 0.0
2016_12_19_S8 12/20/2016 07:50:00 0.0
2016_12_19_S8 12/20/2016 07:55:00 0.0
2016_12_19_S8 12/20/2016 08:00:00 0.0

2016_12_19_S9 12/19/2016 15:20:00 0.3084
2016_12_19_S9 12/19/2016 15:25:00 0.4202
2016_12_19_S9 12/19/2016 15:30:00 0.0276
2016_12_19_S9 12/19/2016 15:35:00 0.0001
2016_12_19_S9 12/19/2016 15:40:00 0.0037
2016_12_19_S9 12/19/2016 15:45:00 0.1745
2016_12_19_S9 12/19/2016 15:50:00 0.4764
2016_12_19_S9 12/19/2016 15:55:00 1.6757
2016_12_19_S9 12/19/2016 16:00:00 1.391
2016_12_19_S9 12/19/2016 16:05:00 4.3686
2016_12_19_S9 12/19/2016 16:10:00 5.1223
2016_12_19_S9 12/19/2016 16:15:00 3.7127
2016_12_19_S9 12/19/2016 16:20:00 4.1187
2016_12_19_S9 12/19/2016 16:25:00 2.339
2016_12_19_S9 12/19/2016 16:30:00 1.336
2016_12_19_S9 12/19/2016 16:35:00 2.6375
2016_12_19_S9 12/19/2016 16:40:00 0.4444
2016_12_19_S9 12/19/2016 16:45:00 0.0856
2016_12_19_S9 12/19/2016 16:50:00 0.0339
2016_12_19_S9 12/19/2016 16:55:00 0.0746
2016_12_19_S9 12/19/2016 17:00:00 0.0536
2016_12_19_S9 12/19/2016 17:05:00 0.0635
2016_12_19_S9 12/19/2016 17:10:00 0.1588
2016_12_19_S9 12/19/2016 17:15:00 0.5921
2016_12_19_S9 12/19/2016 17:20:00 0.186
2016_12_19_S9 12/19/2016 17:25:00 0.2318
2016_12_19_S9 12/19/2016 17:30:00 0.1098
2016_12_19_S9 12/19/2016 17:35:00 0.1372
2016_12_19_S9 12/19/2016 17:40:00 0.0977
2016_12_19_S9 12/19/2016 17:45:00 0.0153
2016_12_19_S9 12/19/2016 17:50:00 0.0005
2016_12_19_S9 12/19/2016 17:55:00 0.0
2016_12_19_S9 12/19/2016 18:00:00 0.0
2016_12_19_S9 12/19/2016 18:05:00 0.0
2016_12_19_S9 12/19/2016 18:10:00 0.0
2016_12_19_S9 12/19/2016 18:15:00 0.0
2016_12_19_S9 12/19/2016 18:20:00 0.0
2016_12_19_S9 12/19/2016 18:25:00 0.0
2016_12_19_S9 12/19/2016 18:30:00 0.0
2016_12_19_S9 12/19/2016 18:35:00 0.0
2016_12_19_S9 12/19/2016 18:40:00 0.0
2016_12_19_S9 12/19/2016 18:45:00 0.0
2016_12_19_S9 12/19/2016 18:50:00 0.0
2016_12_19_S9 12/19/2016 18:55:00 0.0
2016_12_19_S9 12/19/2016 19:00:00 0.0
2016_12_19_S9 12/19/2016 19:05:00 0.0
2016_12_19_S9 12/19/2016 19:10:00 0.0024
2016_12_19_S9 12/19/2016 19:15:00 0.0261
2016_12_19_S9 12/19/2016 19:20:00 0.0782
2016_12_19_S9 12/19/2016 19:25:00 0.055
2016_12_19_S9 12/19/2016 19:30:00 0.0323
2016_12_19_S9 12/19/2016 19:35:00 0.0504
2016_12_19_S9 12/19/2016 19:40:00 0.0488
2016_12_19_S9 12/19/2016 19:45:00 0.0059
2016_12_19_S9 12/19/2016 19:50:00 0.0
2016_12_19_S9 12/19/2016 19:55:00 0.0
2016_12_19_S9 12/19/2016 20:00:00 0.0
2016_12_19_S9 12/19/2016 20:05:00 0.0
2016_12_19_S9 12/19/2016 20:10:00 0.0
2016_12_19_S9 12/19/2016 20:15:00 0.0
2016_12_19_S9 12/19/2016 20:20:00 0.0
2016_12_19_S9 12/19/2016 20:25:00 0.0
2016_12_19_S9 12/19/2016 20:30:00 0.0
2016_12_19_S9 12/19/2016 20:35:00 0.0
2016_12_19_S9 12/19/2016 20:40:00 0.0
2016_12_19_S9 12/19/2016 20:45:00 0.0
2016_12_19_S9 12/19/2016 20:50:00 0.0
2016_12_19_S9 12/19/2016 20:55:00 0.0
2016_12_19_S9 12/19/2016 21:00:00 0.0
2016_12_19_S9 12/19/2016 21:05:00 0.0
2016_12_19_S9 12/19/2016 21:10:00 0.0
2016_12_19_S9 12/19/2016 21:15:00 0.0
2016_12_19_S9 12/19/2016 21:20:00 0.0
2016_12_19_S9 12/19/2016 21:25:00 0.0
2016_12_19_S9 12/19/2016 21:30:00 0.0
2016_12_19_S9 12/19/2016 21:35:00 0.0
2016_12_19_S9 12/19/2016 21:40:00 0.0
2016_12_19_S9 12/19/2016 21:45:00 0.0
2016_12_19_S9 12/19/2016 21:50:00 0.0
2016_12_19_S9 12/19/2016 21:55:00 0.0
2016_12_19_S9 12/19/2016 22:00:00 0.0
2016_12_19_S9 12/19/2016 22:05:00 0.0
2016_12_19_S9 12/19/2016 22:10:00 0.0
2016_12_19_S9 12/19/2016 22:15:00 0.0
2016_12_19_S9 12/19/2016 22:20:00 0.0
2016_12_19_S9 12/19/2016 22:25:00 0.0
2016_12_19_S9 12/19/2016 22:30:00 0.0
2016_12_19_S9 12/19/2016 22:35:00 0.0
2016_12_19_S9 12/19/2016 22:40:00 0.0
2016_12_19_S9 12/19/2016 22:45:00 0.0
2016_12_19_S9 12/19/2016 22:50:00 0.0
2016_12_19_S9 12/19/2016 22:55:00 0.0
2016_12_19_S9 12/19/2016 23:00:00 0.0
2016_12_19_S9 12/19/2016 23:05:00 0.0
2016_12_19_S9 12/19/2016 23:10:00 0.0
2016_12_19_S9 12/19/2016 23:15:00 0.0
2016_12_19_S9 12/19/2016 23:20:00 0.0
2016_12_19_S9 12/19/2016 23:25:00 0.0
2016_12_19_S9 12/19/2016 23:30:00 0.0
2016_12_19_S9 12/19/2016 23:35:00 0.0
2016_12_19_S9 12/19/2016 23:40:00 0.0
2016_12_19_S9 12/19/2016 23:45:00 0.0
2016_12_19_S9 12/19/2016 23:50:00 0.0
2016_12_19_S9 12/19/2016 23:55:00 0.0
2016_12_19_S9 12/20/2016 00:00:00 0.0
2016_12_19_S9 12/20/2016 00:05:00 0.0
2016_12_19_S9 12/20/2016 00:10:00 0.0
2016_12_19_S9 12/20/2016 00:15:00 0.0
2016_12_19_S9 12/20/2016 00:20:00 0.0
2016_12_19_S9 12/20/2016 00:25:00 0.0
2016_12_19_S9 12/20/2016 00:30:00 0.0
2016_12_19_S9 12/20/2016 00:35:00 0.0
2016_12_19_S9 12/20/2016 00:40:00 0.0
2016_12_19_S9 12/20/2016 00:45:00 0.0
2016_12_19_S9 12/20/2016 00:50:00 0.0
2016_12_19_S9 12/20/2016 00:55:00 0.0
2016_12_19_S9 12/20/2016 01:00:00 0.0
2016_12_19_S9 12/20/2016 01:05:00 0.0
2016_12_19_S9 12/20/2016 01:10:00 0.0
2016_12_19_S9 12/20/2016 01:15:00 0.0
2016_12_19_S9 12/20/2016 01:20:00 0.0
2016_12_19_S9 12/20/2016 01:25:00 0.0
2016_12_19_S9 12/20/2016 01:30:00 0.0
2016_12_19_S9 12/20/2016 01:35:00 0.0
2016_12_19_S9 12/20/2016 01:40:00 0.0
2016_12_19_S9 12/20/2016 01:45:00 0.0
2016_12_19_S9 12/20/2016 01:50:00 0.0
2016_12_19_S9 12/20/2016 01:55:00 0.0
2016_12_19_S9 12/20/2016 02:00:00 0.0
2016_12_19_S9 12/20/2016 02:05:00 0.0
2016_12_19_S9 12/20/2016 02:10:00 0.0
2016_12_19_S9 12/20/2016 02:15:00 0.0
2016_12_19_S9 12/20/2016 02:20:00 0.0
2016_12_19_S9 12/20/2016 02:25:00 0.0
2016_12_19_S9 12/20/2016 02:30:00 0.0
2016_12_19_S9 12/20/2016 02:35:00 0.0
2016_12_19_S9 12/20/2016 02:40:00 0.0
2016_12_19_S9 12/20/2016 02:45:00 0.0
2016_12_19_S9 12/20/2016 02:50:00 0.0
2016_12_19_S9 12/20/2016 02:55:00 0.0
2016_12_19_S9 12/20/2016 03:00:00 0.0
2016_12_19_S9 12/20/2016 03:05:00 0.0
2016_12_19_S9 12/20/2016 03:10:00 0.0
2016_12_19_S9 12/20/2016 03:15:00 0.0
2016_12_19_S9 12/20/2016 03:20:00 0.0
2016_12_19_S9 12/20/2016 03:25:00 0.0
2016_12_19_S9 12/20/2016 03:30:00 0.0
2016_12_19_S9 12/20/2016 03:35:00 0.0
2016_12_19_S9 12/20/2016 03:40:00 0.0
2016_12_19_S9 12/20/2016 03:45:00 0.0
2016_12_19_S9 12/20/2016 03:50:00 0.0
2016_12_19_S9 12/20/2016 03:55:00 0.0
2016_12_19_S9 12/20/2016 04:00:00 0.0
2016_12_19_S9 12/20/2016 04:05:00 0.0
2016_12_19_S9 12/20/2016 04:10:00 0.0
2016_12_19_S9 12/20/2016 04:15:00 0.0
2016_12_19_S9 12/20/2016 04:20:00 0.0
2016_12_19_S9 12/20/2016 04:25:00 0.0
2016_12_19_S9 12/20/2016 04:30:00 0.0
2016_12_19_S9 12/20/2016 04:35:00 0.0
2016_12_19_S9 12/20/2016 04:40:00 0.0
2016_12_19_S9 12/20/2016 04:45:00 0.0
2016_12_19_S9 12/20/2016 04:50:00 0.0
2016_12_19_S9 12/20/2016 04:55:00 0.0
2016_12_19_S9 12/20/2016 05:00:00 0.0
2016_12_19_S9 12/20/2016 05:05:00 0.0
2016_12_19_S9 12/20/2016 05:10:00 0.0
2016_12_19_S9 12/20/2016 05:15:00 0.0
2016_12_19_S9 12/20/2016 05:20:00 0.0
2016_12_19_S9 12/20/2016 05:25:00 0.0
2016_12_19_S9 12/20/2016 05:30:00 0.0
2016_12_19_S9 12/20/2016 05:35:00 0.0
2016_12_19_S9 12/20/2016 05:40:00 0.0
2016_12_19_S9 12/20/2016 05:45:00 0.0
2016_12_19_S9 12/20/2016 05:50:00 0.0
2016_12_19_S9 12/20/2016 05:55:00 0.0
2016_12_19_S9 12/20/2016 06:00:00 0.0
2016_12_19_S9 12/20/2016 06:05:00 0.0
2016_12_19_S9 12/20/2016 06:10:00 0.0
2016_12_19_S9 12/20/2016 06:15:00 0.0
2016_12_19_S9 12/20/2016 06:20:00 0.0
2016_12_19_S9 12/20/2016 06:25:00 0.0
2016_12_19_S9 12/20/2016 06:30:00 0.0
2016_12_19_S9 12/20/2016 06:35:00 0.0
2016_12_19_S9 12/20/2016 06:40:00 0.0
2016_12_19_S9 12/20/2016 06:45:00 0.0
2016_12_19_S9 12/20/2016 06:50:00 0.0
2016_12_19_S9 12/20/2016 06:55:00 0.0
2016_12_19_S9 12/20/2016 07:00:00 0.0
2016_12_19_S9 12/20/2016 07:05:00 0.0
2016_12_19_S9 12/20/2016 07:10:00 0.0
2016_12_19_S9 12/20/2016 07:15:00 0.0
2016_12_19_S9 12/20/2016 07:20:00 0.0
2016_12_19_S9 12/20/2016 07:25:00 0.0
2016_12_19_S9 12/20/2016 07:30:00 0.0
2016_12_19_S9 12/20/2016 07:35:00 0.0
2016_12_19_S9 12/20/2016 07:40:00 0.0
2016_12_19_S9 12/20/2016 07:45:00 0.0
2016_12_19_S9 12/20/2016 07:50:00 0.0
2016_12_19_S9 12/20/2016 07:55:00 0.0
2016_12_19_S9 12/20/2016 08:00:00 0.0

2016_12_19_S10 12/19/2016 15:20:00 0.2439
2016_12_19_S10 12/19/2016 15:25:00 0.3808
2016_12_19_S10 12/19/2016 15:30:00 0.0155
2016_12_19_S10 12/19/2016 15:35:00 0.0007
2016_12_19_S10 12/19/2016 15:40:00 0.0042
2016_12_19_S10 12/19/2016 15:45:00 0.2539
2016_12_19_S10 12/19/2016 15:50:00 1.3127
2016_12_19_S10 12/19/2016 15:55:00 0.9658
2016_12_19_S10 12/19/2016 16:00:00 1.8291
2016_12_19_S10 12/19/2016 16:05:00 3.0872
2016_12_19_S10 12/19/2016 16:10:00 4.5249
2016_12_19_S10 12/19/2016 16:15:00 3.1532
2016_12_19_S10 12/19/2016 16:20:00 4.4562
2016_12_19_S10 12/19/2016 16:25:00 1.8252
2016_12_19_S10 12/19/2016 16:30:00 1.2347
2016_12_19_S10 12/19/2016 16:35:00 2.8988
2016_12_19_S10 12/19/2016 16:40:00 0.4398
2016_12_19_S10 12/19/2016 16:45:00 0.088
2016_12_19_S10 12/19/2016 16:50:00 0.0361
2016_12_19_S10 12/19/2016 16:55:00 0.0587
2016_12_19_S10 12/19/2016 17:00:00 0.056
2016_12_19_S10 12/19/2016 17:05:00 0.0619
2016_12_19_S10 12/19/2016 17:10:00 0.2312
2016_12_19_S10 12/19/2016 17:15:00 0.5345
2016_12_19_S10 12/19/2016 17:20:00 0.1605
2016_12_19_S10 12/19/2016 17:25:00 0.1915
2016_12_19_S10 12/19/2016 17:30:00 0.0592
2016_12_19_S10 12/19/2016 17:35:00 0.0749
2016_12_19_S10 12/19/2016 17:40:00 0.0523
2016_12_19_S10 12/19/2016 17:45:00 0.0085
2016_12_19_S10 12/19/2016 17:50:00 0.0
2016_12_19_S10 12/19/2016 17:55:00 0.0
2016_12_19_S10 12/19/2016 18:00:00 0.0
2016_12_19_S10 12/19/2016 18:05:00 0.0
2016_12_19_S10 12/19/2016 18:10:00 0.0
2016_12_19_S10 12/19/2016 18:15:00 0.0
2016_12_19_S10 12/19/2016 18:20:00 0.0
2016_12_19_S10 12/19/2016 18:25:00 0.0
2016_12_19_S10 12/19/2016 18:30:00 0.0
2016_12_19_S10 12/19/2016 18:35:00 0.0
2016_12_19_S10 12/19/2016 18:40:00 0.0
2016_12_19_S10 12/19/2016 18:45:00 0.0
2016_12_19_S10 12/19/2016 18:50:00 0.0
2016_12_19_S10 12/19/2016 18:55:00 0.0
2016_12_19_S10 12/19/2016 19:00:00 0.0
2016_12_19_S10 12/19/2016 19:05:00 0.0
2016_12_19_S10 12/19/2016 19:10:00 0.0063
2016_12_19_S10 12/19/2016 19:15:00 0.0143
2016_12_19_S10 12/19/2016 19:20:00 0.0963
2016_12_19_S10 12/19/2016 19:25:00 0.0557
2016_12_19_S10 12/19/2016 19:30:00 0.0464
2016_12_19_S10 12/19/2016 19:35:00 0.0718
2016_12_19_S10 12/19/2016 19:40:00 0.0531
2016_12_19_S10 12/19/2016 19:45:00 0.0046
2016_12_19_S10 12/19/2016 19:50:00 0.0
2016_12_19_S10 12/19/2016 19:55:00 0.0
2016_12_19_S10 12/19/2016 20:00:00 0.0
2016_12_19_S10 12/19/2016 20:05:00 0.0
2016_12_19_S10 12/19/2016 20:10:00 0.0
2016_12_19_S10 12/19/2016 20:15:00 0.0
2016_12_19_S10 12/19/2016 20:20:00 0.0
2016_12_19_S10 12/19/2016 20:25:00 0.0
2016_12_19_S10 12/19/2016 20:30:00 0.0
2016_12_19_S10 12/19/2016 20:35:00 0.0
2016_12_19_S10 12/19/2016 20:40:00 0.0
2016_12_19_S10 12/19/2016 20:45:00 0.0
2016_12_19_S10 12/19/2016 20:50:00 0.0
2016_12_19_S10 12/19/2016 20:55:00 0.0
2016_12_19_S10 12/19/2016 21:00:00 0.0
2016_12_19_S10 12/19/2016 21:05:00 0.0
2016_12_19_S10 12/19/2016 21:10:00 0.0
2016_12_19_S10 12/19/2016 21:15:00 0.0
2016_12_19_S10 12/19/2016 21:20:00 0.0
2016_12_19_S10 12/19/2016 21:25:00 0.0
2016_12_19_S10 12/19/2016 21:30:00 0.0
2016_12_19_S10 12/19/2016 21:35:00 0.0
2016_12_19_S10 12/19/2016 21:40:00 0.0
2016_12_19_S10 12/19/2016 21:45:00 0.0
2016_12_19_S10 12/19/2016 21:50:00 0.0
2016_12_19_S10 12/19/2016 21:55:00 0.0
2016_12_19_S10 12/19/2016 22:00:00 0.0
2016_12_19_S10 12/19/2016 22:05:00 0.0
2016_12_19_S10 12/19/2016 22:10:00 0.0
2016_12_19_S10 12/19/2016 22:15:00 0.0
2016_12_19_S10 12/19/2016 22:20:00 0.0
2016_12_19_S10 12/19/2016 22:25:00 0.0
2016_12_19_S10 12/19/2016 22:30:00 0.0
2016_12_19_S10 12/19/2016 22:35:00 0.0
2016_12_19_S10 12/19/2016 22:40:00 0.0
2016_12_19_S10 12/19/2016 22:45:00 0.0
2016_12_19_S10 12/19/2016 22:50:00 0.0
2016_12_19_S10 12/19/2016 22:55:00 0.0
2016_12_19_S10 12/19/2016 23:00:00 0.0
2016_12_19_S10 12/19/2016 23:05:00 0.0
2016_12_19_S10 12/19/2016 23:10:00 0.0
2016_12_19_S10 12/19/2016 23:15:00 0.0
2016_12_19_S10 12/19/2016 23:20:00 0.0
2016_12_19_S10 12/19/2016 23:25:00 0.0
2016_12_19_S10 12/19/2016 23:30:00 0.0
2016_12_19_S10 12/19/2016 23:35:00 0.0
2016_12_19_S10 12/19/2016 23:40:00 0.0
2016_12_19_S10 12/19/2016 23:45:00 0.0
2016_12_19_S10 12/19/2016 23:50:00 0.0
2016_12_19_S10 12/19/2016 23:55:00 0.0
2016_12_19_S10 12/20/2016 00:00:00 0.0
2016_12_19_S10 12/20/2016 00:05:00 0.0
2016_12_19_S10 12/20/2016 00:10:00 0.0
2016_12_19_S10 12/20/2016 00:15:00 0.0
2016_12_19_S10 12/20/2016 00:20:00 0.0
2016_12_19_S10 12/20/2016 00:25:00 0.0
2016_12_19_S10 12/20/2016 00:30:00 0.0
2016_12_19_S10 12/20/2016 00:35:00 0.0
2016_12_19_S10 12/20/2016 00:40:00 0.0
2016_12_19_S10 12/20/2016 00:45:00 0.0
2016_12_19_S10 12/20/2016 00:50:00 0.0
2016_12_19_S10 12/20/2016 00:55:00 0.0
2016_12_19_S10 12/20/2016 01:00:00 0.0
2016_12_19_S10 12/20/2016 01:05:00 0.0
2016_12_19_S10 12/20/2016 01:10:00 0.0
2016_12_19_S10 12/20/2016 01:15:00 0.0
2016_12_19_S10 12/20/2016 01:20:00 0.0
2016_12_19_S10 12/20/2016 01:25:00 0.0
2016_12_19_S10 12/20/2016 01:30:00 0.0
2016_12_19_S10 12/20/2016 01:35:00 0.0
2016_12_19_S10 12/20/2016 01:40:00 0.0
2016_12_19_S10 12/20/2016 01:45:00 0.0
2016_12_19_S10 12/20/2016 01:50:00 0.0
2016_12_19_S10 12/20/2016 01:55:00 0.0
2016_12_19_S10 12/20/2016 02:00:00 0.0
2016_12_19_S10 12/20/2016 02:05:00 0.0
2016_12_19_S10 12/20/2016 02:10:00 0.0
2016_12_19_S10 12/20/2016 02:15:00 0.0
2016_12_19_S10 12/20/2016 02:20:00 0.0
2016_12_19_S10 12/20/2016 02:25:00 0.0
2016_12_19_S10 12/20/2016 02:30:00 0.0
2016_12_19_S10 12/20/2016 02:35:00 0.0
2016_12_19_S10 12/20/2016 02:40:00 0.0
2016_12_19_S10 12/20/2016 02:45:00 0.0
2016_12_19_S10 12/20/2016 02:50:00 0.0
2016_12_19_S10 12/20/2016 02:55:00 0.0
2016_12_19_S10 12/20/2016 03:00:00 0.0
2016_12_19_S10 12/20/2016 03:05:00 0.0
2016_12_19_S10 12/20/2016 03:10:00 0.0
2016_12_19_S10 12/20/2016 03:15:00 0.0
2016_12_19_S10 12/20/2016 03:20:00 0.0
2016_12_19_S10 12/20/2016 03:25:00 0.0
2016_12_19_S10 12/20/2016 03:30:00 0.0
2016_12_19_S10 12/20/2016 03:35:00 0.0
2016_12_19_S10 12/20/2016 03:40:00 0.0
2016_12_19_S10 12/20/2016 03:45:00 0.0
2016_12_19_S10 12/20/2016 03:50:00 0.0
2016_12_19_S10 12/20/2016 03:55:00 0.0
2016_12_19_S10 12/20/2016 04:00:00 0.0
2016_12_19_S10 12/20/2016 04:05:00 0.0
2016_12_19_S10 12/20/2016 04:10:00 0.0
2016_12_19_S10 12/20/2016 04:15:00 0.0
2016_12_19_S10 12/20/2016 04:20:00 0.0
2016_12_19_S10 12/20/2016 04:25:00 0.0
2016_12_19_S10 12/20/2016 04:30:00 0.0
2016_12_19_S10 12/20/2016 04:35:00 0.0
2016_12_19_S10 12/20/2016 04:40:00 0.0
2016_12_19_S10 12/20/2016 04:45:00 0.0
2016_12_19_S10 12/20/2016 04:50:00 0.0
2016_12_19_S10 12/20/2016 04:55:00 0.0
2016_12_19_S10 12/20/2016 05:00:00 0.0
2016_12_19_S10 12/20/2016 05:05:00 0.0
2016_12_19_S10 12/20/2016 05:10:00 0.0
2016_12_19_S10 12/20/2016 05:15:00 0.0
2016_12_19_S10 12/20/2016 05:20:00 0.0
2016_12_19_S10 12/20/2016 05:25:00 0.0
2016_12_19_S10 12/20/2016 05:30:00 0.0
2016_12_19_S10 12/20/2016 05:35:00 0.0
2016_12_19_S10 12/20/2016 05:40:00 0.0
2016_12_19_S10 12/20/2016 05:45:00 0.0
2016_12_19_S10 12/20/2016 05:50:00 0.0
2016_12_19_S10 12/20/2016 05:55:00 0.0
2016_12_19_S10 12/20/2016 06:00:00 0.0
2016_12_19_S10 12/20/2016 06:05:00 0.0
2016_12_19_S10 12/20/2016 06:10:00 0.0
2016_12_19_S10 12/20/2016 06:15:00 0.0
2016_12_19_S10 12/20/2016 06:20:00 0.0
2016_12_19_S10 12/20/2016 06:25:00 0.0
2016_12_19_S10 12/20/2016 06:30:00 0.0
2016_12_19_S10 12/20/2016 06:35:00 0.0
2016_12_19_S10 12/20/2016 06:40:00 0.0
2016_12_19_S10 12/20/2016 06:45:00 0.0
2016_12_19_S10 12/20/2016 06:50:00 0.0
2016_12_19_S10 12/20/2016 06:55:00 0.0
2016_12_19_S10 12/20/2016 07:00:00 0.0
2016_12_19_S10 12/20/2016 07:05:00 0.0
2016_12_19_S10 12/20/2016 07:10:00 0.0
2016_12_19_S10 12/20/2016 07:15:00 0.0
2016_12_19_S10 12/20/2016 07:20:00 0.0
2016_12_19_S10 12/20/2016 07:25:00 0.0
2016_12_19_S10 12/20/2016 07:30:00 0.0
2016_12_19_S10 12/20/2016 07:35:00 0.0
2016_12_19_S10 12/20/2016 07:40:00 0.0
2016_12_19_S10 12/20/2016 07:45:00 0.0
2016_12_19_S10 12/20/2016 07:50:00 0.0
2016_12_19_S10 12/20/2016 07:55:00 0.0
2016_12_19_S10 12/20/2016 08:00:00 0.0

2016_12_19_S11 12/19/2016 15:20:00 0.2641
2016_12_19_S11 12/19/2016 15:25:00 0.8812
2016_12_19_S11 12/19/2016 15:30:00 0.0685
2016_12_19_S11 12/19/2016 15:35:00 0.0046
2016_12_19_S11 12/19/2016 15:40:00 0.001
2016_12_19_S11 12/19/2016 15:45:00 0.2306
2016_12_19_S11 12/19/2016 15:50:00 1.4959
2016_12_19_S11 12/19/2016 15:55:00 1.1812
2016_12_19_S11 12/19/2016 16:00:00 0.8821
2016_12_19_S11 12/19/2016 16:05:00 1.7519
2016_12_19_S11 12/19/2016 16:10:00 1.9538
2016_12_19_S11 12/19/2016 16:15:00 2.7276
2016_12_19_S11 12/19/2016 16:20:00 3.0454
2016_12_19_S11 12/19/2016 16:25:00 2.9788
2016_12_19_S11 12/19/2016 16:30:00 1.7898
2016_12_19_S11 12/19/2016 16:35:00 3.8279
2016_12_19_S11 12/19/2016 16:40:00 0.5047
2016_12_19_S11 12/19/2016 16:45:00 0.1678
2016_12_19_S11 12/19/2016 16:50:00 0.0942
2016_12_19_S11 12/19/2016 16:55:00 0.0612
2016_12_19_S11 12/19/2016 17:00:00 0.0603
2016_12_19_S11 12/19/2016 17:05:00 0.0656
2016_12_19_S11 12/19/2016 17:10:00 0.2065
2016_12_19_S11 12/19/2016 17:15:00 0.5968
2016_12_19_S11 12/19/2016 17:20:00 0.1606
2016_12_19_S11 12/19/2016 17:25:00 0.1055
2016_12_19_S11 12/19/2016 17:30:00 0.0439
2016_12_19_S11 12/19/2016 17:35:00 0.0189
2016_12_19_S11 12/19/2016 17:40:00 0.0485
2016_12_19_S11 12/19/2016 17:45:00 0.0121
2016_12_19_S11 12/19/2016 17:50:00 0.0
2016_12_19_S11 12/19/2016 17:55:00 0.0
2016_12_19_S11 12/19/2016 18:00:00 0.0
2016_12_19_S11 12/19/2016 18:05:00 0.0
2016_12_19_S11 12/19/2016 18:10:00 0.0
2016_12_19_S11 12/19/2016 18:15:00 0.0
2016_12_19_S11 12/19/2016 18:20:00 0.0
2016_12_19_S11 12/19/2016 18:25:00 0.0
2016_12_19_S11 12/19/2016 18:30:00 0.0
2016_12_19_S11 12/19/2016 18:35:00 0.0
2016_12_19_S11 12/19/2016 18:40:00 0.0
2016_12_19_S11 12/19/2016 18:45:00 0.0
2016_12_19_S11 12/19/2016 18:50:00 0.0
2016_12_19_S11 12/19/2016 18:55:00 0.0
2016_12_19_S11 12/19/2016 19:00:00 0.0
2016_12_19_S11 12/19/2016 19:05:00 0.0
2016_12_19_S11 12/19/2016 19:10:00 0.0009
2016_12_19_S11 12/19/2016 19:15:00 0.0109
2016_12_19_S11 12/19/2016 19:20:00 0.0858
2016_12_19_S11 12/19/2016 19:25:00 0.0417
2016_12_19_S11 12/19/2016 19:30:00 0.055
2016_12_19_S11 12/19/2016 19:35:00 0.0852
2016_12_19_S11 12/19/2016 19:40:00 0.0268
2016_12_19_S11 12/19/2016 19:45:00 0.0078
2016_12_19_S11 12/19/2016 19:50:00 0.0
2016_12_19_S11 12/19/2016 19:55:00 0.0
2016_12_19_S11 12/19/2016 20:00:00 0.0
2016_12_19_S11 12/19/2016 20:05:00 0.0
2016_12_19_S11 12/19/2016 20:10:00 0.0
2016_12_19_S11 12/19/2016 20:15:00 0.0
2016_12_19_S11 12/19/2016 20:20:00 0.0
2016_12_19_S11 12/19/2016 20:25:00 0.0
2016_12_19_S11 12/19/2016 20:30:00 0.0
2016_12_19_S11 12/19/2016 20:35:00 0.0
2016_12_19_S11 12/19/2016 20:40:00 0.0
2016_12_19_S11 12/19/2016 20:45:00 0.0
2016_12_19_S11 12/19/2016 20:50:00 0.0
2016_12_19_S11 12/19/2016 20:55:00 0.0
2016_12_19_S11 12/19/2016 21:00:00 0.0
2016_12_19_S11 12/19/2016 21:05:00 0.0
2016_12_19_S11 12/19/2016 21:10:00 0.0
2016_12_19_S11 12/19/2016 21:15:00 0.0
2016_12_19_S11 12/19/2016 21:20:00 0.0
2016_12_19_S11 12/19/2016 21:25:00 0.0
2016_12_19_S11 12/19/2016 21:30:00 0.0
2016_12_19_S11 12/19/2016 21:35:00 0.0
2016_12_19_S11 12/19/2016 21:40:00 0.0
2016_12_19_S11 12/19/2016 21:45:00 0.0
2016_12_19_S11 12/19/2016 21:50:00 0.0
2016_12_19_S11 12/19/2016 21:55:00 0.0
2016_12_19_S11 12/19/2016 22:00:00 0.0
2016_12_19_S11 12/19/2016 22:05:00 0.0
2016_12_19_S11 12/19/2016 22:10:00 0.0
2016_12_19_S11 12/19/2016 22:15:00 0.0
2016_12_19_S11 12/19/2016 22:20:00 0.0
2016_12_19_S11 12/19/2016 22:25:00 0.0
2016_12_19_S11 12/19/2016 22:30:00 0.0
2016_12_19_S11 12/19/2016 22:35:00 0.0
2016_12_19_S11 12/19/2016 22:40:00 0.0
2016_12_19_S11 12/19/2016 22:45:00 0.0
2016_12_19_S11 12/19/2016 22:50:00 0.0
2016_12_19_S11 12/19/2016 22:55:00 0.0
2016_12_19_S11 12/19/2016 23:00:00 0.0
2016_12_19_S11 12/19/2016 23:05:00 0.0
2016_12_19_S11 12/19/2016 23:10:00 0.0
2016_12_19_S11 12/19/2016 23:15:00 0.0
2016_12_19_S11 12/19/2016 23:20:00 0.0
2016_12_19_S11 12/19/2016 23:25:00 0.0
2016_12_19_S11 12/19/2016 23:30:00 0.0
2016_12_19_S11 12/19/2016 23:35:00 0.0
2016_12_19_S11 12/19/2016 23:40:00 0.0
2016_12_19_S11 12/19/2016 23:45:00 0.0
2016_12_19_S11 12/19/2016 23:50:00 0.0
2016_12_19_S11 12/19/2016 23:55:00 0.0
2016_12_19_S11 12/20/2016 00:00:00 0.0
2016_12_19_S11 12/20/2016 00:05:00 0.0
2016_12_19_S11 12/20/2016 00:10:00 0.0
2016_12_19_S11 12/20/2016 00:15:00 0.0
2016_12_19_S11 12/20/2016 00:20:00 0.0
2016_12_19_S11 12/20/2016 00:25:00 0.0
2016_12_19_S11 12/20/2016 00:30:00 0.0
2016_12_19_S11 12/20/2016 00:35:00 0.0
2016_12_19_S11 12/20/2016 00:40:00 0.0
2016_12_19_S11 12/20/2016 00:45:00 0.0
2016_12_19_S11 12/20/2016 00:50:00 0.0
2016_12_19_S11 12/20/2016 00:55:00 0.0
2016_12_19_S11 12/20/2016 01:00:00 0.0
2016_12_19_S11 12/20/2016 01:05:00 0.0
2016_12_19_S11 12/20/2016 01:10:00 0.0
2016_12_19_S11 12/20/2016 01:15:00 0.0
2016_12_19_S11 12/20/2016 01:20:00 0.0
2016_12_19_S11 12/20/2016 01:25:00 0.0
2016_12_19_S11 12/20/2016 01:30:00 0.0
2016_12_19_S11 12/20/2016 01:35:00 0.0
2016_12_19_S11 12/20/2016 01:40:00 0.0
2016_12_19_S11 12/20/2016 01:45:00 0.0
2016_12_19_S11 12/20/2016 01:50:00 0.0
2016_12_19_S11 12/20/2016 01:55:00 0.0
2016_12_19_S11 12/20/2016 02:00:00 0.0
2016_12_19_S11 12/20/2016 02:05:00 0.0
2016_12_19_S11 12/20/2016 02:10:00 0.0
2016_12_19_S11 12/20/2016 02:15:00 0.0
2016_12_19_S11 12/20/2016 02:20:00 0.0
2016_12_19_S11 12/20/2016 02:25:00 0.0
2016_12_19_S11 12/20/2016 02:30:00 0.0
2016_12_19_S11 12/20/2016 02:35:00 0.0
2016_12_19_S11 12/20/2016 02:40:00 0.0
2016_12_19_S11 12/20/2016 02:45:00 0.0
2016_12_19_S11 12/20/2016 02:50:00 0.0
2016_12_19_S11 12/20/2016 02:55:00 0.0
2016_12_19_S11 12/20/2016 03:00:00 0.0
2016_12_19_S11 12/20/2016 03:05:00 0.0
2016_12_19_S11 12/20/2016 03:10:00 0.0
2016_12_19_S11 12/20/2016 03:15:00 0.0
2016_12_19_S11 12/20/2016 03:20:00 0.0
2016_12_19_S11 12/20/2016 03:25:00 0.0
2016_12_19_S11 12/20/2016 03:30:00 0.0
2016_12_19_S11 12/20/2016 03:35:00 0.0
2016_12_19_S11 12/20/2016 03:40:00 0.0
2016_12_19_S11 12/20/2016 03:45:00 0.0
2016_12_19_S11 12/20/2016 03:50:00 0.0
2016_12_19_S11 12/20/2016 03:55:00 0.0
2016_12_19_S11 12/20/2016 04:00:00 0.0
2016_12_19_S11 12/20/2016 04:05:00 0.0
2016_12_19_S11 12/20/2016 04:10:00 0.0
2016_12_19_S11 12/20/2016 04:15:00 0.0
2016_12_19_S11 12/20/2016 04:20:00 0.0
2016_12_19_S11 12/20/2016 04:25:00 0.0
2016_12_19_S11 12/20/2016 04:30:00 0.0
2016_12_19_S11 12/20/2016 04:35:00 0.0
2016_12_19_S11 12/20/2016 04:40:00 0.0
2016_12_19_S11 12/20/2016 04:45:00 0.0
2016_12_19_S11 12/20/2016 04:50:00 0.0
2016_12_19_S11 12/20/2016 04:55:00 0.0
2016_12_19_S11 12/20/2016 05:00:00 0.0
2016_12_19_S11 12/20/2016 05:05:00 0.0
2016_12_19_S11 12/20/2016 05:10:00 0.0
2016_12_19_S11 12/20/2016 05:15:00 0.0
2016_12_19_S11 12/20/2016 05:20:00 0.0
2016_12_19_S11 12/20/2016 05:25:00 0.0
2016_12_19_S11 12/20/2016 05:30:00 0.0
2016_12_19_S11 12/20/2016 05:35:00 0.0
2016_12_19_S11 12/20/2016 05:40:00 0.0
2016_12_19_S11 12/20/2016 05:45:00 0.0
2016_12_19_S11 12/20/2016 05:50:00 0.0
2016_12_19_S11 12/20/2016 05:55:00 0.0
2016_12_19_S11 12/20/2016 06:00:00 0.0
2016_12_19_S11 12/20/2016 06:05:00 0.0
2016_12_19_S11 12/20/2016 06:10:00 0.0
2016_12_19_S11 12/20/2016 06:15:00 0.0
2016_12_19_S11 12/20/2016 06:20:00 0.0
2016_12_19_S11 12/20/2016 06:25:00 0.0
2016_12_19_S11 12/20/2016 06:30:00 0.0
2016_12_19_S11 12/20/2016 06:35:00 0.0
2016_12_19_S11 12/20/2016 06:40:00 0.0
2016_12_19_S11 12/20/2016 06:45:00 0.0
2016_12_19_S11 12/20/2016 06:50:00 0.0
2016_12_19_S11 12/20/2016 06:55:00 0.0
2016_12_19_S11 12/20/2016 07:00:00 0.0
2016_12_19_S11 12/20/2016 07:05:00 0.0
2016_12_19_S11 12/20/2016 07:10:00 0.0
2016_12_19_S11 12/20/2016 07:15:00 0.0
2016_12_19_S11 12/20/2016 07:20:00 0.0
2016_12_19_S11 12/20/2016 07:25:00 0.0
2016_12_19_S11 12/20/2016 07:30:00 0.0
2016_12_19_S11 12/20/2016 07:35:00 0.0
2016_12_19_S11 12/20/2016 07:40:00 0.0
2016_12_19_S11 12/20/2016 07:45:00 0.0
2016_12_19_S11 12/20/2016 07:50:00 0.0
2016_12_19_S11 12/20/2016 07:55:00 0.0
2016_12_19_S11 12/20/2016 08:00:00 0.0

2016_12_19_S12 12/19/2016 15:20:00 0.3992
2016_12_19_S12 12/19/2016 15:25:00 0.8046
2016_12_19_S12 12/19/2016 15:30:00 0.0296
2016_12_19_S12 12/19/2016 15:35:00 0.0087
2016_12_19_S12 12/19/2016 15:40:00 0.0
2016_12_19_S12 12/19/2016 15:45:00 0.2225
2016_12_19_S12 12/19/2016 15:50:00 1.3202
2016_12_19_S12 12/19/2016 15:55:00 2.6923
2016_12_19_S12 12/19/2016 16:00:00 0.3655
2016_12_19_S12 12/19/2016 16:05:00 0.918
2016_12_19_S12 12/19/2016 16:10:00 0.5323
2016_12_19_S12 12/19/2016 16:15:00 1.4473
2016_12_19_S12 12/19/2016 16:20:00 1.3353
2016_12_19_S12 12/19/2016 16:25:00 3.2805
2016_12_19_S12 12/19/2016 16:30:00 2.1817
2016_12_19_S12 12/19/2016 16:35:00 4.9036
2016_12_19_S12 12/19/2016 16:40:00 0.5636
2016_12_19_S12 12/19/2016 16:45:00 0.2578
2016_12_19_S12 12/19/2016 16:50:00 0.1557
2016_12_19_S12 12/19/2016 16:55:00 0.0772
2016_12_19_S12 12/19/2016 17:00:00 0.067
2016_12_19_S12 12/19/2016 17:05:00 0.0849
2016_12_19_S12 12/19/2016 17:10:00 0.1666
2016_12_19_S12 12/19/2016 17:15:00 0.462
2016_12_19_S12 12/19/2016 17:20:00 0.1225
2016_12_19_S12 12/19/2016 17:25:00 0.0461
2016_12_19_S12 12/19/2016 17:30:00 0.0209
2016_12_19_S12 12/19/2016 17:35:00 0.0098
2016_12_19_S12 12/19/2016 17:40:00 0.0246
2016_12_19_S12 12/19/2016 17:45:00 0.0084
2016_12_19_S12 12/19/2016 17:50:00 0.0
2016_12_19_S12 12/19/2016 17:55:00 0.0
2016_12_19_S12 12/19/2016 18:00:00 0.0
2016_12_19_S12 12/19/2016 18:05:00 0.0
2016_12_19_S12 12/19/2016 18:10:00 0.0
2016_12_19_S12 12/19/2016 18:15:00 0.0
2016_12_19_S12 12/19/2016 18:20:00 0.0
2016_12_19_S12 12/19/2016 18:25:00 0.0
2016_12_19_S12 12/19/2016 18:30:00 0.0
2016_12_19_S12 12/19/2016 18:35:00 0.0
2016_12_19_S12 12/19/2016 18:40:00 0.0
2016_12_19_S12 12/19/2016 18:45:00 0.0
2016_12_19_S12 12/19/2016 18:50:00 0.0
2016_12_19_S12 12/19/2016 18:55:00 0.0
2016_12_19_S12 12/19/2016 19:00:00 0.0
2016_12_19_S12 12/19/2016 19:05:00 0.0
2016_12_19_S12 12/19/2016 19:10:00 0.0
2016_12_19_S12 12/19/2016 19:15:00 0.0101
2016_12_19_S12 12/19/2016 19:20:00 0.0897
2016_12_19_S12 12/19/2016 19:25:00 0.027
2016_12_19_S12 12/19/2016 19:30:00 0.0592
2016_12_19_S12 12/19/2016 19:35:00 0.1145
2016_12_19_S12 12/19/2016 19:40:00 0.0284
2016_12_19_S12 12/19/2016 19:45:00 0.0097
2016_12_19_S12 12/19/2016 19:50:00 0.0
2016_12_19_S12 12/19/2016 19:55:00 0.0
2016_12_19_S12 12/19/2016 20:00:00 0.0
2016_12_19_S12 12/19/2016 20:05:00 0.0
2016_12_19_S12 12/19/2016 20:10:00 0.0
2016_12_19_S12 12/19/2016 20:15:00 0.0
2016_12_19_S12 12/19/2016 20:20:00 0.0
2016_12_19_S12 12/19/2016 20:25:00 0.0
2016_12_19_S12 12/19/2016 20:30:00 0.0
2016_12_19_S12 12/19/2016 20:35:00 0.0
2016_12_19_S12 12/19/2016 20:40:00 0.0
2016_12_19_S12 12/19/2016 20:45:00 0.0
2016_12_19_S12 12/19/2016 20:50:00 0.0
2016_12_19_S12 12/19/2016 20:55:00 0.0
2016_12_19_S12 12/19/2016 21:00:00 0.0
2016_12_19_S12 12/19/2016 21:05:00 0.0
2016_12_19_S12 12/19/2016 21:10:00 0.0
2016_12_19_S12 12/19/2016 21:15:00 0.0
2016_12_19_S12 12/19/2016 21:20:00 0.0
2016_12_19_S12 12/19/2016 21:25:00 0.0
2016_12_19_S12 12/19/2016 21:30:00 0.0
2016_12_19_S12 12/19/2016 21:35:00 0.0
2016_12_19_S12 12/19/2016 21:40:00 0.0
2016_12_19_S12 12/19/2016 21:45:00 0.0
2016_12_19_S12 12/19/2016 21:50:00 0.0
2016_12_19_S12 12/19/2016 21:55:00 0.0
2016_12_19_S12 12/19/2016 22:00:00 0.0
2016_12_19_S12 12/19/2016 22:05:00 0.0
2016_12_19_S12 12/19/2016 22:10:00 0.0
2016_12_19_S12 12/19/2016 22:15:00 0.0
2016_12_19_S12 12/19/2016 22:20:00 0.0
2016_12_19_S12 12/19/2016 22:25:00 0.0
2016_12_19_S12 12/19/2016 22:30:00 0.0
2016_12_19_S12 12/19/2016 22:35:00 0.0
2016_12_19_S12 12/19/2016 22:40:00 0.0
2016_12_19_S12 12/19/2016 22:45:00 0.0
2016_12_19_S12 12/19/2016 22:50:00 0.0
2016_12_19_S12 12/19/2016 22:55:00 0.0
2016_12_19_S12 12/19/2016 23:00:00 0.0
2016_12_19_S12 12/19/2016 23:05:00 0.0
2016_12_19_S12 12/19/2016 23:10:00 0.0
2016_12_19_S12 12/19/2016 23:15:00 0.0
2016_12_19_S12 12/19/2016 23:20:00 0.0
2016_12_19_S12 12/19/2016 23:25:00 0.0
2016_12_19_S12 12/19/2016 23:30:00 0.0
2016_12_19_S12 12/19/2016 23:35:00 0.0
2016_12_19_S12 12/19/2016 23:40:00 0.0
2016_12_19_S12 12/19/2016 23:45:00 0.0
2016_12_19_S12 12/19/2016 23:50:00 0.0
2016_12_19_S12 12/19/2016 23:55:00 0.0
2016_12_19_S12 12/20/2016 00:00:00 0.0
2016_12_19_S12 12/20/2016 00:05:00 0.0
2016_12_19_S12 12/20/2016 00:10:00 0.0
2016_12_19_S12 12/20/2016 00:15:00 0.0
2016_12_19_S12 12/20/2016 00:20:00 0.0
2016_12_19_S12 12/20/2016 00:25:00 0.0
2016_12_19_S12 12/20/2016 00:30:00 0.0
2016_12_19_S12 12/20/2016 00:35:00 0.0
2016_12_19_S12 12/20/2016 00:40:00 0.0
2016_12_19_S12 12/20/2016 00:45:00 0.0
2016_12_19_S12 12/20/2016 00:50:00 0.0
2016_12_19_S12 12/20/2016 00:55:00 0.0
2016_12_19_S12 12/20/2016 01:00:00 0.0
2016_12_19_S12 12/20/2016 01:05:00 0.0
2016_12_19_S12 12/20/2016 01:10:00 0.0
2016_12_19_S12 12/20/2016 01:15:00 0.0
2016_12_19_S12 12/20/2016 01:20:00 0.0
2016_12_19_S12 12/20/2016 01:25:00 0.0
2016_12_19_S12 12/20/2016 01:30:00 0.0
2016_12_19_S12 12/20/2016 01:35:00 0.0
2016_12_19_S12 12/20/2016 01:40:00 0.0
2016_12_19_S12 12/20/2016 01:45:00 0.0
2016_12_19_S12 12/20/2016 01:50:00 0.0
2016_12_19_S12 12/20/2016 01:55:00 0.0
2016_12_19_S12 12/20/2016 02:00:00 0.0
2016_12_19_S12 12/20/2016 02:05:00 0.0
2016_12_19_S12 12/20/2016 02:10:00 0.0
2016_12_19_S12 12/20/2016 02:15:00 0.0
2016_12_19_S12 12/20/2016 02:20:00 0.0
2016_12_19_S12 12/20/2016 02:25:00 0.0
2016_12_19_S12 12/20/2016 02:30:00 0.0
2016_12_19_S12 12/20/2016 02:35:00 0.0
2016_12_19_S12 12/20/2016 02:40:00 0.0
2016_12_19_S12 12/20/2016 02:45:00 0.0
2016_12_19_S12 12/20/2016 02:50:00 0.0
2016_12_19_S12 12/20/2016 02:55:00 0.0
2016_12_19_S12 12/20/2016 03:00:00 0.0
2016_12_19_S12 12/20/2016 03:05:00 0.0
2016_12_19_S12 12/20/2016 03:10:00 0.0
2016_12_19_S12 12/20/2016 03:15:00 0.0
2016_12_19_S12 12/20/2016 03:20:00 0.0
2016_12_19_S12 12/20/2016 03:25:00 0.0
2016_12_19_S12 12/20/2016 03:30:00 0.0
2016_12_19_S12 12/20/2016 03:35:00 0.0
2016_12_19_S12 12/20/2016 03:40:00 0.0
2016_12_19_S12 12/20/2016 03:45:00 0.0
2016_12_19_S12 12/20/2016 03:50:00 0.0
2016_12_19_S12 12/20/2016 03:55:00 0.0
2016_12_19_S12 12/20/2016 04:00:00 0.0
2016_12_19_S12 12/20/2016 04:05:00 0.0
2016_12_19_S12 12/20/2016 04:10:00 0.0
2016_12_19_S12 12/20/2016 04:15:00 0.0
2016_12_19_S12 12/20/2016 04:20:00 0.0
2016_12_19_S12 12/20/2016 04:25:00 0.0
2016_12_19_S12 12/20/2016 04:30:00 0.0
2016_12_19_S12 12/20/2016 04:35:00 0.0
2016_12_19_S12 12/20/2016 04:40:00 0.0
2016_12_19_S12 12/20/2016 04:45:00 0.0
2016_12_19_S12 12/20/2016 04:50:00 0.0
2016_12_19_S12 12/20/2016 04:55:00 0.0
2016_12_19_S12 12/20/2016 05:00:00 0.0
2016_12_19_S12 12/20/2016 05:05:00 0.0
2016_12_19_S12 12/20/2016 05:10:00 0.0
2016_12_19_S12 12/20/2016 05:15:00 0.0
2016_12_19_S12 12/20/2016 05:20:00 0.0
2016_12_19_S12 12/20/2016 05:25:00 0.0
2016_12_19_S12 12/20/2016 05:30:00 0.0
2016_12_19_S12 12/20/2016 05:35:00 0.0
2016_12_19_S12 12/20/2016 05:40:00 0.0
2016_12_19_S12 12/20/2016 05:45:00 0.0
2016_12_19_S12 12/20/2016 05:50:00 0.0
2016_12_19_S12 12/20/2016 05:55:00 0.0
2016_12_19_S12 12/20/2016 06:00:00 0.0
2016_12_19_S12 12/20/2016 06:05:00 0.0
2016_12_19_S12 12/20/2016 06:10:00 0.0
2016_12_19_S12 12/20/2016 06:15:00 0.0
2016_12_19_S12 12/20/2016 06:20:00 0.0
2016_12_19_S12 12/20/2016 06:25:00 0.0
2016_12_19_S12 12/20/2016 06:30:00 0.0
2016_12_19_S12 12/20/2016 06:35:00 0.0
2016_12_19_S12 12/20/2016 06:40:00 0.0
2016_12_19_S12 12/20/2016 06:45:00 0.0
2016_12_19_S12 12/20/2016 06:50:00 0.0
2016_12_19_S12 12/20/2016 06:55:00 0.0
2016_12_19_S12 12/20/2016 07:00:00 0.0
2016_12_19_S12 12/20/2016 07:05:00 0.0
2016_12_19_S12 12/20/2016 07:10:00 0.0
2016_12_19_S12 12/20/2016 07:15:00 0.0
2016_12_19_S12 12/20/2016 07:20:00 0.0
2016_12_19_S12 12/20/2016 07:25:00 0.0
2016_12_19_S12 12/20/2016 07:30:00 0.0
2016_12_19_S12 12/20/2016 07:35:00 0.0
2016_12_19_S12 12/20/2016 07:40:00 0.0
2016_12_19_S12 12/20/2016 07:45:00 0.0
2016_12_19_S12 12/20/2016 07:50:00 0.0
2016_12_19_S12 12/20/2016 07:55:00 0.0
2016_12_19_S12 12/20/2016 08:00:00 0.0

2016_12_19_S13 12/19/2016 15:20:00 0.2142
2016_12_19_S13 12/19/2016 15:25:00 0.9256
2016_12_19_S13 12/19/2016 15:30:00 0.147
2016_12_19_S13 12/19/2016 15:35:00 0.005
2016_12_19_S13 12/19/2016 15:40:00 0.0016
2016_12_19_S13 12/19/2016 15:45:00 0.1337
2016_12_19_S13 12/19/2016 15:50:00 1.4279
2016_12_19_S13 12/19/2016 15:55:00 0.9348
2016_12_19_S13 12/19/2016 16:00:00 1.0573
2016_12_19_S13 12/19/2016 16:05:00 1.7612
2016_12_19_S13 12/19/2016 16:10:00 2.2816
2016_12_19_S13 12/19/2016 16:15:00 1.9419
2016_12_19_S13 12/19/2016 16:20:00 3.7075
2016_12_19_S13 12/19/2016 16:25:00 4.9922
2016_12_19_S13 12/19/2016 16:30:00 1.9639
2016_12_19_S13 12/19/2016 16:35:00 3.1289
2016_12_19_S13 12/19/2016 16:40:00 0.8062
2016_12_19_S13 12/19/2016 16:45:00 0.1686
2016_12_19_S13 12/19/2016 16:50:00 0.1109
2016_12_19_S13 12/19/2016 16:55:00 0.0604
2016_12_19_S13 12/19/2016 17:00:00 0.0762
2016_12_19_S13 12/19/2016 17:05:00 0.071
2016_12_19_S13 12/19/2016 17:10:00 0.1662
2016_12_19_S13 12/19/2016 17:15:00 0.4272
2016_12_19_S13 12/19/2016 17:20:00 0.1997
2016_12_19_S13 12/19/2016 17:25:00 0.1089
2016_12_19_S13 12/19/2016 17:30:00 0.0521
2016_12_19_S13 12/19/2016 17:35:00 0.0238
2016_12_19_S13 12/19/2016 17:40:00 0.0553
2016_12_19_S13 12/19/2016 17:45:00 0.0185
2016_12_19_S13 12/19/2016 17:50:00 0.0
2016_12_19_S13 12/19/2016 17:55:00 0.0
2016_12_19_S13 12/19/2016 18:00:00 0.0005
2016_12_19_S13 12/19/2016 18:05:00 0.0
2016_12_19_S13 12/19/2016 18:10:00 0.0
2016_12_19_S13 12/19/2016 18:15:00 0.0
2016_12_19_S13 12/19/2016 18:20:00 0.0
2016_12_19_S13 12/19/2016 18:25:00 0.0
2016_12_19_S13 12/19/2016 18:30:00 0.0
2016_12_19_S13 12/19/2016 18:35:00 0.0
2016_12_19_S13 12/19/2016 18:40:00 0.0
2016_12_19_S13 12/19/2016 18:45:00 0.0
2016_12_19_S13 12/19/2016 18:50:00 0.0
2016_12_19_S13 12/19/2016 18:55:00 0.0
2016_12_19_S13 12/19/2016 19:00:00 0.0
2016_12_19_S13 12/19/2016 19:05:00 0.0
2016_12_19_S13 12/19/2016 19:10:00 0.0
2016_12_19_S13 12/19/2016 19:15:00 0.01
2016_12_19_S13 12/19/2016 19:20:00 0.0503
2016_12_19_S13 12/19/2016 19:25:00 0.0598
2016_12_19_S13 12/19/2016 19:30:00 0.0317
2016_12_19_S13 12/19/2016 19:35:00 0.0844
2016_12_19_S13 12/19/2016 19:40:00 0.0269
2016_12_19_S13 12/19/2016 19:45:00 0.0089
2016_12_19_S13 12/19/2016 19:50:00 0.0
2016_12_19_S13 12/19/2016 19:55:00 0.0
2016_12_19_S13 12/19/2016 20:00:00 0.0
2016_12_19_S13 12/19/2016 20:05:00 0.0
2016_12_19_S13 12/19/2016 20:10:00 0.0
2016_12_19_S13 12/19/2016 20:15:00 0.0
2016_12_19_S13 12/19/2016 20:20:00 0.0
2016_12_19_S13 12/19/2016 20:25:00 0.0
2016_12_19_S13 12/19/2016 20:30:00 0.0
2016_12_19_S13 12/19/2016 20:35:00 0.0
2016_12_19_S13 12/19/2016 20:40:00 0.0
2016_12_19_S13 12/19/2016 20:45:00 0.0
2016_12_19_S13 12/19/2016 20:50:00 0.0
2016_12_19_S13 12/19/2016 20:55:00 0.0
2016_12_19_S13 12/19/2016 21:00:00 0.0
2016_12_19_S13 12/19/2016 21:05:00 0.0
2016_12_19_S13 12/19/2016 21:10:00 0.0
2016_12_19_S13 12/19/2016 21:15:00 0.0
2016_12_19_S13 12/19/2016 21:20:00 0.0
2016_12_19_S13 12/19/2016 21:25:00 0.0
2016_12_19_S13 12/19/2016 21:30:00 0.0
2016_12_19_S13 12/19/2016 21:35:00 0.0
2016_12_19_S13 12/19/2016 21:40:00 0.0
2016_12_19_S13 12/19/2016 21:45:00 0.0
2016_12_19_S13 12/19/2016 21:50:00 0.0
2016_12_19_S13 12/19/2016 21:55:00 0.0
2016_12_19_S13 12/19/2016 22:00:00 0.0
2016_12_19_S13 12/19/2016 22:05:00 0.0
2016_12_19_S13 12/19/2016 22:10:00 0.0
2016_12_19_S13 12/19/2016 22:15:00 0.0
2016_12_19_S13 12/19/2016 22:20:00 0.0
2016_12_19_S13 12/19/2016 22:25:00 0.0
2016_12_19_S13 12/19/2016 22:30:00 0.0
2016_12_19_S13 12/19/2016 22:35:00 0.0
2016_12_19_S13 12/19/2016 22:40:00 0.0
2016_12_19_S13 12/19/2016 22:45:00 0.0
2016_12_19_S13 12/19/2016 22:50:00 0.0
2016_12_19_S13 12/19/2016 22:55:00 0.0
2016_12_19_S13 12/19/2016 23:00:00 0.0
2016_12_19_S13 12/19/2016 23:05:00 0.0
2016_12_19_S13 12/19/2016 23:10:00 0.0
2016_12_19_S13 12/19/2016 23:15:00 0.0
2016_12_19_S13 12/19/2016 23:20:00 0.0
2016_12_19_S13 12/19/2016 23:25:00 0.0
2016_12_19_S13 12/19/2016 23:30:00 0.0
2016_12_19_S13 12/19/2016 23:35:00 0.0
2016_12_19_S13 12/19/2016 23:40:00 0.0
2016_12_19_S13 12/19/2016 23:45:00 0.0
2016_12_19_S13 12/19/2016 23:50:00 0.0
2016_12_19_S13 12/19/2016 23:55:00 0.0
2016_12_19_S13 12/20/2016 00:00:00 0.0
2016_12_19_S13 12/20/2016 00:05:00 0.0
2016_12_19_S13 12/20/2016 00:10:00 0.0
2016_12_19_S13 12/20/2016 00:15:00 0.0
2016_12_19_S13 12/20/2016 00:20:00 0.0
2016_12_19_S13 12/20/2016 00:25:00 0.0
2016_12_19_S13 12/20/2016 00:30:00 0.0
2016_12_19_S13 12/20/2016 00:35:00 0.0
2016_12_19_S13 12/20/2016 00:40:00 0.0
2016_12_19_S13 12/20/2016 00:45:00 0.0
2016_12_19_S13 12/20/2016 00:50:00 0.0
2016_12_19_S13 12/20/2016 00:55:00 0.0
2016_12_19_S13 12/20/2016 01:00:00 0.0
2016_12_19_S13 12/20/2016 01:05:00 0.0
2016_12_19_S13 12/20/2016 01:10:00 0.0
2016_12_19_S13 12/20/2016 01:15:00 0.0
2016_12_19_S13 12/20/2016 01:20:00 0.0
2016_12_19_S13 12/20/2016 01:25:00 0.0
2016_12_19_S13 12/20/2016 01:30:00 0.0
2016_12_19_S13 12/20/2016 01:35:00 0.0
2016_12_19_S13 12/20/2016 01:40:00 0.0
2016_12_19_S13 12/20/2016 01:45:00 0.0
2016_12_19_S13 12/20/2016 01:50:00 0.0
2016_12_19_S13 12/20/2016 01:55:00 0.0
2016_12_19_S13 12/20/2016 02:00:00 0.0
2016_12_19_S13 12/20/2016 02:05:00 0.0
2016_12_19_S13 12/20/2016 02:10:00 0.0
2016_12_19_S13 12/20/2016 02:15:00 0.0
2016_12_19_S13 12/20/2016 02:20:00 0.0
2016_12_19_S13 12/20/2016 02:25:00 0.0
2016_12_19_S13 12/20/2016 02:30:00 0.0
2016_12_19_S13 12/20/2016 02:35:00 0.0
2016_12_19_S13 12/20/2016 02:40:00 0.0
2016_12_19_S13 12/20/2016 02:45:00 0.0
2016_12_19_S13 12/20/2016 02:50:00 0.0
2016_12_19_S13 12/20/2016 02:55:00 0.0
2016_12_19_S13 12/20/2016 03:00:00 0.0
2016_12_19_S13 12/20/2016 03:05:00 0.0
2016_12_19_S13 12/20/2016 03:10:00 0.0
2016_12_19_S13 12/20/2016 03:15:00 0.0
2016_12_19_S13 12/20/2016 03:20:00 0.0
2016_12_19_S13 12/20/2016 03:25:00 0.0
2016_12_19_S13 12/20/2016 03:30:00 0.0
2016_12_19_S13 12/20/2016 03:35:00 0.0
2016_12_19_S13 12/20/2016 03:40:00 0.0
2016_12_19_S13 12/20/2016 03:45:00 0.0
2016_12_19_S13 12/20/2016 03:50:00 0.0
2016_12_19_S13 12/20/2016 03:55:00 0.0
2016_12_19_S13 12/20/2016 04:00:00 0.0
2016_12_19_S13 12/20/2016 04:05:00 0.0
2016_12_19_S13 12/20/2016 04:10:00 0.0
2016_12_19_S13 12/20/2016 04:15:00 0.0
2016_12_19_S13 12/20/2016 04:20:00 0.0
2016_12_19_S13 12/20/2016 04:25:00 0.0
2016_12_19_S13 12/20/2016 04:30:00 0.0
2016_12_19_S13 12/20/2016 04:35:00 0.0
2016_12_19_S13 12/20/2016 04:40:00 0.0
2016_12_19_S13 12/20/2016 04:45:00 0.0
2016_12_19_S13 12/20/2016 04:50:00 0.0
2016_12_19_S13 12/20/2016 04:55:00 0.0
2016_12_19_S13 12/20/2016 05:00:00 0.0
2016_12_19_S13 12/20/2016 05:05:00 0.0
2016_12_19_S13 12/20/2016 05:10:00 0.0
2016_12_19_S13 12/20/2016 05:15:00 0.0
2016_12_19_S13 12/20/2016 05:20:00 0.0
2016_12_19_S13 12/20/2016 05:25:00 0.0
2016_12_19_S13 12/20/2016 05:30:00 0.0
2016_12_19_S13 12/20/2016 05:35:00 0.0
2016_12_19_S13 12/20/2016 05:40:00 0.0
2016_12_19_S13 12/20/2016 05:45:00 0.0
2016_12_19_S13 12/20/2016 05:50:00 0.0
2016_12_19_S13 12/20/2016 05:55:00 0.0
2016_12_19_S13 12/20/2016 06:00:00 0.0
2016_12_19_S13 12/20/2016 06:05:00 0.0
2016_12_19_S13 12/20/2016 06:10:00 0.0
2016_12_19_S13 12/20/2016 06:15:00 0.0
2016_12_19_S13 12/20/2016 06:20:00 0.0
2016_12_19_S13 12/20/2016 06:25:00 0.0
2016_12_19_S13 12/20/2016 06:30:00 0.0
2016_12_19_S13 12/20/2016 06:35:00 0.0
2016_12_19_S13 12/20/2016 06:40:00 0.0
2016_12_19_S13 12/20/2016 06:45:00 0.0
2016_12_19_S13 12/20/2016 06:50:00 0.0
2016_12_19_S13 12/20/2016 06:55:00 0.0
2016_12_19_S13 12/20/2016 07:00:00 0.0
2016_12_19_S13 12/20/2016 07:05:00 0.0
2016_12_19_S13 12/20/2016 07:10:00 0.0
2016_12_19_S13 12/20/2016 07:15:00 0.0
2016_12_19_S13 12/20/2016 07:20:00 0.0
2016_12_19_S13 12/20/2016 07:25:00 0.0
2016_12_19_S13 12/20/2016 07:30:00 0.0
2016_12_19_S13 12/20/2016 07:35:00 0.0
2016_12_19_S13 12/20/2016 07:40:00 0.0
2016_12_19_S13 12/20/2016 07:45:00 0.0
2016_12_19_S13 12/20/2016 07:50:00 0.0
2016_12_19_S13 12/20/2016 07:55:00 0.0
2016_12_19_S13 12/20/2016 08:00:00 0.0

2016_12_19_S14 12/19/2016 15:20:00 0.1197
2016_12_19_S14 12/19/2016 15:25:00 0.3354
2016_12_19_S14 12/19/2016 15:30:00 0.0687
2016_12_19_S14 12/19/2016 15:35:00 0.0
2016_12_19_S14 12/19/2016 15:40:00 0.001
2016_12_19_S14 12/19/2016 15:45:00 0.0668
2016_12_19_S14 12/19/2016 15:50:00 0.9733
2016_12_19_S14 12/19/2016 15:55:00 1.0726
2016_12_19_S14 12/19/2016 16:00:00 1.1202
2016_12_19_S14 12/19/2016 16:05:00 4.6278
2016_12_19_S14 12/19/2016 16:10:00 2.9973
2016_12_19_S14 12/19/2016 16:15:00 2.2171
2016_12_19_S14 12/19/2016 16:20:00 4.4572
2016_12_19_S14 12/19/2016 16:25:00 7.797
2016_12_19_S14 12/19/2016 16:30:00 1.4632
2016_12_19_S14 12/19/2016 16:35:00 1.3208
2016_12_19_S14 12/19/2016 16:40:00 1.2543
2016_12_19_S14 12/19/2016 16:45:00 0.1291
2016_12_19_S14 12/19/2016 16:50:00 0.0352
2016_12_19_S14 12/19/2016 16:55:00 0.0616
2016_12_19_S14 12/19/2016 17:00:00 0.1209
2016_12_19_S14 12/19/2016 17:05:00 0.0644
2016_12_19_S14 12/19/2016 17:10:00 0.1192
2016_12_19_S14 12/19/2016 17:15:00 0.3697
2016_12_19_S14 12/19/2016 17:20:00 0.2426
2016_12_19_S14 12/19/2016 17:25:00 0.2662
2016_12_19_S14 12/19/2016 17:30:00 0.0798
2016_12_19_S14 12/19/2016 17:35:00 0.0559
2016_12_19_S14 12/19/2016 17:40:00 0.0864
2016_12_19_S14 12/19/2016 17:45:00 0.0332
2016_12_19_S14 12/19/2016 17:50:00 0.0003
2016_12_19_S14 12/19/2016 17:55:00 0.0
2016_12_19_S14 12/19/2016 18:00:00 0.0
2016_12_19_S14 12/19/2016 18:05:00 0.0
2016_12_19_S14 12/19/2016 18:10:00 0.0
2016_12_19_S14 12/19/2016 18:15:00 0.0
2016_12_19_S14 12/19/2016 18:20:00 0.0
2016_12_19_S14 12/19/2016 18:25:00 0.0
2016_12_19_S14 12/19/2016 18:30:00 0.0
2016_12_19_S14 12/19/2016 18:35:00 0.0
2016_12_19_S14 12/19/2016 18:40:00 0.0
2016_12_19_S14 12/19/2016 18:45:00 0.0
2016_12_19_S14 12/19/2016 18:50:00 0.0
2016_12_19_S14 12/19/2016 18:55:00 0.0
2016_12_19_S14 12/19/2016 19:00:00 0.0
2016_12_19_S14 12/19/2016 19:05:00 0.0
2016_12_19_S14 12/19/2016 19:10:00 0.0
2016_12_19_S14 12/19/2016 19:15:00 0.0085
2016_12_19_S14 12/19/2016 19:20:00 0.0289
2016_12_19_S14 12/19/2016 19:25:00 0.0773
2016_12_19_S14 12/19/2016 19:30:00 0.0233
2016_12_19_S14 12/19/2016 19:35:00 0.0452
2016_12_19_S14 12/19/2016 19:40:00 0.0388
2016_12_19_S14 12/19/2016 19:45:00 0.0074
2016_12_19_S14 12/19/2016 19:50:00 0.0
2016_12_19_S14 12/19/2016 19:55:00 0.0
2016_12_19_S14 12/19/2016 20:00:00 0.0
2016_12_19_S14 12/19/2016 20:05:00 0.0
2016_12_19_S14 12/19/2016 20:10:00 0.0
2016_12_19_S14 12/19/2016 20:15:00 0.0
2016_12_19_S14 12/19/2016 20:20:00 0.0
2016_12_19_S14 12/19/2016 20:25:00 0.0
2016_12_19_S14 12/19/2016 20:30:00 0.0
2016_12_19_S14 12/19/2016 20:35:00 0.0
2016_12_19_S14 12/19/2016 20:40:00 0.0
2016_12_19_S14 12/19/2016 20:45:00 0.0
2016_12_19_S14 12/19/2016 20:50:00 0.0
2016_12_19_S14 12/19/2016 20:55:00 0.0
2016_12_19_S14 12/19/2016 21:00:00 0.0
2016_12_19_S14 12/19/2016 21:05:00 0.0
2016_12_19_S14 12/19/2016 21:10:00 0.0
2016_12_19_S14 12/19/2016 21:15:00 0.0
2016_12_19_S14 12/19/2016 21:20:00 0.0
2016_12_19_S14 12/19/2016 21:25:00 0.0
2016_12_19_S14 12/19/2016 21:30:00 0.0
2016_12_19_S14 12/19/2016 21:35:00 0.0
2016_12_19_S14 12/19/2016 21:40:00 0.0
2016_12_19_S14 12/19/2016 21:45:00 0.0
2016_12_19_S14 12/19/2016 21:50:00 0.0
2016_12_19_S14 12/19/2016 21:55:00 0.0
2016_12_19_S14 12/19/2016 22:00:00 0.0
2016_12_19_S14 12/19/2016 22:05:00 0.0
2016_12_19_S14 12/19/2016 22:10:00 0.0
2016_12_19_S14 12/19/2016 22:15:00 0.0
2016_12_19_S14 12/19/2016 22:20:00 0.0
2016_12_19_S14 12/19/2016 22:25:00 0.0
2016_12_19_S14 12/19/2016 22:30:00 0.0
2016_12_19_S14 12/19/2016 22:35:00 0.0
2016_12_19_S14 12/19/2016 22:40:00 0.0
2016_12_19_S14 12/19/2016 22:45:00 0.0
2016_12_19_S14 12/19/2016 22:50:00 0.0
2016_12_19_S14 12/19/2016 22:55:00 0.0
2016_12_19_S14 12/19/2016 23:00:00 0.0
2016_12_19_S14 12/19/2016 23:05:00 0.0
2016_12_19_S14 12/19/2016 23:10:00 0.0
2016_12_19_S14 12/19/2016 23:15:00 0.0
2016_12_19_S14 12/19/2016 23:20:00 0.0
2016_12_19_S14 12/19/2016 23:25:00 0.0
2016_12_19_S14 12/19/2016 23:30:00 0.0
2016_12_19_S14 12/19/2016 23:35:00 0.0
2016_12_19_S14 12/19/2016 23:40:00 0.0
2016_12_19_S14 12/19/2016 23:45:00 0.0
2016_12_19_S14 12/19/2016 23:50:00 0.0
2016_12_19_S14 12/19/2016 23:55:00 0.0
2016_12_19_S14 12/20/2016 00:00:00 0.0
2016_12_19_S14 12/20/2016 00:05:00 0.0
2016_12_19_S14 12/20/2016 00:10:00 0.0
2016_12_19_S14 12/20/2016 00:15:00 0.0
2016_12_19_S14 12/20/2016 00:20:00 0.0
2016_12_19_S14 12/20/2016 00:25:00 0.0
2016_12_19_S14 12/20/2016 00:30:00 0.0
2016_12_19_S14 12/20/2016 00:35:00 0.0
2016_12_19_S14 12/20/2016 00:40:00 0.0
2016_12_19_S14 12/20/2016 00:45:00 0.0
2016_12_19_S14 12/20/2016 00:50:00 0.0
2016_12_19_S14 12/20/2016 00:55:00 0.0
2016_12_19_S14 12/20/2016 01:00:00 0.0
2016_12_19_S14 12/20/2016 01:05:00 0.0
2016_12_19_S14 12/20/2016 01:10:00 0.0
2016_12_19_S14 12/20/2016 01:15:00 0.0
2016_12_19_S14 12/20/2016 01:20:00 0.0
2016_12_19_S14 12/20/2016 01:25:00 0.0
2016_12_19_S14 12/20/2016 01:30:00 0.0
2016_12_19_S14 12/20/2016 01:35:00 0.0
2016_12_19_S14 12/20/2016 01:40:00 0.0
2016_12_19_S14 12/20/2016 01:45:00 0.0
2016_12_19_S14 12/20/2016 01:50:00 0.0
2016_12_19_S14 12/20/2016 01:55:00 0.0
2016_12_19_S14 12/20/2016 02:00:00 0.0
2016_12_19_S14 12/20/2016 02:05:00 0.0
2016_12_19_S14 12/20/2016 02:10:00 0.0
2016_12_19_S14 12/20/2016 02:15:00 0.0
2016_12_19_S14 12/20/2016 02:20:00 0.0
2016_12_19_S14 12/20/2016 02:25:00 0.0
2016_12_19_S14 12/20/2016 02:30:00 0.0
2016_12_19_S14 12/20/2016 02:35:00 0.0
2016_12_19_S14 12/20/2016 02:40:00 0.0
2016_12_19_S14 12/20/2016 02:45:00 0.0
2016_12_19_S14 12/20/2016 02:50:00 0.0
2016_12_19_S14 12/20/2016 02:55:00 0.0
2016_12_19_S14 12/20/2016 03:00:00 0.0
2016_12_19_S14 12/20/2016 03:05:00 0.0
2016_12_19_S14 12/20/2016 03:10:00 0.0
2016_12_19_S14 12/20/2016 03:15:00 0.0
2016_12_19_S14 12/20/2016 03:20:00 0.0
2016_12_19_S14 12/20/2016 03:25:00 0.0
2016_12_19_S14 12/20/2016 03:30:00 0.0
2016_12_19_S14 12/20/2016 03:35:00 0.0
2016_12_19_S14 12/20/2016 03:40:00 0.0
2016_12_19_S14 12/20/2016 03:45:00 0.0
2016_12_19_S14 12/20/2016 03:50:00 0.0
2016_12_19_S14 12/20/2016 03:55:00 0.0
2016_12_19_S14 12/20/2016 04:00:00 0.0
2016_12_19_S14 12/20/2016 04:05:00 0.0
2016_12_19_S14 12/20/2016 04:10:00 0.0
2016_12_19_S14 12/20/2016 04:15:00 0.0
2016_12_19_S14 12/20/2016 04:20:00 0.0
2016_12_19_S14 12/20/2016 04:25:00 0.0
2016_12_19_S14 12/20/2016 04:30:00 0.0
2016_12_19_S14 12/20/2016 04:35:00 0.0
2016_12_19_S14 12/20/2016 04:40:00 0.0
2016_12_19_S14 12/20/2016 04:45:00 0.0
2016_12_19_S14 12/20/2016 04:50:00 0.0
2016_12_19_S14 12/20/2016 04:55:00 0.0
2016_12_19_S14 12/20/2016 05:00:00 0.0
2016_12_19_S14 12/20/2016 05:05:00 0.0
2016_12_19_S14 12/20/2016 05:10:00 0.0
2016_12_19_S14 12/20/2016 05:15:00 0.0
2016_12_19_S14 12/20/2016 05:20:00 0.0
2016_12_19_S14 12/20/2016 05:25:00 0.0
2016_12_19_S14 12/20/2016 05:30:00 0.0
2016_12_19_S14 12/20/2016 05:35:00 0.0
2016_12_19_S14 12/20/2016 05:40:00 0.0
2016_12_19_S14 12/20/2016 05:45:00 0.0
2016_12_19_S14 12/20/2016 05:50:00 0.0
2016_12_19_S14 12/20/2016 05:55:00 0.0
2016_12_19_S14 12/20/2016 06:00:00 0.0
2016_12_19_S14 12/20/2016 06:05:00 0.0
2016_12_19_S14 12/20/2016 06:10:00 0.0
2016_12_19_S14 12/20/2016 06:15:00 0.0
2016_12_19_S14 12/20/2016 06:20:00 0.0
2016_12_19_S14 12/20/2016 06:25:00 0.0
2016_12_19_S14 12/20/2016 06:30:00 0.0
2016_12_19_S14 12/20/2016 06:35:00 0.0
2016_12_19_S14 12/20/2016 06:40:00 0.0
2016_12_19_S14 12/20/2016 06:45:00 0.0
2016_12_19_S14 12/20/2016 06:50:00 0.0
2016_12_19_S14 12/20/2016 06:55:00 0.0
2016_12_19_S14 12/20/2016 07:00:00 0.0
2016_12_19_S14 12/20/2016 07:05:00 0.0
2016_12_19_S14 12/20/2016 07:10:00 0.0
2016_12_19_S14 12/20/2016 07:15:00 0.0
2016_12_19_S14 12/20/2016 07:20:00 0.0
2016_12_19_S14 12/20/2016 07:25:00 0.0
2016_12_19_S14 12/20/2016 07:30:00 0.0
2016_12_19_S14 12/20/2016 07:35:00 0.0
2016_12_19_S14 12/20/2016 07:40:00 0.0
2016_12_19_S14 12/20/2016 07:45:00 0.0
2016_12_19_S14 12/20/2016 07:50:00 0.0
2016_12_19_S14 12/20/2016 07:55:00 0.0
2016_12_19_S14 12/20/2016 08:00:00 0.0

2016_12_19_S15 12/19/2016 15:20:00 0.0833
2016_12_19_S15 12/19/2016 15:25:00 0.628
2016_12_19_S15 12/19/2016 15:30:00 0.2553
2016_12_19_S15 12/19/2016 15:35:00 0.0068
2016_12_19_S15 12/19/2016 15:40:00 0.001
2016_12_19_S15 12/19/2016 15:45:00 0.0183
2016_12_19_S15 12/19/2016 15:50:00 0.9903
2016_12_19_S15 12/19/2016 15:55:00 0.6241
2016_12_19_S15 12/19/2016 16:00:00 1.7401
2016_12_19_S15 12/19/2016 16:05:00 2.1606
2016_12_19_S15 12/19/2016 16:10:00 2.0244
2016_12_19_S15 12/19/2016 16:15:00 1.7605
2016_12_19_S15 12/19/2016 16:20:00 5.0261
2016_12_19_S15 12/19/2016 16:25:00 4.9739
2016_12_19_S15 12/19/2016 16:30:00 1.4529
2016_12_19_S15 12/19/2016 16:35:00 0.835
2016_12_19_S15 12/19/2016 16:40:00 1.6778
2016_12_19_S15 12/19/2016 16:45:00 0.2003
2016_12_19_S15 12/19/2016 16:50:00 0.0896
2016_12_19_S15 12/19/2016 16:55:00 0.0739
2016_12_19_S15 12/19/2016 17:00:00 0.1368
2016_12_19_S15 12/19/2016 17:05:00 0.0813
2016_12_19_S15 12/19/2016 17:10:00 0.0927
2016_12_19_S15 12/19/2016 17:15:00 0.2529
2016_12_19_S15 12/19/2016 17:20:00 0.2538
2016_12_19_S15 12/19/2016 17:25:00 0.0861
2016_12_19_S15 12/19/2016 17:30:00 0.0725
2016_12_19_S15 12/19/2016 17:35:00 0.0185
2016_12_19_S15 12/19/2016 17:40:00 0.0523
2016_12_19_S15 12/19/2016 17:45:00 0.0219
2016_12_19_S15 12/19/2016 17:50:00 0.0001
2016_12_19_S15 12/19/2016 17:55:00 0.0
2016_12_19_S15 12/19/2016 18:00:00 0.0001
2016_12_19_S15 12/19/2016 18:05:00 0.0
2016_12_19_S15 12/19/2016 18:10:00 0.0
2016_12_19_S15 12/19/2016 18:15:00 0.0
2016_12_19_S15 12/19/2016 18:20:00 0.0
2016_12_19_S15 12/19/2016 18:25:00 0.0
2016_12_19_S15 12/19/2016 18:30:00 0.0
2016_12_19_S15 12/19/2016 18:35:00 0.0
2016_12_19_S15 12/19/2016 18:40:00 0.0
2016_12_19_S15 12/19/2016 18:45:00 0.0
2016_12_19_S15 12/19/2016 18:50:00 0.0
2016_12_19_S15 12/19/2016 18:55:00 0.0
2016_12_19_S15 12/19/2016 19:00:00 0.0
2016_12_19_S15 12/19/2016 19:05:00 0.0
2016_12_19_S15 12/19/2016 19:10:00 0.0
2016_12_19_S15 12/19/2016 19:15:00 0.006
2016_12_19_S15 12/19/2016 19:20:00 0.0276
2016_12_19_S15 12/19/2016 19:25:00 0.0896
2016_12_19_S15 12/19/2016 19:30:00 0.0164
2016_12_19_S15 12/19/2016 19:35:00 0.0469
2016_12_19_S15 12/19/2016 19:40:00 0.0182
2016_12_19_S15 12/19/2016 19:45:00 0.012
2016_12_19_S15 12/19/2016 19:50:00 0.0006
2016_12_19_S15 12/19/2016 19:55:00 0.0
2016_12_19_S15 12/19/2016 20:00:00 0.0
2016_12_19_S15 12/19/2016 20:05:00 0.0
2016_12_19_S15 12/19/2016 20:10:00 0.0
2016_12_19_S15 12/19/2016 20:15:00 0.0
2016_12_19_S15 12/19/2016 20:20:00 0.0
2016_12_19_S15 12/19/2016 20:25:00 0.0
2016_12_19_S15 12/19/2016 20:30:00 0.0
2016_12_19_S15 12/19/2016 20:35:00 0.0
2016_12_19_S15 12/19/2016 20:40:00 0.0
2016_12_19_S15 12/19/2016 20:45:00 0.0
2016_12_19_S15 12/19/2016 20:50:00 0.0
2016_12_19_S15 12/19/2016 20:55:00 0.0
2016_12_19_S15 12/19/2016 21:00:00 0.0
2016_12_19_S15 12/19/2016 21:05:00 0.0
2016_12_19_S15 12/19/2016 21:10:00 0.0
2016_12_19_S15 12/19/2016 21:15:00 0.0
2016_12_19_S15 12/19/2016 21:20:00 0.0
2016_12_19_S15 12/19/2016 21:25:00 0.0
2016_12_19_S15 12/19/2016 21:30:00 0.0
2016_12_19_S15 12/19/2016 21:35:00 0.0
2016_12_19_S15 12/19/2016 21:40:00 0.0
2016_12_19_S15 12/19/2016 21:45:00 0.0
2016_12_19_S15 12/19/2016 21:50:00 0.0
2016_12_19_S15 12/19/2016 21:55:00 0.0
2016_12_19_S15 12/19/2016 22:00:00 0.0
2016_12_19_S15 12/19/2016 22:05:00 0.0
2016_12_19_S15 12/19/2016 22:10:00 0.0
2016_12_19_S15 12/19/2016 22:15:00 0.0
2016_12_19_S15 12/19/2016 22:20:00 0.0
2016_12_19_S15 12/19/2016 22:25:00 0.0
2016_12_19_S15 12/19/2016 22:30:00 0.0
2016_12_19_S15 12/19/2016 22:35:00 0.0
2016_12_19_S15 12/19/2016 22:40:00 0.0
2016_12_19_S15 12/19/2016 22:45:00 0.0
2016_12_19_S15 12/19/2016 22:50:00 0.0
2016_12_19_S15 12/19/2016 22:55:00 0.0
2016_12_19_S15 12/19/2016 23:00:00 0.0
2016_12_19_S15 12/19/2016 23:05:00 0.0
2016_12_19_S15 12/19/2016 23:10:00 0.0
2016_12_19_S15 12/19/2016 23:15:00 0.0
2016_12_19_S15 12/19/2016 23:20:00 0.0
2016_12_19_S15 12/19/2016 23:25:00 0.0
2016_12_19_S15 12/19/2016 23:30:00 0.0
2016_12_19_S15 12/19/2016 23:35:00 0.0
2016_12_19_S15 12/19/2016 23:40:00 0.0
2016_12_19_S15 12/19/2016 23:45:00 0.0
2016_12_19_S15 12/19/2016 23:50:00 0.0
2016_12_19_S15 12/19/2016 23:55:00 0.0
2016_12_19_S15 12/20/2016 00:00:00 0.0
2016_12_19_S15 12/20/2016 00:05:00 0.0
2016_12_19_S15 12/20/2016 00:10:00 0.0
2016_12_19_S15 12/20/2016 00:15:00 0.0
2016_12_19_S15 12/20/2016 00:20:00 0.0
2016_12_19_S15 12/20/2016 00:25:00 0.0
2016_12_19_S15 12/20/2016 00:30:00 0.0
2016_12_19_S15 12/20/2016 00:35:00 0.0
2016_12_19_S15 12/20/2016 00:40:00 0.0
2016_12_19_S15 12/20/2016 00:45:00 0.0
2016_12_19_S15 12/20/2016 00:50:00 0.0
2016_12_19_S15 12/20/2016 00:55:00 0.0
2016_12_19_S15 12/20/2016 01:00:00 0.0
2016_12_19_S15 12/20/2016 01:05:00 0.0
2016_12_19_S15 12/20/2016 01:10:00 0.0
2016_12_19_S15 12/20/2016 01:15:00 0.0
2016_12_19_S15 12/20/2016 01:20:00 0.0
2016_12_19_S15 12/20/2016 01:25:00 0.0
2016_12_19_S15 12/20/2016 01:30:00 0.0
2016_12_19_S15 12/20/2016 01:35:00 0.0
2016_12_19_S15 12/20/2016 01:40:00 0.0
2016_12_19_S15 12/20/2016 01:45:00 0.0
2016_12_19_S15 12/20/2016 01:50:00 0.0
2016_12_19_S15 12/20/2016 01:55:00 0.0
2016_12_19_S15 12/20/2016 02:00:00 0.0
2016_12_19_S15 12/20/2016 02:05:00 0.0
2016_12_19_S15 12/20/2016 02:10:00 0.0
2016_12_19_S15 12/20/2016 02:15:00 0.0
2016_12_19_S15 12/20/2016 02:20:00 0.0
2016_12_19_S15 12/20/2016 02:25:00 0.0
2016_12_19_S15 12/20/2016 02:30:00 0.0
2016_12_19_S15 12/20/2016 02:35:00 0.0
2016_12_19_S15 12/20/2016 02:40:00 0.0
2016_12_19_S15 12/20/2016 02:45:00 0.0
2016_12_19_S15 12/20/2016 02:50:00 0.0
2016_12_19_S15 12/20/2016 02:55:00 0.0
2016_12_19_S15 12/20/2016 03:00:00 0.0
2016_12_19_S15 12/20/2016 03:05:00 0.0
2016_12_19_S15 12/20/2016 03:10:00 0.0
2016_12_19_S15 12/20/2016 03:15:00 0.0
2016_12_19_S15 12/20/2016 03:20:00 0.0
2016_12_19_S15 12/20/2016 03:25:00 0.0
2016_12_19_S15 12/20/2016 03:30:00 0.0
2016_12_19_S15 12/20/2016 03:35:00 0.0
2016_12_19_S15 12/20/2016 03:40:00 0.0
2016_12_19_S15 12/20/2016 03:45:00 0.0
2016_12_19_S15 12/20/2016 03:50:00 0.0
2016_12_19_S15 12/20/2016 03:55:00 0.0
2016_12_19_S15 12/20/2016 04:00:00 0.0
2016_12_19_S15 12/20/2016 04:05:00 0.0
2016_12_19_S15 12/20/2016 04:10:00 0.0
2016_12_19_S15 12/20/2016 04:15:00 0.0
2016_12_19_S15 12/20/2016 04:20:00 0.0
2016_12_19_S15 12/20/2016 04:25:00 0.0
2016_12_19_S15 12/20/2016 04:30:00 0.0
2016_12_19_S15 12/20/2016 04:35:00 0.0
2016_12_19_S15 12/20/2016 04:40:00 0.0
2016_12_19_S15 12/20/2016 04:45:00 0.0
2016_12_19_S15 12/20/2016 04:50:00 0.0
2016_12_19_S15 12/20/2016 04:55:00 0.0
2016_12_19_S15 12/20/2016 05:00:00 0.0
2016_12_19_S15 12/20/2016 05:05:00 0.0
2016_12_19_S15 12/20/2016 05:10:00 0.0
2016_12_19_S15 12/20/2016 05:15:00 0.0
2016_12_19_S15 12/20/2016 05:20:00 0.0
2016_12_19_S15 12/20/2016 05:25:00 0.0
2016_12_19_S15 12/20/2016 05:30:00 0.0
2016_12_19_S15 12/20/2016 05:35:00 0.0
2016_12_19_S15 12/20/2016 05:40:00 0.0
2016_12_19_S15 12/20/2016 05:45:00 0.0
2016_12_19_S15 12/20/2016 05:50:00 0.0
2016_12_19_S15 12/20/2016 05:55:00 0.0
2016_12_19_S15 12/20/2016 06:00:00 0.0
2016_12_19_S15 12/20/2016 06:05:00 0.0
2016_12_19_S15 12/20/2016 06:10:00 0.0
2016_12_19_S15 12/20/2016 06:15:00 0.0
2016_12_19_S15 12/20/2016 06:20:00 0.0
2016_12_19_S15 12/20/2016 06:25:00 0.0
2016_12_19_S15 12/20/2016 06:30:00 0.0
2016_12_19_S15 12/20/2016 06:35:00 0.0
2016_12_19_S15 12/20/2016 06:40:00 0.0
2016_12_19_S15 12/20/2016 06:45:00 0.0
2016_12_19_S15 12/20/2016 06:50:00 0.0
2016_12_19_S15 12/20/2016 06:55:00 0.0
2016_12_19_S15 12/20/2016 07:00:00 0.0
2016_12_19_S15 12/20/2016 07:05:00 0.0
2016_12_19_S15 12/20/2016 07:10:00 0.0
2016_12_19_S15 12/20/2016 07:15:00 0.0
2016_12_19_S15 12/20/2016 07:20:00 0.0
2016_12_19_S15 12/20/2016 07:25:00 0.0
2016_12_19_S15 12/20/2016 07:30:00 0.0
2016_12_19_S15 12/20/2016 07:35:00 0.0
2016_12_19_S15 12/20/2016 07:40:00 0.0
2016_12_19_S15 12/20/2016 07:45:00 0.0
2016_12_19_S15 12/20/2016 07:50:00 0.0
2016_12_19_S15 12/20/2016 07:55:00 0.0
2016_12_19_S15 12/20/2016 08:00:00 0.0

2016_12_19_S16 12/19/2016 15:20:00 0.0351
2016_12_19_S16 12/19/2016 15:25:00 0.3657
2016_12_19_S16 12/19/2016 15:30:00 0.5052
2016_12_19_S16 12/19/2016 15:35:00 0.0127
2016_12_19_S16 12/19/2016 15:40:00 0.0014
2016_12_19_S16 12/19/2016 15:45:00 0.0031
2016_12_19_S16 12/19/2016 15:50:00 0.4369
2016_12_19_S16 12/19/2016 15:55:00 0.6606
2016_12_19_S16 12/19/2016 16:00:00 1.0477
2016_12_19_S16 12/19/2016 16:05:00 2.0148
2016_12_19_S16 12/19/2016 16:10:00 1.6603
2016_12_19_S16 12/19/2016 16:15:00 1.6642
2016_12_19_S16 12/19/2016 16:20:00 3.2436
2016_12_19_S16 12/19/2016 16:25:00 4.0176
2016_12_19_S16 12/19/2016 16:30:00 1.8269
2016_12_19_S16 12/19/2016 16:35:00 1.1546
2016_12_19_S16 12/19/2016 16:40:00 1.6613
2016_12_19_S16 12/19/2016 16:45:00 0.1987
2016_12_19_S16 12/19/2016 16:50:00 0.0871
2016_12_19_S16 12/19/2016 16:55:00 0.0982
2016_12_19_S16 12/19/2016 17:00:00 0.1257
2016_12_19_S16 12/19/2016 17:05:00 0.1118
2016_12_19_S16 12/19/2016 17:10:00 0.1066
2016_12_19_S16 12/19/2016 17:15:00 0.2437
2016_12_19_S16 12/19/2016 17:20:00 0.2574
2016_12_19_S16 12/19/2016 17:25:00 0.0905
2016_12_19_S16 12/19/2016 17:30:00 0.0814
2016_12_19_S16 12/19/2016 17:35:00 0.0151
2016_12_19_S16 12/19/2016 17:40:00 0.0465
2016_12_19_S16 12/19/2016 17:45:00 0.0306
2016_12_19_S16 12/19/2016 17:50:00 0.0013
2016_12_19_S16 12/19/2016 17:55:00 0.0
2016_12_19_S16 12/19/2016 18:00:00 0.0
2016_12_19_S16 12/19/2016 18:05:00 0.0
2016_12_19_S16 12/19/2016 18:10:00 0.0
2016_12_19_S16 12/19/2016 18:15:00 0.0
2016_12_19_S16 12/19/2016 18:20:00 0.0
2016_12_19_S16 12/19/2016 18:25:00 0.0
2016_12_19_S16 12/19/2016 18:30:00 0.0
2016_12_19_S16 12/19/2016 18:35:00 0.0
2016_12_19_S16 12/19/2016 18:40:00 0.0
2016_12_19_S16 12/19/2016 18:45:00 0.0
2016_12_19_S16 12/19/2016 18:50:00 0.0
2016_12_19_S16 12/19/2016 18:55:00 0.0
2016_12_19_S16 12/19/2016 19:00:00 0.0
2016_12_19_S16 12/19/2016 19:05:00 0.0
2016_12_19_S16 12/19/2016 19:10:00 0.0
2016_12_19_S16 12/19/2016 19:15:00 0.004
2016_12_19_S16 12/19/2016 19:20:00 0.0209
2016_12_19_S16 12/19/2016 19:25:00 0.0716
2016_12_19_S16 12/19/2016 19:30:00 0.015
2016_12_19_S16 12/19/2016 19:35:00 0.0316
2016_12_19_S16 12/19/2016 19:40:00 0.0258
2016_12_19_S16 12/19/2016 19:45:00 0.0141
2016_12_19_S16 12/19/2016 19:50:00 0.0018
2016_12_19_S16 12/19/2016 19:55:00 0.0
2016_12_19_S16 12/19/2016 20:00:00 0.0
2016_12_19_S16 12/19/2016 20:05:00 0.0
2016_12_19_S16 12/19/2016 20:10:00 0.0
2016_12_19_S16 12/19/2016 20:15:00 0.0
2016_12_19_S16 12/19/2016 20:20:00 0.0
2016_12_19_S16 12/19/2016 20:25:00 0.0
2016_12_19_S16 12/19/2016 20:30:00 0.0
2016_12_19_S16 12/19/2016 20:35:00 0.0
2016_12_19_S16 12/19/2016 20:40:00 0.0
2016_12_19_S16 12/19/2016 20:45:00 0.0
2016_12_19_S16 12/19/2016 20:50:00 0.0
2016_12_19_S16 12/19/2016 20:55:00 0.0
2016_12_19_S16 12/19/2016 21:00:00 0.0
2016_12_19_S16 12/19/2016 21:05:00 0.0
2016_12_19_S16 12/19/2016 21:10:00 0.0
2016_12_19_S16 12/19/2016 21:15:00 0.0
2016_12_19_S16 12/19/2016 21:20:00 0.0
2016_12_19_S16 12/19/2016 21:25:00 0.0
2016_12_19_S16 12/19/2016 21:30:00 0.0
2016_12_19_S16 12/19/2016 21:35:00 0.0
2016_12_19_S16 12/19/2016 21:40:00 0.0
2016_12_19_S16 12/19/2016 21:45:00 0.0
2016_12_19_S16 12/19/2016 21:50:00 0.0
2016_12_19_S16 12/19/2016 21:55:00 0.0
2016_12_19_S16 12/19/2016 22:00:00 0.0
2016_12_19_S16 12/19/2016 22:05:00 0.0
2016_12_19_S16 12/19/2016 22:10:00 0.0
2016_12_19_S16 12/19/2016 22:15:00 0.0
2016_12_19_S16 12/19/2016 22:20:00 0.0
2016_12_19_S16 12/19/2016 22:25:00 0.0
2016_12_19_S16 12/19/2016 22:30:00 0.0
2016_12_19_S16 12/19/2016 22:35:00 0.0
2016_12_19_S16 12/19/2016 22:40:00 0.0
2016_12_19_S16 12/19/2016 22:45:00 0.0
2016_12_19_S16 12/19/2016 22:50:00 0.0
2016_12_19_S16 12/19/2016 22:55:00 0.0
2016_12_19_S16 12/19/2016 23:00:00 0.0
2016_12_19_S16 12/19/2016 23:05:00 0.0
2016_12_19_S16 12/19/2016 23:10:00 0.0
2016_12_19_S16 12/19/2016 23:15:00 0.0
2016_12_19_S16 12/19/2016 23:20:00 0.0
2016_12_19_S16 12/19/2016 23:25:00 0.0
2016_12_19_S16 12/19/2016 23:30:00 0.0
2016_12_19_S16 12/19/2016 23:35:00 0.0
2016_12_19_S16 12/19/2016 23:40:00 0.0
2016_12_19_S16 12/19/2016 23:45:00 0.0
2016_12_19_S16 12/19/2016 23:50:00 0.0
2016_12_19_S16 12/19/2016 23:55:00 0.0
2016_12_19_S16 12/20/2016 00:00:00 0.0
2016_12_19_S16 12/20/2016 00:05:00 0.0
2016_12_19_S16 12/20/2016 00:10:00 0.0
2016_12_19_S16 12/20/2016 00:15:00 0.0
2016_12_19_S16 12/20/2016 00:20:00 0.0
2016_12_19_S16 12/20/2016 00:25:00 0.0
2016_12_19_S16 12/20/2016 00:30:00 0.0
2016_12_19_S16 12/20/2016 00:35:00 0.0
2016_12_19_S16 12/20/2016 00:40:00 0.0
2016_12_19_S16 12/20/2016 00:45:00 0.0
2016_12_19_S16 12/20/2016 00:50:00 0.0
2016_12_19_S16 12/20/2016 00:55:00 0.0
2016_12_19_S16 12/20/2016 01:00:00 0.0
2016_12_19_S16 12/20/2016 01:05:00 0.0
2016_12_19_S16 12/20/2016 01:10:00 0.0
2016_12_19_S16 12/20/2016 01:15:00 0.0
2016_12_19_S16 12/20/2016 01:20:00 0.0
2016_12_19_S16 12/20/2016 01:25:00 0.0
2016_12_19_S16 12/20/2016 01:30:00 0.0
2016_12_19_S16 12/20/2016 01:35:00 0.0
2016_12_19_S16 12/20/2016 01:40:00 0.0
2016_12_19_S16 12/20/2016 01:45:00 0.0
2016_12_19_S16 12/20/2016 01:50:00 0.0
2016_12_19_S16 12/20/2016 01:55:00 0.0
2016_12_19_S16 12/20/2016 02:00:00 0.0
2016_12_19_S16 12/20/2016 02:05:00 0.0
2016_12_19_S16 12/20/2016 02:10:00 0.0
2016_12_19_S16 12/20/2016 02:15:00 0.0
2016_12_19_S16 12/20/2016 02:20:00 0.0
2016_12_19_S16 12/20/2016 02:25:00 0.0
2016_12_19_S16 12/20/2016 02:30:00 0.0
2016_12_19_S16 12/20/2016 02:35:00 0.0
2016_12_19_S16 12/20/2016 02:40:00 0.0
2016_12_19_S16 12/20/2016 02:45:00 0.0
2016_12_19_S16 12/20/2016 02:50:00 0.0
2016_12_19_S16 12/20/2016 02:55:00 0.0
2016_12_19_S16 12/20/2016 03:00:00 0.0
2016_12_19_S16 12/20/2016 03:05:00 0.0
2016_12_19_S16 12/20/2016 03:10:00 0.0
2016_12_19_S16 12/20/2016 03:15:00 0.0
2016_12_19_S16 12/20/2016 03:20:00 0.0
2016_12_19_S16 12/20/2016 03:25:00 0.0
2016_12_19_S16 12/20/2016 03:30:00 0.0
2016_12_19_S16 12/20/2016 03:35:00 0.0
2016_12_19_S16 12/20/2016 03:40:00 0.0
2016_12_19_S16 12/20/2016 03:45:00 0.0
2016_12_19_S16 12/20/2016 03:50:00 0.0
2016_12_19_S16 12/20/2016 03:55:00 0.0
2016_12_19_S16 12/20/2016 04:00:00 0.0
2016_12_19_S16 12/20/2016 04:05:00 0.0
2016_12_19_S16 12/20/2016 04:10:00 0.0
2016_12_19_S16 12/20/2016 04:15:00 0.0
2016_12_19_S16 12/20/2016 04:20:00 0.0
2016_12_19_S16 12/20/2016 04:25:00 0.0
2016_12_19_S16 12/20/2016 04:30:00 0.0
2016_12_19_S16 12/20/2016 04:35:00 0.0
2016_12_19_S16 12/20/2016 04:40:00 0.0
2016_12_19_S16 12/20/2016 04:45:00 0.0
2016_12_19_S16 12/20/2016 04:50:00 0.0
2016_12_19_S16 12/20/2016 04:55:00 0.0
2016_12_19_S16 12/20/2016 05:00:00 0.0
2016_12_19_S16 12/20/2016 05:05:00 0.0
2016_12_19_S16 12/20/2016 05:10:00 0.0
2016_12_19_S16 12/20/2016 05:15:00 0.0
2016_12_19_S16 12/20/2016 05:20:00 0.0
2016_12_19_S16 12/20/2016 05:25:00 0.0
2016_12_19_S16 12/20/2016 05:30:00 0.0
2016_12_19_S16 12/20/2016 05:35:00 0.0
2016_12_19_S16 12/20/2016 05:40:00 0.0
2016_12_19_S16 12/20/2016 05:45:00 0.0
2016_12_19_S16 12/20/2016 05:50:00 0.0
2016_12_19_S16 12/20/2016 05:55:00 0.0
2016_12_19_S16 12/20/2016 06:00:00 0.0
2016_12_19_S16 12/20/2016 06:05:00 0.0
2016_12_19_S16 12/20/2016 06:10:00 0.0
2016_12_19_S16 12/20/2016 06:15:00 0.0
2016_12_19_S16 12/20/2016 06:20:00 0.0
2016_12_19_S16 12/20/2016 06:25:00 0.0
2016_12_19_S16 12/20/2016 06:30:00 0.0
2016_12_19_S16 12/20/2016 06:35:00 0.0
2016_12_19_S16 12/20/2016 06:40:00 0.0
2016_12_19_S16 12/20/2016 06:45:00 0.0
2016_12_19_S16 12/20/2016 06:50:00 0.0
2016_12_19_S16 12/20/2016 06:55:00 0.0
2016_12_19_S16 12/20/2016 07:00:00 0.0
2016_12_19_S16 12/20/2016 07:05:00 0.0
2016_12_19_S16 12/20/2016 07:10:00 0.0
2016_12_19_S16 12/20/2016 07:15:00 0.0
2016_12_19_S16 12/20/2016 07:20:00 0.0
2016_12_19_S16 12/20/2016 07:25:00 0.0
2016_12_19_S16 12/20/2016 07:30:00 0.0
2016_12_19_S16 12/20/2016 07:35:00 0.0
2016_12_19_S16 12/20/2016 07:40:00 0.0
2016_12_19_S16 12/20/2016 07:45:00 0.0
2016_12_19_S16 12/20/2016 07:50:00 0.0
2016_12_19_S16 12/20/2016 07:55:00 0.0
2016_12_19_S16 12/20/2016 08:00:00 0.0

2016_12_19_S17 12/19/2016 15:20:00 0.0763
2016_12_19_S17 12/19/2016 15:25:00 0.2977
2016_12_19_S17 12/19/2016 15:30:00 0.3703
2016_12_19_S17 12/19/2016 15:35:00 0.0101
2016_12_19_S17 12/19/2016 15:40:00 0.0
2016_12_19_S17 12/19/2016 15:45:00 0.0141
2016_12_19_S17 12/19/2016 15:50:00 0.6194
2016_12_19_S17 12/19/2016 15:55:00 1.1572
2016_12_19_S17 12/19/2016 16:00:00 0.7691
2016_12_19_S17 12/19/2016 16:05:00 2.9664
2016_12_19_S17 12/19/2016 16:10:00 2.3256
2016_12_19_S17 12/19/2016 16:15:00 1.8305
2016_12_19_S17 12/19/2016 16:20:00 5.527
2016_12_19_S17 12/19/2016 16:25:00 5.5401
2016_12_19_S17 12/19/2016 16:30:00 1.0057
2016_12_19_S17 12/19/2016 16:35:00 0.7165
2016_12_19_S17 12/19/2016 16:40:00 1.8649
2016_12_19_S17 12/19/2016 16:45:00 0.1704
2016_12_19_S17 12/19/2016 16:50:00 0.0572
2016_12_19_S17 12/19/2016 16:55:00 0.0676
2016_12_19_S17 12/19/2016 17:00:00 0.1583
2016_12_19_S17 12/19/2016 17:05:00 0.0964
2016_12_19_S17 12/19/2016 17:10:00 0.0959
2016_12_19_S17 12/19/2016 17:15:00 0.2194
2016_12_19_S17 12/19/2016 17:20:00 0.347
2016_12_19_S17 12/19/2016 17:25:00 0.1707
2016_12_19_S17 12/19/2016 17:30:00 0.0958
2016_12_19_S17 12/19/2016 17:35:00 0.0373
2016_12_19_S17 12/19/2016 17:40:00 0.0805
2016_12_19_S17 12/19/2016 17:45:00 0.0391
2016_12_19_S17 12/19/2016 17:50:00 0.003
2016_12_19_S17 12/19/2016 17:55:00 0.0
2016_12_19_S17 12/19/2016 18:00:00 0.0
2016_12_19_S17 12/19/2016 18:05:00 0.0
2016_12_19_S17 12/19/2016 18:10:00 0.0
2016_12_19_S17 12/19/2016 18:15:00 0.0
2016_12_19_S17 12/19/2016 18:20:00 0.0
2016_12_19_S17 12/19/2016 18:25:00 0.0
2016_12_19_S17 12/19/2016 18:30:00 0.0
2016_12_19_S17 12/19/2016 18:35:00 0.0
2016_12_19_S17 12/19/2016 18:40:00 0.0
2016_12_19_S17 12/19/2016 18:45:00 0.0
2016_12_19_S17 12/19/2016 18:50:00 0.0
2016_12_19_S17 12/19/2016 18:55:00 0.0
2016_12_19_S17 12/19/2016 19:00:00 0.0
2016_12_19_S17 12/19/2016 19:05:00 0.0
2016_12_19_S17 12/19/2016 19:10:00 0.0
2016_12_19_S17 12/19/2016 19:15:00 0.0055
2016_12_19_S17 12/19/2016 19:20:00 0.0208
2016_12_19_S17 12/19/2016 19:25:00 0.0682
2016_12_19_S17 12/19/2016 19:30:00 0.0161
2016_12_19_S17 12/19/2016 19:35:00 0.0402
2016_12_19_S17 12/19/2016 19:40:00 0.0325
2016_12_19_S17 12/19/2016 19:45:00 0.0135
2016_12_19_S17 12/19/2016 19:50:00 0.0036
2016_12_19_S17 12/19/2016 19:55:00 0.0
2016_12_19_S17 12/19/2016 20:00:00 0.0
2016_12_19_S17 12/19/2016 20:05:00 0.0
2016_12_19_S17 12/19/2016 20:10:00 0.0
2016_12_19_S17 12/19/2016 20:15:00 0.0
2016_12_19_S17 12/19/2016 20:20:00 0.0
2016_12_19_S17 12/19/2016 20:25:00 0.0
2016_12_19_S17 12/19/2016 20:30:00 0.0
2016_12_19_S17 12/19/2016 20:35:00 0.0
2016_12_19_S17 12/19/2016 20:40:00 0.0
2016_12_19_S17 12/19/2016 20:45:00 0.0
2016_12_19_S17 12/19/2016 20:50:00 0.0
2016_12_19_S17 12/19/2016 20:55:00 0.0
2016_12_19_S17 12/19/2016 21:00:00 0.0
2016_12_19_S17 12/19/2016 21:05:00 0.0
2016_12_19_S17 12/19/2016 21:10:00 0.0
2016_12_19_S17 12/19/2016 21:15:00 0.0
2016_12_19_S17 12/19/2016 21:20:00 0.0
2016_12_19_S17 12/19/2016 21:25:00 0.0
2016_12_19_S17 12/19/2016 21:30:00 0.0
2016_12_19_S17 12/19/2016 21:35:00 0.0
2016_12_19_S17 12/19/2016 21:40:00 0.0
2016_12_19_S17 12/19/2016 21:45:00 0.0
2016_12_19_S17 12/19/2016 21:50:00 0.0
2016_12_19_S17 12/19/2016 21:55:00 0.0
2016_12_19_S17 12/19/2016 22:00:00 0.0
2016_12_19_S17 12/19/2016 22:05:00 0.0
2016_12_19_S17 12/19/2016 22:10:00 0.0
2016_12_19_S17 12/19/2016 22:15:00 0.0
2016_12_19_S17 12/19/2016 22:20:00 0.0
2016_12_19_S17 12/19/2016 22:25:00 0.0
2016_12_19_S17 12/19/2016 22:30:00 0.0
2016_12_19_S17 12/19/2016 22:35:00 0.0
2016_12_19_S17 12/19/2016 22:40:00 0.0
2016_12_19_S17 12/19/2016 22:45:00 0.0
2016_12_19_S17 12/19/2016 22:50:00 0.0
2016_12_19_S17 12/19/2016 22:55:00 0.0
2016_12_19_S17 12/19/2016 23:00:00 0.0
2016_12_19_S17 12/19/2016 23:05:00 0.0
2016_12_19_S17 12/19/2016 23:10:00 0.0
2016_12_19_S17 12/19/2016 23:15:00 0.0
2016_12_19_S17 12/19/2016 23:20:00 0.0
2016_12_19_S17 12/19/2016 23:25:00 0.0
2016_12_19_S17 12/19/2016 23:30:00 0.0
2016_12_19_S17 12/19/2016 23:35:00 0.0
2016_12_19_S17 12/19/2016 23:40:00 0.0
2016_12_19_S17 12/19/2016 23:45:00 0.0
2016_12_19_S17 12/19/2016 23:50:00 0.0
2016_12_19_S17 12/19/2016 23:55:00 0.0
2016_12_19_S17 12/20/2016 00:00:00 0.0
2016_12_19_S17 12/20/2016 00:05:00 0.0
2016_12_19_S17 12/20/2016 00:10:00 0.0
2016_12_19_S17 12/20/2016 00:15:00 0.0
2016_12_19_S17 12/20/2016 00:20:00 0.0
2016_12_19_S17 12/20/2016 00:25:00 0.0
2016_12_19_S17 12/20/2016 00:30:00 0.0
2016_12_19_S17 12/20/2016 00:35:00 0.0
2016_12_19_S17 12/20/2016 00:40:00 0.0
2016_12_19_S17 12/20/2016 00:45:00 0.0
2016_12_19_S17 12/20/2016 00:50:00 0.0
2016_12_19_S17 12/20/2016 00:55:00 0.0
2016_12_19_S17 12/20/2016 01:00:00 0.0
2016_12_19_S17 12/20/2016 01:05:00 0.0
2016_12_19_S17 12/20/2016 01:10:00 0.0
2016_12_19_S17 12/20/2016 01:15:00 0.0
2016_12_19_S17 12/20/2016 01:20:00 0.0
2016_12_19_S17 12/20/2016 01:25:00 0.0
2016_12_19_S17 12/20/2016 01:30:00 0.0
2016_12_19_S17 12/20/2016 01:35:00 0.0
2016_12_19_S17 12/20/2016 01:40:00 0.0
2016_12_19_S17 12/20/2016 01:45:00 0.0
2016_12_19_S17 12/20/2016 01:50:00 0.0
2016_12_19_S17 12/20/2016 01:55:00 0.0
2016_12_19_S17 12/20/2016 02:00:00 0.0
2016_12_19_S17 12/20/2016 02:05:00 0.0
2016_12_19_S17 12/20/2016 02:10:00 0.0
2016_12_19_S17 12/20/2016 02:15:00 0.0
2016_12_19_S17 12/20/2016 02:20:00 0.0
2016_12_19_S17 12/20/2016 02:25:00 0.0
2016_12_19_S17 12/20/2016 02:30:00 0.0
2016_12_19_S17 12/20/2016 02:35:00 0.0
2016_12_19_S17 12/20/2016 02:40:00 0.0
2016_12_19_S17 12/20/2016 02:45:00 0.0
2016_12_19_S17 12/20/2016 02:50:00 0.0
2016_12_19_S17 12/20/2016 02:55:00 0.0
2016_12_19_S17 12/20/2016 03:00:00 0.0
2016_12_19_S17 12/20/2016 03:05:00 0.0
2016_12_19_S17 12/20/2016 03:10:00 0.0
2016_12_19_S17 12/20/2016 03:15:00 0.0
2016_12_19_S17 12/20/2016 03:20:00 0.0
2016_12_19_S17 12/20/2016 03:25:00 0.0
2016_12_19_S17 12/20/2016 03:30:00 0.0
2016_12_19_S17 12/20/2016 03:35:00 0.0
2016_12_19_S17 12/20/2016 03:40:00 0.0
2016_12_19_S17 12/20/2016 03:45:00 0.0
2016_12_19_S17 12/20/2016 03:50:00 0.0
2016_12_19_S17 12/20/2016 03:55:00 0.0
2016_12_19_S17 12/20/2016 04:00:00 0.0
2016_12_19_S17 12/20/2016 04:05:00 0.0
2016_12_19_S17 12/20/2016 04:10:00 0.0
2016_12_19_S17 12/20/2016 04:15:00 0.0
2016_12_19_S17 12/20/2016 04:20:00 0.0
2016_12_19_S17 12/20/2016 04:25:00 0.0
2016_12_19_S17 12/20/2016 04:30:00 0.0
2016_12_19_S17 12/20/2016 04:35:00 0.0
2016_12_19_S17 12/20/2016 04:40:00 0.0
2016_12_19_S17 12/20/2016 04:45:00 0.0
2016_12_19_S17 12/20/2016 04:50:00 0.0
2016_12_19_S17 12/20/2016 04:55:00 0.0
2016_12_19_S17 12/20/2016 05:00:00 0.0
2016_12_19_S17 12/20/2016 05:05:00 0.0
2016_12_19_S17 12/20/2016 05:10:00 0.0
2016_12_19_S17 12/20/2016 05:15:00 0.0
2016_12_19_S17 12/20/2016 05:20:00 0.0
2016_12_19_S17 12/20/2016 05:25:00 0.0
2016_12_19_S17 12/20/2016 05:30:00 0.0
2016_12_19_S17 12/20/2016 05:35:00 0.0
2016_12_19_S17 12/20/2016 05:40:00 0.0
2016_12_19_S17 12/20/2016 05:45:00 0.0
2016_12_19_S17 12/20/2016 05:50:00 0.0
2016_12_19_S17 12/20/2016 05:55:00 0.0
2016_12_19_S17 12/20/2016 06:00:00 0.0
2016_12_19_S17 12/20/2016 06:05:00 0.0
2016_12_19_S17 12/20/2016 06:10:00 0.0
2016_12_19_S17 12/20/2016 06:15:00 0.0
2016_12_19_S17 12/20/2016 06:20:00 0.0
2016_12_19_S17 12/20/2016 06:25:00 0.0
2016_12_19_S17 12/20/2016 06:30:00 0.0
2016_12_19_S17 12/20/2016 06:35:00 0.0
2016_12_19_S17 12/20/2016 06:40:00 0.0
2016_12_19_S17 12/20/2016 06:45:00 0.0
2016_12_19_S17 12/20/2016 06:50:00 0.0
2016_12_19_S17 12/20/2016 06:55:00 0.0
2016_12_19_S17 12/20/2016 07:00:00 0.0
2016_12_19_S17 12/20/2016 07:05:00 0.0
2016_12_19_S17 12/20/2016 07:10:00 0.0
2016_12_19_S17 12/20/2016 07:15:00 0.0
2016_12_19_S17 12/20/2016 07:20:00 0.0
2016_12_19_S17 12/20/2016 07:25:00 0.0
2016_12_19_S17 12/20/2016 07:30:00 0.0
2016_12_19_S17 12/20/2016 07:35:00 0.0
2016_12_19_S17 12/20/2016 07:40:00 0.0
2016_12_19_S17 12/20/2016 07:45:00 0.0
2016_12_19_S17 12/20/2016 07:50:00 0.0
2016_12_19_S17 12/20/2016 07:55:00 0.0
2016_12_19_S17 12/20/2016 08:00:00 0.0

2016_12_19_S18 12/19/2016 15:20:00 0.1252
2016_12_19_S18 12/19/2016 15:25:00 0.3485
2016_12_19_S18 12/19/2016 15:30:00 0.0732
2016_12_19_S18 12/19/2016 15:35:00 0.001
2016_12_19_S18 12/19/2016 15:40:00 0.0
2016_12_19_S18 12/19/2016 15:45:00 0.0374
2016_12_19_S18 12/19/2016 15:50:00 0.2509
2016_12_19_S18 12/19/2016 15:55:00 1.1352
2016_12_19_S18 12/19/2016 16:00:00 0.6576
2016_12_19_S18 12/19/2016 16:05:00 4.4336
2016_12_19_S18 12/19/2016 16:10:00 2.78
2016_12_19_S18 12/19/2016 16:15:00 2.4617
2016_12_19_S18 12/19/2016 16:20:00 5.258
2016_12_19_S18 12/19/2016 16:25:00 4.4837
2016_12_19_S18 12/19/2016 16:30:00 1.2475
2016_12_19_S18 12/19/2016 16:35:00 0.7665
2016_12_19_S18 12/19/2016 16:40:00 1.264
2016_12_19_S18 12/19/2016 16:45:00 0.121
2016_12_19_S18 12/19/2016 16:50:00 0.034
2016_12_19_S18 12/19/2016 16:55:00 0.0471
2016_12_19_S18 12/19/2016 17:00:00 0.143
2016_12_19_S18 12/19/2016 17:05:00 0.0609
2016_12_19_S18 12/19/2016 17:10:00 0.1104
2016_12_19_S18 12/19/2016 17:15:00 0.2906
2016_12_19_S18 12/19/2016 17:20:00 0.3988
2016_12_19_S18 12/19/2016 17:25:00 0.3166
2016_12_19_S18 12/19/2016 17:30:00 0.1009
2016_12_19_S18 12/19/2016 17:35:00 0.1193
2016_12_19_S18 12/19/2016 17:40:00 0.0826
2016_12_19_S18 12/19/2016 17:45:00 0.0286
2016_12_19_S18 12/19/2016 17:50:00 0.0012
2016_12_19_S18 12/19/2016 17:55:00 0.0
2016_12_19_S18 12/19/2016 18:00:00 0.0
2016_12_19_S18 12/19/2016 18:05:00 0.0
2016_12_19_S18 12/19/2016 18:10:00 0.0
2016_12_19_S18 12/19/2016 18:15:00 0.0
2016_12_19_S18 12/19/2016 18:20:00 0.0
2016_12_19_S18 12/19/2016 18:25:00 0.0
2016_12_19_S18 12/19/2016 18:30:00 0.0
2016_12_19_S18 12/19/2016 18:35:00 0.0
2016_12_19_S18 12/19/2016 18:40:00 0.0
2016_12_19_S18 12/19/2016 18:45:00 0.0
2016_12_19_S18 12/19/2016 18:50:00 0.0
2016_12_19_S18 12/19/2016 18:55:00 0.0
2016_12_19_S18 12/19/2016 19:00:00 0.0
2016_12_19_S18 12/19/2016 19:05:00 0.0
2016_12_19_S18 12/19/2016 19:10:00 0.0
2016_12_19_S18 12/19/2016 19:15:00 0.0091
2016_12_19_S18 12/19/2016 19:20:00 0.0234
2016_12_19_S18 12/19/2016 19:25:00 0.0592
2016_12_19_S18 12/19/2016 19:30:00 0.0163
2016_12_19_S18 12/19/2016 19:35:00 0.0293
2016_12_19_S18 12/19/2016 19:40:00 0.0551
2016_12_19_S18 12/19/2016 19:45:00 0.0076
2016_12_19_S18 12/19/2016 19:50:00 0.0004
2016_12_19_S18 12/19/2016 19:55:00 0.0
2016_12_19_S18 12/19/2016 20:00:00 0.0
2016_12_19_S18 12/19/2016 20:05:00 0.0
2016_12_19_S18 12/19/2016 20:10:00 0.0
2016_12_19_S18 12/19/2016 20:15:00 0.0
2016_12_19_S18 12/19/2016 20:20:00 0.0
2016_12_19_S18 12/19/2016 20:25:00 0.0
2016_12_19_S18 12/19/2016 20:30:00 0.0
2016_12_19_S18 12/19/2016 20:35:00 0.0
2016_12_19_S18 12/19/2016 20:40:00 0.0
2016_12_19_S18 12/19/2016 20:45:00 0.0
2016_12_19_S18 12/19/2016 20:50:00 0.0
2016_12_19_S18 12/19/2016 20:55:00 0.0
2016_12_19_S18 12/19/2016 21:00:00 0.0
2016_12_19_S18 12/19/2016 21:05:00 0.0
2016_12_19_S18 12/19/2016 21:10:00 0.0
2016_12_19_S18 12/19/2016 21:15:00 0.0
2016_12_19_S18 12/19/2016 21:20:00 0.0
2016_12_19_S18 12/19/2016 21:25:00 0.0
2016_12_19_S18 12/19/2016 21:30:00 0.0
2016_12_19_S18 12/19/2016 21:35:00 0.0
2016_12_19_S18 12/19/2016 21:40:00 0.0
2016_12_19_S18 12/19/2016 21:45:00 0.0
2016_12_19_S18 12/19/2016 21:50:00 0.0
2016_12_19_S18 12/19/2016 21:55:00 0.0
2016_12_19_S18 12/19/2016 22:00:00 0.0
2016_12_19_S18 12/19/2016 22:05:00 0.0
2016_12_19_S18 12/19/2016 22:10:00 0.0
2016_12_19_S18 12/19/2016 22:15:00 0.0
2016_12_19_S18 12/19/2016 22:20:00 0.0
2016_12_19_S18 12/19/2016 22:25:00 0.0
2016_12_19_S18 12/19/2016 22:30:00 0.0
2016_12_19_S18 12/19/2016 22:35:00 0.0
2016_12_19_S18 12/19/2016 22:40:00 0.0
2016_12_19_S18 12/19/2016 22:45:00 0.0
2016_12_19_S18 12/19/2016 22:50:00 0.0
2016_12_19_S18 12/19/2016 22:55:00 0.0
2016_12_19_S18 12/19/2016 23:00:00 0.0
2016_12_19_S18 12/19/2016 23:05:00 0.0
2016_12_19_S18 12/19/2016 23:10:00 0.0
2016_12_19_S18 12/19/2016 23:15:00 0.0
2016_12_19_S18 12/19/2016 23:20:00 0.0
2016_12_19_S18 12/19/2016 23:25:00 0.0
2016_12_19_S18 12/19/2016 23:30:00 0.0
2016_12_19_S18 12/19/2016 23:35:00 0.0
2016_12_19_S18 12/19/2016 23:40:00 0.0
2016_12_19_S18 12/19/2016 23:45:00 0.0
2016_12_19_S18 12/19/2016 23:50:00 0.0
2016_12_19_S18 12/19/2016 23:55:00 0.0
2016_12_19_S18 12/20/2016 00:00:00 0.0
2016_12_19_S18 12/20/2016 00:05:00 0.0
2016_12_19_S18 12/20/2016 00:10:00 0.0
2016_12_19_S18 12/20/2016 00:15:00 0.0
2016_12_19_S18 12/20/2016 00:20:00 0.0
2016_12_19_S18 12/20/2016 00:25:00 0.0
2016_12_19_S18 12/20/2016 00:30:00 0.0
2016_12_19_S18 12/20/2016 00:35:00 0.0
2016_12_19_S18 12/20/2016 00:40:00 0.0
2016_12_19_S18 12/20/2016 00:45:00 0.0
2016_12_19_S18 12/20/2016 00:50:00 0.0
2016_12_19_S18 12/20/2016 00:55:00 0.0
2016_12_19_S18 12/20/2016 01:00:00 0.0
2016_12_19_S18 12/20/2016 01:05:00 0.0
2016_12_19_S18 12/20/2016 01:10:00 0.0
2016_12_19_S18 12/20/2016 01:15:00 0.0
2016_12_19_S18 12/20/2016 01:20:00 0.0
2016_12_19_S18 12/20/2016 01:25:00 0.0
2016_12_19_S18 12/20/2016 01:30:00 0.0
2016_12_19_S18 12/20/2016 01:35:00 0.0
2016_12_19_S18 12/20/2016 01:40:00 0.0
2016_12_19_S18 12/20/2016 01:45:00 0.0
2016_12_19_S18 12/20/2016 01:50:00 0.0
2016_12_19_S18 12/20/2016 01:55:00 0.0
2016_12_19_S18 12/20/2016 02:00:00 0.0
2016_12_19_S18 12/20/2016 02:05:00 0.0
2016_12_19_S18 12/20/2016 02:10:00 0.0
2016_12_19_S18 12/20/2016 02:15:00 0.0
2016_12_19_S18 12/20/2016 02:20:00 0.0
2016_12_19_S18 12/20/2016 02:25:00 0.0
2016_12_19_S18 12/20/2016 02:30:00 0.0
2016_12_19_S18 12/20/2016 02:35:00 0.0
2016_12_19_S18 12/20/2016 02:40:00 0.0
2016_12_19_S18 12/20/2016 02:45:00 0.0
2016_12_19_S18 12/20/2016 02:50:00 0.0
2016_12_19_S18 12/20/2016 02:55:00 0.0
2016_12_19_S18 12/20/2016 03:00:00 0.0
2016_12_19_S18 12/20/2016 03:05:00 0.0
2016_12_19_S18 12/20/2016 03:10:00 0.0
2016_12_19_S18 12/20/2016 03:15:00 0.0
2016_12_19_S18 12/20/2016 03:20:00 0.0
2016_12_19_S18 12/20/2016 03:25:00 0.0
2016_12_19_S18 12/20/2016 03:30:00 0.0
2016_12_19_S18 12/20/2016 03:35:00 0.0
2016_12_19_S18 12/20/2016 03:40:00 0.0
2016_12_19_S18 12/20/2016 03:45:00 0.0
2016_12_19_S18 12/20/2016 03:50:00 0.0
2016_12_19_S18 12/20/2016 03:55:00 0.0
2016_12_19_S18 12/20/2016 04:00:00 0.0
2016_12_19_S18 12/20/2016 04:05:00 0.0
2016_12_19_S18 12/20/2016 04:10:00 0.0
2016_12_19_S18 12/20/2016 04:15:00 0.0
2016_12_19_S18 12/20/2016 04:20:00 0.0
2016_12_19_S18 12/20/2016 04:25:00 0.0
2016_12_19_S18 12/20/2016 04:30:00 0.0
2016_12_19_S18 12/20/2016 04:35:00 0.0
2016_12_19_S18 12/20/2016 04:40:00 0.0
2016_12_19_S18 12/20/2016 04:45:00 0.0
2016_12_19_S18 12/20/2016 04:50:00 0.0
2016_12_19_S18 12/20/2016 04:55:00 0.0
2016_12_19_S18 12/20/2016 05:00:00 0.0
2016_12_19_S18 12/20/2016 05:05:00 0.0
2016_12_19_S18 12/20/2016 05:10:00 0.0
2016_12_19_S18 12/20/2016 05:15:00 0.0
2016_12_19_S18 12/20/2016 05:20:00 0.0
2016_12_19_S18 12/20/2016 05:25:00 0.0
2016_12_19_S18 12/20/2016 05:30:00 0.0
2016_12_19_S18 12/20/2016 05:35:00 0.0
2016_12_19_S18 12/20/2016 05:40:00 0.0
2016_12_19_S18 12/20/2016 05:45:00 0.0
2016_12_19_S18 12/20/2016 05:50:00 0.0
2016_12_19_S18 12/20/2016 05:55:00 0.0
2016_12_19_S18 12/20/2016 06:00:00 0.0
2016_12_19_S18 12/20/2016 06:05:00 0.0
2016_12_19_S18 12/20/2016 06:10:00 0.0
2016_12_19_S18 12/20/2016 06:15:00 0.0
2016_12_19_S18 12/20/2016 06:20:00 0.0
2016_12_19_S18 12/20/2016 06:25:00 0.0
2016_12_19_S18 12/20/2016 06:30:00 0.0
2016_12_19_S18 12/20/2016 06:35:00 0.0
2016_12_19_S18 12/20/2016 06:40:00 0.0
2016_12_19_S18 12/20/2016 06:45:00 0.0
2016_12_19_S18 12/20/2016 06:50:00 0.0
2016_12_19_S18 12/20/2016 06:55:00 0.0
2016_12_19_S18 12/20/2016 07:00:00 0.0
2016_12_19_S18 12/20/2016 07:05:00 0.0
2016_12_19_S18 12/20/2016 07:10:00 0.0
2016_12_19_S18 12/20/2016 07:15:00 0.0
2016_12_19_S18 12/20/2016 07:20:00 0.0
2016_12_19_S18 12/20/2016 07:25:00 0.0
2016_12_19_S18 12/20/2016 07:30:00 0.0
2016_12_19_S18 12/20/2016 07:35:00 0.0
2016_12_19_S18 12/20/2016 07:40:00 0.0
2016_12_19_S18 12/20/2016 07:45:00 0.0
2016_12_19_S18 12/20/2016 07:50:00 0.0
2016_12_19_S18 12/20/2016 07:55:00 0.0
2016_12_19_S18 12/20/2016 08:00:00 0.0

2016_12_19_S19 12/19/2016 15:20:00 0.1123
2016_12_19_S19 12/19/2016 15:25:00 0.3922
2016_12_19_S19 12/19/2016 15:30:00 0.1405
2016_12_19_S19 12/19/2016 15:35:00 0.0027
2016_12_19_S19 12/19/2016 15:40:00 0.0
2016_12_19_S19 12/19/2016 15:45:00 0.0142
2016_12_19_S19 12/19/2016 15:50:00 0.1608
2016_12_19_S19 12/19/2016 15:55:00 1.3943
2016_12_19_S19 12/19/2016 16:00:00 0.4971
2016_12_19_S19 12/19/2016 16:05:00 3.1555
2016_12_19_S19 12/19/2016 16:10:00 3.6941
2016_12_19_S19 12/19/2016 16:15:00 2.799
2016_12_19_S19 12/19/2016 16:20:00 5.6484
2016_12_19_S19 12/19/2016 16:25:00 4.1556
2016_12_19_S19 12/19/2016 16:30:00 1.068
2016_12_19_S19 12/19/2016 16:35:00 0.5203
2016_12_19_S19 12/19/2016 16:40:00 1.3746
2016_12_19_S19 12/19/2016 16:45:00 0.1205
2016_12_19_S19 12/19/2016 16:50:00 0.0314
2016_12_19_S19 12/19/2016 16:55:00 0.0528
2016_12_19_S19 12/19/2016 17:00:00 0.122
2016_12_19_S19 12/19/2016 17:05:00 0.0631
2016_12_19_S19 12/19/2016 17:10:00 0.1162
2016_12_19_S19 12/19/2016 17:15:00 0.2561
2016_12_19_S19 12/19/2016 17:20:00 0.3742
2016_12_19_S19 12/19/2016 17:25:00 0.2717
2016_12_19_S19 12/19/2016 17:30:00 0.1231
2016_12_19_S19 12/19/2016 17:35:00 0.1205
2016_12_19_S19 12/19/2016 17:40:00 0.1041
2016_12_19_S19 12/19/2016 17:45:00 0.0398
2016_12_19_S19 12/19/2016 17:50:00 0.0042
2016_12_19_S19 12/19/2016 17:55:00 0.0
2016_12_19_S19 12/19/2016 18:00:00 0.0
2016_12_19_S19 12/19/2016 18:05:00 0.0
2016_12_19_S19 12/19/2016 18:10:00 0.0
2016_12_19_S19 12/19/2016 18:15:00 0.0
2016_12_19_S19 12/19/2016 18:20:00 0.0
2016_12_19_S19 12/19/2016 18:25:00 0.0
2016_12_19_S19 12/19/2016 18:30:00 0.0
2016_12_19_S19 12/19/2016 18:35:00 0.0
2016_12_19_S19 12/19/2016 18:40:00 0.0
2016_12_19_S19 12/19/2016 18:45:00 0.0
2016_12_19_S19 12/19/2016 18:50:00 0.0
2016_12_19_S19 12/19/2016 18:55:00 0.0
2016_12_19_S19 12/19/2016 19:00:00 0.0
2016_12_19_S19 12/19/2016 19:05:00 0.0
2016_12_19_S19 12/19/2016 19:10:00 0.0
2016_12_19_S19 12/19/2016 19:15:00 0.007
2016_12_19_S19 12/19/2016 19:20:00 0.0181
2016_12_19_S19 12/19/2016 19:25:00 0.0639
2016_12_19_S19 12/19/2016 19:30:00 0.0149
2016_12_19_S19 12/19/2016 19:35:00 0.0327
2016_12_19_S19 12/19/2016 19:40:00 0.0607
2016_12_19_S19 12/19/2016 19:45:00 0.0099
2016_12_19_S19 12/19/2016 19:50:00 0.0015
2016_12_19_S19 12/19/2016 19:55:00 0.0
2016_12_19_S19 12/19/2016 20:00:00 0.0
2016_12_19_S19 12/19/2016 20:05:00 0.0
2016_12_19_S19 12/19/2016 20:10:00 0.0
2016_12_19_S19 12/19/2016 20:15:00 0.0
2016_12_19_S19 12/19/2016 20:20:00 0.0
2016_12_19_S19 12/19/2016 20:25:00 0.0
2016_12_19_S19 12/19/2016 20:30:00 0.0
2016_12_19_S19 12/19/2016 20:35:00 0.0
2016_12_19_S19 12/19/2016 20:40:00 0.0
2016_12_19_S19 12/19/2016 20:45:00 0.0
2016_12_19_S19 12/19/2016 20:50:00 0.0
2016_12_19_S19 12/19/2016 20:55:00 0.0
2016_12_19_S19 12/19/2016 21:00:00 0.0
2016_12_19_S19 12/19/2016 21:05:00 0.0
2016_12_19_S19 12/19/2016 21:10:00 0.0
2016_12_19_S19 12/19/2016 21:15:00 0.0
2016_12_19_S19 12/19/2016 21:20:00 0.0
2016_12_19_S19 12/19/2016 21:25:00 0.0
2016_12_19_S19 12/19/2016 21:30:00 0.0
2016_12_19_S19 12/19/2016 21:35:00 0.0
2016_12_19_S19 12/19/2016 21:40:00 0.0
2016_12_19_S19 12/19/2016 21:45:00 0.0
2016_12_19_S19 12/19/2016 21:50:00 0.0
2016_12_19_S19 12/19/2016 21:55:00 0.0
2016_12_19_S19 12/19/2016 22:00:00 0.0
2016_12_19_S19 12/19/2016 22:05:00 0.0
2016_12_19_S19 12/19/2016 22:10:00 0.0
2016_12_19_S19 12/19/2016 22:15:00 0.0
2016_12_19_S19 12/19/2016 22:20:00 0.0
2016_12_19_S19 12/19/2016 22:25:00 0.0
2016_12_19_S19 12/19/2016 22:30:00 0.0
2016_12_19_S19 12/19/2016 22:35:00 0.0
2016_12_19_S19 12/19/2016 22:40:00 0.0
2016_12_19_S19 12/19/2016 22:45:00 0.0
2016_12_19_S19 12/19/2016 22:50:00 0.0
2016_12_19_S19 12/19/2016 22:55:00 0.0
2016_12_19_S19 12/19/2016 23:00:00 0.0
2016_12_19_S19 12/19/2016 23:05:00 0.0
2016_12_19_S19 12/19/2016 23:10:00 0.0
2016_12_19_S19 12/19/2016 23:15:00 0.0
2016_12_19_S19 12/19/2016 23:20:00 0.0
2016_12_19_S19 12/19/2016 23:25:00 0.0
2016_12_19_S19 12/19/2016 23:30:00 0.0
2016_12_19_S19 12/19/2016 23:35:00 0.0
2016_12_19_S19 12/19/2016 23:40:00 0.0
2016_12_19_S19 12/19/2016 23:45:00 0.0
2016_12_19_S19 12/19/2016 23:50:00 0.0
2016_12_19_S19 12/19/2016 23:55:00 0.0
2016_12_19_S19 12/20/2016 00:00:00 0.0
2016_12_19_S19 12/20/2016 00:05:00 0.0
2016_12_19_S19 12/20/2016 00:10:00 0.0
2016_12_19_S19 12/20/2016 00:15:00 0.0
2016_12_19_S19 12/20/2016 00:20:00 0.0
2016_12_19_S19 12/20/2016 00:25:00 0.0
2016_12_19_S19 12/20/2016 00:30:00 0.0
2016_12_19_S19 12/20/2016 00:35:00 0.0
2016_12_19_S19 12/20/2016 00:40:00 0.0
2016_12_19_S19 12/20/2016 00:45:00 0.0
2016_12_19_S19 12/20/2016 00:50:00 0.0
2016_12_19_S19 12/20/2016 00:55:00 0.0
2016_12_19_S19 12/20/2016 01:00:00 0.0
2016_12_19_S19 12/20/2016 01:05:00 0.0
2016_12_19_S19 12/20/2016 01:10:00 0.0
2016_12_19_S19 12/20/2016 01:15:00 0.0
2016_12_19_S19 12/20/2016 01:20:00 0.0
2016_12_19_S19 12/20/2016 01:25:00 0.0
2016_12_19_S19 12/20/2016 01:30:00 0.0
2016_12_19_S19 12/20/2016 01:35:00 0.0
2016_12_19_S19 12/20/2016 01:40:00 0.0
2016_12_19_S19 12/20/2016 01:45:00 0.0
2016_12_19_S19 12/20/2016 01:50:00 0.0
2016_12_19_S19 12/20/2016 01:55:00 0.0
2016_12_19_S19 12/20/2016 02:00:00 0.0
2016_12_19_S19 12/20/2016 02:05:00 0.0
2016_12_19_S19 12/20/2016 02:10:00 0.0
2016_12_19_S19 12/20/2016 02:15:00 0.0
2016_12_19_S19 12/20/2016 02:20:00 0.0
2016_12_19_S19 12/20/2016 02:25:00 0.0
2016_12_19_S19 12/20/2016 02:30:00 0.0
2016_12_19_S19 12/20/2016 02:35:00 0.0
2016_12_19_S19 12/20/2016 02:40:00 0.0
2016_12_19_S19 12/20/2016 02:45:00 0.0
2016_12_19_S19 12/20/2016 02:50:00 0.0
2016_12_19_S19 12/20/2016 02:55:00 0.0
2016_12_19_S19 12/20/2016 03:00:00 0.0
2016_12_19_S19 12/20/2016 03:05:00 0.0
2016_12_19_S19 12/20/2016 03:10:00 0.0
2016_12_19_S19 12/20/2016 03:15:00 0.0
2016_12_19_S19 12/20/2016 03:20:00 0.0
2016_12_19_S19 12/20/2016 03:25:00 0.0
2016_12_19_S19 12/20/2016 03:30:00 0.0
2016_12_19_S19 12/20/2016 03:35:00 0.0
2016_12_19_S19 12/20/2016 03:40:00 0.0
2016_12_19_S19 12/20/2016 03:45:00 0.0
2016_12_19_S19 12/20/2016 03:50:00 0.0
2016_12_19_S19 12/20/2016 03:55:00 0.0
2016_12_19_S19 12/20/2016 04:00:00 0.0
2016_12_19_S19 12/20/2016 04:05:00 0.0
2016_12_19_S19 12/20/2016 04:10:00 0.0
2016_12_19_S19 12/20/2016 04:15:00 0.0
2016_12_19_S19 12/20/2016 04:20:00 0.0
2016_12_19_S19 12/20/2016 04:25:00 0.0
2016_12_19_S19 12/20/2016 04:30:00 0.0
2016_12_19_S19 12/20/2016 04:35:00 0.0
2016_12_19_S19 12/20/2016 04:40:00 0.0
2016_12_19_S19 12/20/2016 04:45:00 0.0
2016_12_19_S19 12/20/2016 04:50:00 0.0
2016_12_19_S19 12/20/2016 04:55:00 0.0
2016_12_19_S19 12/20/2016 05:00:00 0.0
2016_12_19_S19 12/20/2016 05:05:00 0.0
2016_12_19_S19 12/20/2016 05:10:00 0.0
2016_12_19_S19 12/20/2016 05:15:00 0.0
2016_12_19_S19 12/20/2016 05:20:00 0.0
2016_12_19_S19 12/20/2016 05:25:00 0.0
2016_12_19_S19 12/20/2016 05:30:00 0.0
2016_12_19_S19 12/20/2016 05:35:00 0.0
2016_12_19_S19 12/20/2016 05:40:00 0.0
2016_12_19_S19 12/20/2016 05:45:00 0.0
2016_12_19_S19 12/20/2016 05:50:00 0.0
2016_12_19_S19 12/20/2016 05:55:00 0.0
2016_12_19_S19 12/20/2016 06:00:00 0.0
2016_12_19_S19 12/20/2016 06:05:00 0.0
2016_12_19_S19 12/20/2016 06:10:00 0.0
2016_12_19_S19 12/20/2016 06:15:00 0.0
2016_12_19_S19 12/20/2016 06:20:00 0.0
2016_12_19_S19 12/20/2016 06:25:00 0.0
2016_12_19_S19 12/20/2016 06:30:00 0.0
2016_12_19_S19 12/20/2016 06:35:00 0.0
2016_12_19_S19 12/20/2016 06:40:00 0.0
2016_12_19_S19 12/20/2016 06:45:00 0.0
2016_12_19_S19 12/20/2016 06:50:00 0.0
2016_12_19_S19 12/20/2016 06:55:00 0.0
2016_12_19_S19 12/20/2016 07:00:00 0.0
2016_12_19_S19 12/20/2016 07:05:00 0.0
2016_12_19_S19 12/20/2016 07:10:00 0.0
2016_12_19_S19 12/20/2016 07:15:00 0.0
2016_12_19_S19 12/20/2016 07:20:00 0.0
2016_12_19_S19 12/20/2016 07:25:00 0.0
2016_12_19_S19 12/20/2016 07:30:00 0.0
2016_12_19_S19 12/20/2016 07:35:00 0.0
2016_12_19_S19 12/20/2016 07:40:00 0.0
2016_12_19_S19 12/20/2016 07:45:00 0.0
2016_12_19_S19 12/20/2016 07:50:00 0.0
2016_12_19_S19 12/20/2016 07:55:00 0.0
2016_12_19_S19 12/20/2016 08:00:00 0.0

2016_12_19_S20 12/19/2016 15:20:00 0.0751
2016_12_19_S20 12/19/2016 15:25:00 0.339
2016_12_19_S20 12/19/2016 15:30:00 0.1557
2016_12_19_S20 12/19/2016 15:35:00 0.0046
2016_12_19_S20 12/19/2016 15:40:00 0.0
2016_12_19_S20 12/19/2016 15:45:00 0.0078
2016_12_19_S20 12/19/2016 15:50:00 0.1058
2016_12_19_S20 12/19/2016 15:55:00 1.4306
2016_12_19_S20 12/19/2016 16:00:00 0.5443
2016_12_19_S20 12/19/2016 16:05:00 2.0415
2016_12_19_S20 12/19/2016 16:10:00 4.1869
2016_12_19_S20 12/19/2016 16:15:00 3.0732
2016_12_19_S20 12/19/2016 16:20:00 5.5781
2016_12_19_S20 12/19/2016 16:25:00 3.9491
2016_12_19_S20 12/19/2016 16:30:00 0.92
2016_12_19_S20 12/19/2016 16:35:00 0.4868
2016_12_19_S20 12/19/2016 16:40:00 1.2425
2016_12_19_S20 12/19/2016 16:45:00 0.1284
2016_12_19_S20 12/19/2016 16:50:00 0.0333
2016_12_19_S20 12/19/2016 16:55:00 0.0589
2016_12_19_S20 12/19/2016 17:00:00 0.112
2016_12_19_S20 12/19/2016 17:05:00 0.099
2016_12_19_S20 12/19/2016 17:10:00 0.1303
2016_12_19_S20 12/19/2016 17:15:00 0.2835
2016_12_19_S20 12/19/2016 17:20:00 0.3688
2016_12_19_S20 12/19/2016 17:25:00 0.2553
2016_12_19_S20 12/19/2016 17:30:00 0.1591
2016_12_19_S20 12/19/2016 17:35:00 0.1235
2016_12_19_S20 12/19/2016 17:40:00 0.1198
2016_12_19_S20 12/19/2016 17:45:00 0.0541
2016_12_19_S20 12/19/2016 17:50:00 0.0057
2016_12_19_S20 12/19/2016 17:55:00 0.0
2016_12_19_S20 12/19/2016 18:00:00 0.0
2016_12_19_S20 12/19/2016 18:05:00 0.0
2016_12_19_S20 12/19/2016 18:10:00 0.0
2016_12_19_S20 12/19/2016 18:15:00 0.0
2016_12_19_S20 12/19/2016 18:20:00 0.0
2016_12_19_S20 12/19/2016 18:25:00 0.0
2016_12_19_S20 12/19/2016 18:30:00 0.0
2016_12_19_S20 12/19/2016 18:35:00 0.0
2016_12_19_S20 12/19/2016 18:40:00 0.0
2016_12_19_S20 12/19/2016 18:45:00 0.0
2016_12_19_S20 12/19/2016 18:50:00 0.0
2016_12_19_S20 12/19/2016 18:55:00 0.0
2016_12_19_S20 12/19/2016 19:00:00 0.0
2016_12_19_S20 12/19/2016 19:05:00 0.0
2016_12_19_S20 12/19/2016 19:10:00 0.0
2016_12_19_S20 12/19/2016 19:15:00 0.0056
2016_12_19_S20 12/19/2016 19:20:00 0.0212
2016_12_19_S20 12/19/2016 19:25:00 0.0568
2016_12_19_S20 12/19/2016 19:30:00 0.0134
2016_12_19_S20 12/19/2016 19:35:00 0.0345
2016_12_19_S20 12/19/2016 19:40:00 0.0619
2016_12_19_S20 12/19/2016 19:45:00 0.0106
2016_12_19_S20 12/19/2016 19:50:00 0.0026
2016_12_19_S20 12/19/2016 19:55:00 0.0
2016_12_19_S20 12/19/2016 20:00:00 0.0
2016_12_19_S20 12/19/2016 20:05:00 0.0
2016_12_19_S20 12/19/2016 20:10:00 0.0
2016_12_19_S20 12/19/2016 20:15:00 0.0
2016_12_19_S20 12/19/2016 20:20:00 0.0
2016_12_19_S20 12/19/2016 20:25:00 0.0
2016_12_19_S20 12/19/2016 20:30:00 0.0
2016_12_19_S20 12/19/2016 20:35:00 0.0
2016_12_19_S20 12/19/2016 20:40:00 0.0
2016_12_19_S20 12/19/2016 20:45:00 0.0
2016_12_19_S20 12/19/2016 20:50:00 0.0
2016_12_19_S20 12/19/2016 20:55:00 0.0
2016_12_19_S20 12/19/2016 21:00:00 0.0
2016_12_19_S20 12/19/2016 21:05:00 0.0
2016_12_19_S20 12/19/2016 21:10:00 0.0
2016_12_19_S20 12/19/2016 21:15:00 0.0
2016_12_19_S20 12/19/2016 21:20:00 0.0
2016_12_19_S20 12/19/2016 21:25:00 0.0
2016_12_19_S20 12/19/2016 21:30:00 0.0
2016_12_19_S20 12/19/2016 21:35:00 0.0
2016_12_19_S20 12/19/2016 21:40:00 0.0
2016_12_19_S20 12/19/2016 21:45:00 0.0
2016_12_19_S20 12/19/2016 21:50:00 0.0
2016_12_19_S20 12/19/2016 21:55:00 0.0
2016_12_19_S20 12/19/2016 22:00:00 0.0
2016_12_19_S20 12/19/2016 22:05:00 0.0
2016_12_19_S20 12/19/2016 22:10:00 0.0
2016_12_19_S20 12/19/2016 22:15:00 0.0
2016_12_19_S20 12/19/2016 22:20:00 0.0
2016_12_19_S20 12/19/2016 22:25:00 0.0
2016_12_19_S20 12/19/2016 22:30:00 0.0
2016_12_19_S20 12/19/2016 22:35:00 0.0
2016_12_19_S20 12/19/2016 22:40:00 0.0
2016_12_19_S20 12/19/2016 22:45:00 0.0
2016_12_19_S20 12/19/2016 22:50:00 0.0
2016_12_19_S20 12/19/2016 22:55:00 0.0
2016_12_19_S20 12/19/2016 23:00:00 0.0
2016_12_19_S20 12/19/2016 23:05:00 0.0
2016_12_19_S20 12/19/2016 23:10:00 0.0
2016_12_19_S20 12/19/2016 23:15:00 0.0
2016_12_19_S20 12/19/2016 23:20:00 0.0
2016_12_19_S20 12/19/2016 23:25:00 0.0
2016_12_19_S20 12/19/2016 23:30:00 0.0
2016_12_19_S20 12/19/2016 23:35:00 0.0
2016_12_19_S20 12/19/2016 23:40:00 0.0
2016_12_19_S20 12/19/2016 23:45:00 0.0
2016_12_19_S20 12/19/2016 23:50:00 0.0
2016_12_19_S20 12/19/2016 23:55:00 0.0
2016_12_19_S20 12/20/2016 00:00:00 0.0
2016_12_19_S20 12/20/2016 00:05:00 0.0
2016_12_19_S20 12/20/2016 00:10:00 0.0
2016_12_19_S20 12/20/2016 00:15:00 0.0
2016_12_19_S20 12/20/2016 00:20:00 0.0
2016_12_19_S20 12/20/2016 00:25:00 0.0
2016_12_19_S20 12/20/2016 00:30:00 0.0
2016_12_19_S20 12/20/2016 00:35:00 0.0
2016_12_19_S20 12/20/2016 00:40:00 0.0
2016_12_19_S20 12/20/2016 00:45:00 0.0
2016_12_19_S20 12/20/2016 00:50:00 0.0
2016_12_19_S20 12/20/2016 00:55:00 0.0
2016_12_19_S20 12/20/2016 01:00:00 0.0
2016_12_19_S20 12/20/2016 01:05:00 0.0
2016_12_19_S20 12/20/2016 01:10:00 0.0
2016_12_19_S20 12/20/2016 01:15:00 0.0
2016_12_19_S20 12/20/2016 01:20:00 0.0
2016_12_19_S20 12/20/2016 01:25:00 0.0
2016_12_19_S20 12/20/2016 01:30:00 0.0
2016_12_19_S20 12/20/2016 01:35:00 0.0
2016_12_19_S20 12/20/2016 01:40:00 0.0
2016_12_19_S20 12/20/2016 01:45:00 0.0
2016_12_19_S20 12/20/2016 01:50:00 0.0
2016_12_19_S20 12/20/2016 01:55:00 0.0
2016_12_19_S20 12/20/2016 02:00:00 0.0
2016_12_19_S20 12/20/2016 02:05:00 0.0
2016_12_19_S20 12/20/2016 02:10:00 0.0
2016_12_19_S20 12/20/2016 02:15:00 0.0
2016_12_19_S20 12/20/2016 02:20:00 0.0
2016_12_19_S20 12/20/2016 02:25:00 0.0
2016_12_19_S20 12/20/2016 02:30:00 0.0
2016_12_19_S20 12/20/2016 02:35:00 0.0
2016_12_19_S20 12/20/2016 02:40:00 0.0
2016_12_19_S20 12/20/2016 02:45:00 0.0
2016_12_19_S20 12/20/2016 02:50:00 0.0
2016_12_19_S20 12/20/2016 02:55:00 0.0
2016_12_19_S20 12/20/2016 03:00:00 0.0
2016_12_19_S20 12/20/2016 03:05:00 0.0
2016_12_19_S20 12/20/2016 03:10:00 0.0
2016_12_19_S20 12/20/2016 03:15:00 0.0
2016_12_19_S20 12/20/2016 03:20:00 0.0
2016_12_19_S20 12/20/2016 03:25:00 0.0
2016_12_19_S20 12/20/2016 03:30:00 0.0
2016_12_19_S20 12/20/2016 03:35:00 0.0
2016_12_19_S20 12/20/2016 03:40:00 0.0
2016_12_19_S20 12/20/2016 03:45:00 0.0
2016_12_19_S20 12/20/2016 03:50:00 0.0
2016_12_19_S20 12/20/2016 03:55:00 0.0
2016_12_19_S20 12/20/2016 04:00:00 0.0
2016_12_19_S20 12/20/2016 04:05:00 0.0
2016_12_19_S20 12/20/2016 04:10:00 0.0
2016_12_19_S20 12/20/2016 04:15:00 0.0
2016_12_19_S20 12/20/2016 04:20:00 0.0
2016_12_19_S20 12/20/2016 04:25:00 0.0
2016_12_19_S20 12/20/2016 04:30:00 0.0
2016_12_19_S20 12/20/2016 04:35:00 0.0
2016_12_19_S20 12/20/2016 04:40:00 0.0
2016_12_19_S20 12/20/2016 04:45:00 0.0
2016_12_19_S20 12/20/2016 04:50:00 0.0
2016_12_19_S20 12/20/2016 04:55:00 0.0
2016_12_19_S20 12/20/2016 05:00:00 0.0
2016_12_19_S20 12/20/2016 05:05:00 0.0
2016_12_19_S20 12/20/2016 05:10:00 0.0
2016_12_19_S20 12/20/2016 05:15:00 0.0
2016_12_19_S20 12/20/2016 05:20:00 0.0
2016_12_19_S20 12/20/2016 05:25:00 0.0
2016_12_19_S20 12/20/2016 05:30:00 0.0
2016_12_19_S20 12/20/2016 05:35:00 0.0
2016_12_19_S20 12/20/2016 05:40:00 0.0
2016_12_19_S20 12/20/2016 05:45:00 0.0
2016_12_19_S20 12/20/2016 05:50:00 0.0
2016_12_19_S20 12/20/2016 05:55:00 0.0
2016_12_19_S20 12/20/2016 06:00:00 0.0
2016_12_19_S20 12/20/2016 06:05:00 0.0
2016_12_19_S20 12/20/2016 06:10:00 0.0
2016_12_19_S20 12/20/2016 06:15:00 0.0
2016_12_19_S20 12/20/2016 06:20:00 0.0
2016_12_19_S20 12/20/2016 06:25:00 0.0
2016_12_19_S20 12/20/2016 06:30:00 0.0
2016_12_19_S20 12/20/2016 06:35:00 0.0
2016_12_19_S20 12/20/2016 06:40:00 0.0
2016_12_19_S20 12/20/2016 06:45:00 0.0
2016_12_19_S20 12/20/2016 06:50:00 0.0
2016_12_19_S20 12/20/2016 06:55:00 0.0
2016_12_19_S20 12/20/2016 07:00:00 0.0
2016_12_19_S20 12/20/2016 07:05:00 0.0
2016_12_19_S20 12/20/2016 07:10:00 0.0
2016_12_19_S20 12/20/2016 07:15:00 0.0
2016_12_19_S20 12/20/2016 07:20:00 0.0
2016_12_19_S20 12/20/2016 07:25:00 0.0
2016_12_19_S20 12/20/2016 07:30:00 0.0
2016_12_19_S20 12/20/2016 07:35:00 0.0
2016_12_19_S20 12/20/2016 07:40:00 0.0
2016_12_19_S20 12/20/2016 07:45:00 0.0
2016_12_19_S20 12/20/2016 07:50:00 0.0
2016_12_19_S20 12/20/2016 07:55:00 0.0
2016_12_19_S20 12/20/2016 08:00:00 0.0

2016_12_19_S21 12/19/2016 15:20:00 0.0507
2016_12_19_S21 12/19/2016 15:25:00 0.2967
2016_12_19_S21 12/19/2016 15:30:00 0.6717
2016_12_19_S21 12/19/2016 15:35:00 0.0153
2016_12_19_S21 12/19/2016 15:40:00 0.0
2016_12_19_S21 12/19/2016 15:45:00 0.0036
2016_12_19_S21 12/19/2016 15:50:00 0.229
2016_12_19_S21 12/19/2016 15:55:00 2.2577
2016_12_19_S21 12/19/2016 16:00:00 0.4233
2016_12_19_S21 12/19/2016 16:05:00 2.0282
2016_12_19_S21 12/19/2016 16:10:00 2.428
2016_12_19_S21 12/19/2016 16:15:00 1.8229
2016_12_19_S21 12/19/2016 16:20:00 6.8513
2016_12_19_S21 12/19/2016 16:25:00 6.2772
2016_12_19_S21 12/19/2016 16:30:00 1.2168
2016_12_19_S21 12/19/2016 16:35:00 0.6942
2016_12_19_S21 12/19/2016 16:40:00 1.7667
2016_12_19_S21 12/19/2016 16:45:00 0.1669
2016_12_19_S21 12/19/2016 16:50:00 0.041
2016_12_19_S21 12/19/2016 16:55:00 0.0841
2016_12_19_S21 12/19/2016 17:00:00 0.1498
2016_12_19_S21 12/19/2016 17:05:00 0.1383
2016_12_19_S21 12/19/2016 17:10:00 0.1158
2016_12_19_S21 12/19/2016 17:15:00 0.2109
2016_12_19_S21 12/19/2016 17:20:00 0.4249
2016_12_19_S21 12/19/2016 17:25:00 0.1677
2016_12_19_S21 12/19/2016 17:30:00 0.1171
2016_12_19_S21 12/19/2016 17:35:00 0.0771
2016_12_19_S21 12/19/2016 17:40:00 0.0872
2016_12_19_S21 12/19/2016 17:45:00 0.0554
2016_12_19_S21 12/19/2016 17:50:00 0.0068
2016_12_19_S21 12/19/2016 17:55:00 0.0
2016_12_19_S21 12/19/2016 18:00:00 0.0004
2016_12_19_S21 12/19/2016 18:05:00 0.0
2016_12_19_S21 12/19/2016 18:10:00 0.0
2016_12_19_S21 12/19/2016 18:15:00 0.0
2016_12_19_S21 12/19/2016 18:20:00 0.0
2016_12_19_S21 12/19/2016 18:25:00 0.0
2016_12_19_S21 12/19/2016 18:30:00 0.0
2016_12_19_S21 12/19/2016 18:35:00 0.0
2016_12_19_S21 12/19/2016 18:40:00 0.0
2016_12_19_S21 12/19/2016 18:45:00 0.0
2016_12_19_S21 12/19/2016 18:50:00 0.0
2016_12_19_S21 12/19/2016 18:55:00 0.0
2016_12_19_S21 12/19/2016 19:00:00 0.0
2016_12_19_S21 12/19/2016 19:05:00 0.0
2016_12_19_S21 12/19/2016 19:10:00 0.0
2016_12_19_S21 12/19/2016 19:15:00 0.0047
2016_12_19_S21 12/19/2016 19:20:00 0.0152
2016_12_19_S21 12/19/2016 19:25:00 0.0729
2016_12_19_S21 12/19/2016 19:30:00 0.0155
2016_12_19_S21 12/19/2016 19:35:00 0.0292
2016_12_19_S21 12/19/2016 19:40:00 0.0516
2016_12_19_S21 12/19/2016 19:45:00 0.0141
2016_12_19_S21 12/19/2016 19:50:00 0.005
2016_12_19_S21 12/19/2016 19:55:00 0.0
2016_12_19_S21 12/19/2016 20:00:00 0.0
2016_12_19_S21 12/19/2016 20:05:00 0.0
2016_12_19_S21 12/19/2016 20:10:00 0.0
2016_12_19_S21 12/19/2016 20:15:00 0.0
2016_12_19_S21 12/19/2016 20:20:00 0.0
2016_12_19_S21 12/19/2016 20:25:00 0.0
2016_12_19_S21 12/19/2016 20:30:00 0.0
2016_12_19_S21 12/19/2016 20:35:00 0.0
2016_12_19_S21 12/19/2016 20:40:00 0.0
2016_12_19_S21 12/19/2016 20:45:00 0.0
2016_12_19_S21 12/19/2016 20:50:00 0.0
2016_12_19_S21 12/19/2016 20:55:00 0.0
2016_12_19_S21 12/19/2016 21:00:00 0.0
2016_12_19_S21 12/19/2016 21:05:00 0.0
2016_12_19_S21 12/19/2016 21:10:00 0.0
2016_12_19_S21 12/19/2016 21:15:00 0.0
2016_12_19_S21 12/19/2016 21:20:00 0.0
2016_12_19_S21 12/19/2016 21:25:00 0.0
2016_12_19_S21 12/19/2016 21:30:00 0.0
2016_12_19_S21 12/19/2016 21:35:00 0.0
2016_12_19_S21 12/19/2016 21:40:00 0.0
2016_12_19_S21 12/19/2016 21:45:00 0.0
2016_12_19_S21 12/19/2016 21:50:00 0.0
2016_12_19_S21 12/19/2016 21:55:00 0.0
2016_12_19_S21 12/19/2016 22:00:00 0.0
2016_12_19_S21 12/19/2016 22:05:00 0.0
2016_12_19_S21 12/19/2016 22:10:00 0.0
2016_12_19_S21 12/19/2016 22:15:00 0.0
2016_12_19_S21 12/19/2016 22:20:00 0.0
2016_12_19_S21 12/19/2016 22:25:00 0.0
2016_12_19_S21 12/19/2016 22:30:00 0.0
2016_12_19_S21 12/19/2016 22:35:00 0.0
2016_12_19_S21 12/19/2016 22:40:00 0.0
2016_12_19_S21 12/19/2016 22:45:00 0.0
2016_12_19_S21 12/19/2016 22:50:00 0.0
2016_12_19_S21 12/19/2016 22:55:00 0.0
2016_12_19_S21 12/19/2016 23:00:00 0.0
2016_12_19_S21 12/19/2016 23:05:00 0.0
2016_12_19_S21 12/19/2016 23:10:00 0.0
2016_12_19_S21 12/19/2016 23:15:00 0.0
2016_12_19_S21 12/19/2016 23:20:00 0.0
2016_12_19_S21 12/19/2016 23:25:00 0.0
2016_12_19_S21 12/19/2016 23:30:00 0.0
2016_12_19_S21 12/19/2016 23:35:00 0.0
2016_12_19_S21 12/19/2016 23:40:00 0.0
2016_12_19_S21 12/19/2016 23:45:00 0.0
2016_12_19_S21 12/19/2016 23:50:00 0.0
2016_12_19_S21 12/19/2016 23:55:00 0.0
2016_12_19_S21 12/20/2016 00:00:00 0.0
2016_12_19_S21 12/20/2016 00:05:00 0.0
2016_12_19_S21 12/20/2016 00:10:00 0.0
2016_12_19_S21 12/20/2016 00:15:00 0.0
2016_12_19_S21 12/20/2016 00:20:00 0.0
2016_12_19_S21 12/20/2016 00:25:00 0.0
2016_12_19_S21 12/20/2016 00:30:00 0.0
2016_12_19_S21 12/20/2016 00:35:00 0.0
2016_12_19_S21 12/20/2016 00:40:00 0.0
2016_12_19_S21 12/20/2016 00:45:00 0.0
2016_12_19_S21 12/20/2016 00:50:00 0.0
2016_12_19_S21 12/20/2016 00:55:00 0.0
2016_12_19_S21 12/20/2016 01:00:00 0.0
2016_12_19_S21 12/20/2016 01:05:00 0.0
2016_12_19_S21 12/20/2016 01:10:00 0.0
2016_12_19_S21 12/20/2016 01:15:00 0.0
2016_12_19_S21 12/20/2016 01:20:00 0.0
2016_12_19_S21 12/20/2016 01:25:00 0.0
2016_12_19_S21 12/20/2016 01:30:00 0.0
2016_12_19_S21 12/20/2016 01:35:00 0.0
2016_12_19_S21 12/20/2016 01:40:00 0.0
2016_12_19_S21 12/20/2016 01:45:00 0.0
2016_12_19_S21 12/20/2016 01:50:00 0.0
2016_12_19_S21 12/20/2016 01:55:00 0.0
2016_12_19_S21 12/20/2016 02:00:00 0.0
2016_12_19_S21 12/20/2016 02:05:00 0.0
2016_12_19_S21 12/20/2016 02:10:00 0.0
2016_12_19_S21 12/20/2016 02:15:00 0.0
2016_12_19_S21 12/20/2016 02:20:00 0.0
2016_12_19_S21 12/20/2016 02:25:00 0.0
2016_12_19_S21 12/20/2016 02:30:00 0.0
2016_12_19_S21 12/20/2016 02:35:00 0.0
2016_12_19_S21 12/20/2016 02:40:00 0.0
2016_12_19_S21 12/20/2016 02:45:00 0.0
2016_12_19_S21 12/20/2016 02:50:00 0.0
2016_12_19_S21 12/20/2016 02:55:00 0.0
2016_12_19_S21 12/20/2016 03:00:00 0.0
2016_12_19_S21 12/20/2016 03:05:00 0.0
2016_12_19_S21 12/20/2016 03:10:00 0.0
2016_12_19_S21 12/20/2016 03:15:00 0.0
2016_12_19_S21 12/20/2016 03:20:00 0.0
2016_12_19_S21 12/20/2016 03:25:00 0.0
2016_12_19_S21 12/20/2016 03:30:00 0.0
2016_12_19_S21 12/20/2016 03:35:00 0.0
2016_12_19_S21 12/20/2016 03:40:00 0.0
2016_12_19_S21 12/20/2016 03:45:00 0.0
2016_12_19_S21 12/20/2016 03:50:00 0.0
2016_12_19_S21 12/20/2016 03:55:00 0.0
2016_12_19_S21 12/20/2016 04:00:00 0.0
2016_12_19_S21 12/20/2016 04:05:00 0.0
2016_12_19_S21 12/20/2016 04:10:00 0.0
2016_12_19_S21 12/20/2016 04:15:00 0.0
2016_12_19_S21 12/20/2016 04:20:00 0.0
2016_12_19_S21 12/20/2016 04:25:00 0.0
2016_12_19_S21 12/20/2016 04:30:00 0.0
2016_12_19_S21 12/20/2016 04:35:00 0.0
2016_12_19_S21 12/20/2016 04:40:00 0.0
2016_12_19_S21 12/20/2016 04:45:00 0.0
2016_12_19_S21 12/20/2016 04:50:00 0.0
2016_12_19_S21 12/20/2016 04:55:00 0.0
2016_12_19_S21 12/20/2016 05:00:00 0.0
2016_12_19_S21 12/20/2016 05:05:00 0.0
2016_12_19_S21 12/20/2016 05:10:00 0.0
2016_12_19_S21 12/20/2016 05:15:00 0.0
2016_12_19_S21 12/20/2016 05:20:00 0.0
2016_12_19_S21 12/20/2016 05:25:00 0.0
2016_12_19_S21 12/20/2016 05:30:00 0.0
2016_12_19_S21 12/20/2016 05:35:00 0.0
2016_12_19_S21 12/20/2016 05:40:00 0.0
2016_12_19_S21 12/20/2016 05:45:00 0.0
2016_12_19_S21 12/20/2016 05:50:00 0.0
2016_12_19_S21 12/20/2016 05:55:00 0.0
2016_12_19_S21 12/20/2016 06:00:00 0.0
2016_12_19_S21 12/20/2016 06:05:00 0.0
2016_12_19_S21 12/20/2016 06:10:00 0.0
2016_12_19_S21 12/20/2016 06:15:00 0.0
2016_12_19_S21 12/20/2016 06:20:00 0.0
2016_12_19_S21 12/20/2016 06:25:00 0.0
2016_12_19_S21 12/20/2016 06:30:00 0.0
2016_12_19_S21 12/20/2016 06:35:00 0.0
2016_12_19_S21 12/20/2016 06:40:00 0.0
2016_12_19_S21 12/20/2016 06:45:00 0.0
2016_12_19_S21 12/20/2016 06:50:00 0.0
2016_12_19_S21 12/20/2016 06:55:00 0.0
2016_12_19_S21 12/20/2016 07:00:00 0.0
2016_12_19_S21 12/20/2016 07:05:00 0.0
2016_12_19_S21 12/20/2016 07:10:00 0.0
2016_12_19_S21 12/20/2016 07:15:00 0.0
2016_12_19_S21 12/20/2016 07:20:00 0.0
2016_12_19_S21 12/20/2016 07:25:00 0.0
2016_12_19_S21 12/20/2016 07:30:00 0.0
2016_12_19_S21 12/20/2016 07:35:00 0.0
2016_12_19_S21 12/20/2016 07:40:00 0.0
2016_12_19_S21 12/20/2016 07:45:00 0.0
2016_12_19_S21 12/20/2016 07:50:00 0.0
2016_12_19_S21 12/20/2016 07:55:00 0.0
2016_12_19_S21 12/20/2016 08:00:00 0.0

2016_12_19_S22 12/19/2016 15:20:00 0.0277
2016_12_19_S22 12/19/2016 15:25:00 0.191
2016_12_19_S22 12/19/2016 15:30:00 0.6414
2016_12_19_S22 12/19/2016 15:35:00 0.0308
2016_12_19_S22 12/19/2016 15:40:00 0.0
2016_12_19_S22 12/19/2016 15:45:00 0.0015
2016_12_19_S22 12/19/2016 15:50:00 0.2931
2016_12_19_S22 12/19/2016 15:55:00 1.4599
2016_12_19_S22 12/19/2016 16:00:00 0.6454
2016_12_19_S22 12/19/2016 16:05:00 1.6575
2016_12_19_S22 12/19/2016 16:10:00 1.6953
2016_12_19_S22 12/19/2016 16:15:00 1.5825
2016_12_19_S22 12/19/2016 16:20:00 2.8451
2016_12_19_S22 12/19/2016 16:25:00 4.2032
2016_12_19_S22 12/19/2016 16:30:00 2.5798
2016_12_19_S22 12/19/2016 16:35:00 0.9616
2016_12_19_S22 12/19/2016 16:40:00 1.1012
2016_12_19_S22 12/19/2016 16:45:00 0.2262
2016_12_19_S22 12/19/2016 16:50:00 0.0634
2016_12_19_S22 12/19/2016 16:55:00 0.099
2016_12_19_S22 12/19/2016 17:00:00 0.1478
2016_12_19_S22 12/19/2016 17:05:00 0.1727
2016_12_19_S22 12/19/2016 17:10:00 0.1228
2016_12_19_S22 12/19/2016 17:15:00 0.2064
2016_12_19_S22 12/19/2016 17:20:00 0.2909
2016_12_19_S22 12/19/2016 17:25:00 0.1134
2016_12_19_S22 12/19/2016 17:30:00 0.0737
2016_12_19_S22 12/19/2016 17:35:00 0.0234
2016_12_19_S22 12/19/2016 17:40:00 0.0663
2016_12_19_S22 12/19/2016 17:45:00 0.045
2016_12_19_S22 12/19/2016 17:50:00 0.0043
2016_12_19_S22 12/19/2016 17:55:00 0.0
2016_12_19_S22 12/19/2016 18:00:00 0.0003
2016_12_19_S22 12/19/2016 18:05:00 0.0
2016_12_19_S22 12/19/2016 18:10:00 0.0
2016_12_19_S22 12/19/2016 18:15:00 0.0
2016_12_19_S22 12/19/2016 18:20:00 0.0
2016_12_19_S22 12/19/2016 18:25:00 0.0
2016_12_19_S22 12/19/2016 18:30:00 0.0
2016_12_19_S22 12/19/2016 18:35:00 0.0
2016_12_19_S22 12/19/2016 18:40:00 0.0
2016_12_19_S22 12/19/2016 18:45:00 0.0
2016_12_19_S22 12/19/2016 18:50:00 0.0
2016_12_19_S22 12/19/2016 18:55:00 0.0
2016_12_19_S22 12/19/2016 19:00:00 0.0
2016_12_19_S22 12/19/2016 19:05:00 0.0
2016_12_19_S22 12/19/2016 19:10:00 0.0
2016_12_19_S22 12/19/2016 19:15:00 0.0008
2016_12_19_S22 12/19/2016 19:20:00 0.0139
2016_12_19_S22 12/19/2016 19:25:00 0.0517
2016_12_19_S22 12/19/2016 19:30:00 0.0196
2016_12_19_S22 12/19/2016 19:35:00 0.0254
2016_12_19_S22 12/19/2016 19:40:00 0.0353
2016_12_19_S22 12/19/2016 19:45:00 0.0168
2016_12_19_S22 12/19/2016 19:50:00 0.0047
2016_12_19_S22 12/19/2016 19:55:00 0.0
2016_12_19_S22 12/19/2016 20:00:00 0.0
2016_12_19_S22 12/19/2016 20:05:00 0.0
2016_12_19_S22 12/19/2016 20:10:00 0.0
2016_12_19_S22 12/19/2016 20:15:00 0.0
2016_12_19_S22 12/19/2016 20:20:00 0.0
2016_12_19_S22 12/19/2016 20:25:00 0.0
2016_12_19_S22 12/19/2016 20:30:00 0.0
2016_12_19_S22 12/19/2016 20:35:00 0.0
2016_12_19_S22 12/19/2016 20:40:00 0.0
2016_12_19_S22 12/19/2016 20:45:00 0.0
2016_12_19_S22 12/19/2016 20:50:00 0.0
2016_12_19_S22 12/19/2016 20:55:00 0.0
2016_12_19_S22 12/19/2016 21:00:00 0.0
2016_12_19_S22 12/19/2016 21:05:00 0.0
2016_12_19_S22 12/19/2016 21:10:00 0.0
2016_12_19_S22 12/19/2016 21:15:00 0.0
2016_12_19_S22 12/19/2016 21:20:00 0.0
2016_12_19_S22 12/19/2016 21:25:00 0.0
2016_12_19_S22 12/19/2016 21:30:00 0.0
2016_12_19_S22 12/19/2016 21:35:00 0.0
2016_12_19_S22 12/19/2016 21:40:00 0.0
2016_12_19_S22 12/19/2016 21:45:00 0.0
2016_12_19_S22 12/19/2016 21:50:00 0.0
2016_12_19_S22 12/19/2016 21:55:00 0.0
2016_12_19_S22 12/19/2016 22:00:00 0.0
2016_12_19_S22 12/19/2016 22:05:00 0.0
2016_12_19_S22 12/19/2016 22:10:00 0.0
2016_12_19_S22 12/19/2016 22:15:00 0.0
2016_12_19_S22 12/19/2016 22:20:00 0.0
2016_12_19_S22 12/19/2016 22:25:00 0.0
2016_12_19_S22 12/19/2016 22:30:00 0.0
2016_12_19_S22 12/19/2016 22:35:00 0.0
2016_12_19_S22 12/19/2016 22:40:00 0.0
2016_12_19_S22 12/19/2016 22:45:00 0.0
2016_12_19_S22 12/19/2016 22:50:00 0.0
2016_12_19_S22 12/19/2016 22:55:00 0.0
2016_12_19_S22 12/19/2016 23:00:00 0.0
2016_12_19_S22 12/19/2016 23:05:00 0.0
2016_12_19_S22 12/19/2016 23:10:00 0.0
2016_12_19_S22 12/19/2016 23:15:00 0.0
2016_12_19_S22 12/19/2016 23:20:00 0.0
2016_12_19_S22 12/19/2016 23:25:00 0.0
2016_12_19_S22 12/19/2016 23:30:00 0.0
2016_12_19_S22 12/19/2016 23:35:00 0.0
2016_12_19_S22 12/19/2016 23:40:00 0.0
2016_12_19_S22 12/19/2016 23:45:00 0.0
2016_12_19_S22 12/19/2016 23:50:00 0.0
2016_12_19_S22 12/19/2016 23:55:00 0.0
2016_12_19_S22 12/20/2016 00:00:00 0.0
2016_12_19_S22 12/20/2016 00:05:00 0.0
2016_12_19_S22 12/20/2016 00:10:00 0.0
2016_12_19_S22 12/20/2016 00:15:00 0.0
2016_12_19_S22 12/20/2016 00:20:00 0.0
2016_12_19_S22 12/20/2016 00:25:00 0.0
2016_12_19_S22 12/20/2016 00:30:00 0.0
2016_12_19_S22 12/20/2016 00:35:00 0.0
2016_12_19_S22 12/20/2016 00:40:00 0.0
2016_12_19_S22 12/20/2016 00:45:00 0.0
2016_12_19_S22 12/20/2016 00:50:00 0.0
2016_12_19_S22 12/20/2016 00:55:00 0.0
2016_12_19_S22 12/20/2016 01:00:00 0.0
2016_12_19_S22 12/20/2016 01:05:00 0.0
2016_12_19_S22 12/20/2016 01:10:00 0.0
2016_12_19_S22 12/20/2016 01:15:00 0.0
2016_12_19_S22 12/20/2016 01:20:00 0.0
2016_12_19_S22 12/20/2016 01:25:00 0.0
2016_12_19_S22 12/20/2016 01:30:00 0.0
2016_12_19_S22 12/20/2016 01:35:00 0.0
2016_12_19_S22 12/20/2016 01:40:00 0.0
2016_12_19_S22 12/20/2016 01:45:00 0.0
2016_12_19_S22 12/20/2016 01:50:00 0.0
2016_12_19_S22 12/20/2016 01:55:00 0.0
2016_12_19_S22 12/20/2016 02:00:00 0.0
2016_12_19_S22 12/20/2016 02:05:00 0.0
2016_12_19_S22 12/20/2016 02:10:00 0.0
2016_12_19_S22 12/20/2016 02:15:00 0.0
2016_12_19_S22 12/20/2016 02:20:00 0.0
2016_12_19_S22 12/20/2016 02:25:00 0.0
2016_12_19_S22 12/20/2016 02:30:00 0.0
2016_12_19_S22 12/20/2016 02:35:00 0.0
2016_12_19_S22 12/20/2016 02:40:00 0.0
2016_12_19_S22 12/20/2016 02:45:00 0.0
2016_12_19_S22 12/20/2016 02:50:00 0.0
2016_12_19_S22 12/20/2016 02:55:00 0.0
2016_12_19_S22 12/20/2016 03:00:00 0.0
2016_12_19_S22 12/20/2016 03:05:00 0.0
2016_12_19_S22 12/20/2016 03:10:00 0.0
2016_12_19_S22 12/20/2016 03:15:00 0.0
2016_12_19_S22 12/20/2016 03:20:00 0.0
2016_12_19_S22 12/20/2016 03:25:00 0.0
2016_12_19_S22 12/20/2016 03:30:00 0.0
2016_12_19_S22 12/20/2016 03:35:00 0.0
2016_12_19_S22 12/20/2016 03:40:00 0.0
2016_12_19_S22 12/20/2016 03:45:00 0.0
2016_12_19_S22 12/20/2016 03:50:00 0.0
2016_12_19_S22 12/20/2016 03:55:00 0.0
2016_12_19_S22 12/20/2016 04:00:00 0.0
2016_12_19_S22 12/20/2016 04:05:00 0.0
2016_12_19_S22 12/20/2016 04:10:00 0.0
2016_12_19_S22 12/20/2016 04:15:00 0.0
2016_12_19_S22 12/20/2016 04:20:00 0.0
2016_12_19_S22 12/20/2016 04:25:00 0.0
2016_12_19_S22 12/20/2016 04:30:00 0.0
2016_12_19_S22 12/20/2016 04:35:00 0.0
2016_12_19_S22 12/20/2016 04:40:00 0.0
2016_12_19_S22 12/20/2016 04:45:00 0.0
2016_12_19_S22 12/20/2016 04:50:00 0.0
2016_12_19_S22 12/20/2016 04:55:00 0.0
2016_12_19_S22 12/20/2016 05:00:00 0.0
2016_12_19_S22 12/20/2016 05:05:00 0.0
2016_12_19_S22 12/20/2016 05:10:00 0.0
2016_12_19_S22 12/20/2016 05:15:00 0.0
2016_12_19_S22 12/20/2016 05:20:00 0.0
2016_12_19_S22 12/20/2016 05:25:00 0.0
2016_12_19_S22 12/20/2016 05:30:00 0.0
2016_12_19_S22 12/20/2016 05:35:00 0.0
2016_12_19_S22 12/20/2016 05:40:00 0.0
2016_12_19_S22 12/20/2016 05:45:00 0.0
2016_12_19_S22 12/20/2016 05:50:00 0.0
2016_12_19_S22 12/20/2016 05:55:00 0.0
2016_12_19_S22 12/20/2016 06:00:00 0.0
2016_12_19_S22 12/20/2016 06:05:00 0.0
2016_12_19_S22 12/20/2016 06:10:00 0.0
2016_12_19_S22 12/20/2016 06:15:00 0.0
2016_12_19_S22 12/20/2016 06:20:00 0.0
2016_12_19_S22 12/20/2016 06:25:00 0.0
2016_12_19_S22 12/20/2016 06:30:00 0.0
2016_12_19_S22 12/20/2016 06:35:00 0.0
2016_12_19_S22 12/20/2016 06:40:00 0.0
2016_12_19_S22 12/20/2016 06:45:00 0.0
2016_12_19_S22 12/20/2016 06:50:00 0.0
2016_12_19_S22 12/20/2016 06:55:00 0.0
2016_12_19_S22 12/20/2016 07:00:00 0.0
2016_12_19_S22 12/20/2016 07:05:00 0.0
2016_12_19_S22 12/20/2016 07:10:00 0.0
2016_12_19_S22 12/20/2016 07:15:00 0.0
2016_12_19_S22 12/20/2016 07:20:00 0.0
2016_12_19_S22 12/20/2016 07:25:00 0.0
2016_12_19_S22 12/20/2016 07:30:00 0.0
2016_12_19_S22 12/20/2016 07:35:00 0.0
2016_12_19_S22 12/20/2016 07:40:00 0.0
2016_12_19_S22 12/20/2016 07:45:00 0.0
2016_12_19_S22 12/20/2016 07:50:00 0.0
2016_12_19_S22 12/20/2016 07:55:00 0.0
2016_12_19_S22 12/20/2016 08:00:00 0.0

2016_12_19_S23 12/19/2016 15:20:00 0.0355
2016_12_19_S23 12/19/2016 15:25:00 0.2098
2016_12_19_S23 12/19/2016 15:30:00 0.4905
2016_12_19_S23 12/19/2016 15:35:00 0.0117
2016_12_19_S23 12/19/2016 15:40:00 0.0
2016_12_19_S23 12/19/2016 15:45:00 0.0054
2016_12_19_S23 12/19/2016 15:50:00 0.1112
2016_12_19_S23 12/19/2016 15:55:00 1.7985
2016_12_19_S23 12/19/2016 16:00:00 0.6926
2016_12_19_S23 12/19/2016 16:05:00 1.7353
2016_12_19_S23 12/19/2016 16:10:00 3.3878
2016_12_19_S23 12/19/2016 16:15:00 2.7165
2016_12_19_S23 12/19/2016 16:20:00 6.9422
2016_12_19_S23 12/19/2016 16:25:00 4.7903
2016_12_19_S23 12/19/2016 16:30:00 1.2221
2016_12_19_S23 12/19/2016 16:35:00 0.5049
2016_12_19_S23 12/19/2016 16:40:00 1.4551
2016_12_19_S23 12/19/2016 16:45:00 0.2098
2016_12_19_S23 12/19/2016 16:50:00 0.0397
2016_12_19_S23 12/19/2016 16:55:00 0.12
2016_12_19_S23 12/19/2016 17:00:00 0.1659
2016_12_19_S23 12/19/2016 17:05:00 0.2439
2016_12_19_S23 12/19/2016 17:10:00 0.157
2016_12_19_S23 12/19/2016 17:15:00 0.2506
2016_12_19_S23 12/19/2016 17:20:00 0.4416
2016_12_19_S23 12/19/2016 17:25:00 0.1659
2016_12_19_S23 12/19/2016 17:30:00 0.143
2016_12_19_S23 12/19/2016 17:35:00 0.1196
2016_12_19_S23 12/19/2016 17:40:00 0.0999
2016_12_19_S23 12/19/2016 17:45:00 0.0729
2016_12_19_S23 12/19/2016 17:50:00 0.0085
2016_12_19_S23 12/19/2016 17:55:00 0.0
2016_12_19_S23 12/19/2016 18:00:00 0.0003
2016_12_19_S23 12/19/2016 18:05:00 0.0
2016_12_19_S23 12/19/2016 18:10:00 0.0
2016_12_19_S23 12/19/2016 18:15:00 0.0
2016_12_19_S23 12/19/2016 18:20:00 0.0
2016_12_19_S23 12/19/2016 18:25:00 0.0
2016_12_19_S23 12/19/2016 18:30:00 0.0
2016_12_19_S23 12/19/2016 18:35:00 0.0
2016_12_19_S23 12/19/2016 18:40:00 0.0
2016_12_19_S23 12/19/2016 18:45:00 0.0
2016_12_19_S23 12/19/2016 18:50:00 0.0
2016_12_19_S23 12/19/2016 18:55:00 0.0
2016_12_19_S23 12/19/2016 19:00:00 0.0
2016_12_19_S23 12/19/2016 19:05:00 0.0
2016_12_19_S23 12/19/2016 19:10:00 0.0
2016_12_19_S23 12/19/2016 19:15:00 0.0012
2016_12_19_S23 12/19/2016 19:20:00 0.0154
2016_12_19_S23 12/19/2016 19:25:00 0.0557
2016_12_19_S23 12/19/2016 19:30:00 0.014
2016_12_19_S23 12/19/2016 19:35:00 0.0298
2016_12_19_S23 12/19/2016 19:40:00 0.0462
2016_12_19_S23 12/19/2016 19:45:00 0.0173
2016_12_19_S23 12/19/2016 19:50:00 0.0073
2016_12_19_S23 12/19/2016 19:55:00 0.0
2016_12_19_S23 12/19/2016 20:00:00 0.0006
2016_12_19_S23 12/19/2016 20:05:00 0.0008
2016_12_19_S23 12/19/2016 20:10:00 0.0
2016_12_19_S23 12/19/2016 20:15:00 0.0
2016_12_19_S23 12/19/2016 20:20:00 0.0
2016_12_19_S23 12/19/2016 20:25:00 0.0
2016_12_19_S23 12/19/2016 20:30:00 0.0
2016_12_19_S23 12/19/2016 20:35:00 0.0
2016_12_19_S23 12/19/2016 20:40:00 0.0
2016_12_19_S23 12/19/2016 20:45:00 0.0
2016_12_19_S23 12/19/2016 20:50:00 0.0
2016_12_19_S23 12/19/2016 20:55:00 0.0
2016_12_19_S23 12/19/2016 21:00:00 0.0
2016_12_19_S23 12/19/2016 21:05:00 0.0
2016_12_19_S23 12/19/2016 21:10:00 0.0
2016_12_19_S23 12/19/2016 21:15:00 0.0
2016_12_19_S23 12/19/2016 21:20:00 0.0
2016_12_19_S23 12/19/2016 21:25:00 0.0
2016_12_19_S23 12/19/2016 21:30:00 0.0
2016_12_19_S23 12/19/2016 21:35:00 0.0
2016_12_19_S23 12/19/2016 21:40:00 0.0
2016_12_19_S23 12/19/2016 21:45:00 0.0
2016_12_19_S23 12/19/2016 21:50:00 0.0
2016_12_19_S23 12/19/2016 21:55:00 0.0
2016_12_19_S23 12/19/2016 22:00:00 0.0
2016_12_19_S23 12/19/2016 22:05:00 0.0
2016_12_19_S23 12/19/2016 22:10:00 0.0
2016_12_19_S23 12/19/2016 22:15:00 0.0
2016_12_19_S23 12/19/2016 22:20:00 0.0
2016_12_19_S23 12/19/2016 22:25:00 0.0
2016_12_19_S23 12/19/2016 22:30:00 0.0
2016_12_19_S23 12/19/2016 22:35:00 0.0
2016_12_19_S23 12/19/2016 22:40:00 0.0
2016_12_19_S23 12/19/2016 22:45:00 0.0
2016_12_19_S23 12/19/2016 22:50:00 0.0
2016_12_19_S23 12/19/2016 22:55:00 0.0
2016_12_19_S23 12/19/2016 23:00:00 0.0
2016_12_19_S23 12/19/2016 23:05:00 0.0
2016_12_19_S23 12/19/2016 23:10:00 0.0
2016_12_19_S23 12/19/2016 23:15:00 0.0
2016_12_19_S23 12/19/2016 23:20:00 0.0
2016_12_19_S23 12/19/2016 23:25:00 0.0
2016_12_19_S23 12/19/2016 23:30:00 0.0
2016_12_19_S23 12/19/2016 23:35:00 0.0
2016_12_19_S23 12/19/2016 23:40:00 0.0
2016_12_19_S23 12/19/2016 23:45:00 0.0
2016_12_19_S23 12/19/2016 23:50:00 0.0
2016_12_19_S23 12/19/2016 23:55:00 0.0
2016_12_19_S23 12/20/2016 00:00:00 0.0
2016_12_19_S23 12/20/2016 00:05:00 0.0
2016_12_19_S23 12/20/2016 00:10:00 0.0
2016_12_19_S23 12/20/2016 00:15:00 0.0
2016_12_19_S23 12/20/2016 00:20:00 0.0
2016_12_19_S23 12/20/2016 00:25:00 0.0
2016_12_19_S23 12/20/2016 00:30:00 0.0
2016_12_19_S23 12/20/2016 00:35:00 0.0
2016_12_19_S23 12/20/2016 00:40:00 0.0
2016_12_19_S23 12/20/2016 00:45:00 0.0
2016_12_19_S23 12/20/2016 00:50:00 0.0
2016_12_19_S23 12/20/2016 00:55:00 0.0
2016_12_19_S23 12/20/2016 01:00:00 0.0
2016_12_19_S23 12/20/2016 01:05:00 0.0
2016_12_19_S23 12/20/2016 01:10:00 0.0
2016_12_19_S23 12/20/2016 01:15:00 0.0
2016_12_19_S23 12/20/2016 01:20:00 0.0
2016_12_19_S23 12/20/2016 01:25:00 0.0
2016_12_19_S23 12/20/2016 01:30:00 0.0
2016_12_19_S23 12/20/2016 01:35:00 0.0
2016_12_19_S23 12/20/2016 01:40:00 0.0
2016_12_19_S23 12/20/2016 01:45:00 0.0
2016_12_19_S23 12/20/2016 01:50:00 0.0
2016_12_19_S23 12/20/2016 01:55:00 0.0
2016_12_19_S23 12/20/2016 02:00:00 0.0
2016_12_19_S23 12/20/2016 02:05:00 0.0
2016_12_19_S23 12/20/2016 02:10:00 0.0
2016_12_19_S23 12/20/2016 02:15:00 0.0
2016_12_19_S23 12/20/2016 02:20:00 0.0
2016_12_19_S23 12/20/2016 02:25:00 0.0
2016_12_19_S23 12/20/2016 02:30:00 0.0
2016_12_19_S23 12/20/2016 02:35:00 0.0
2016_12_19_S23 12/20/2016 02:40:00 0.0
2016_12_19_S23 12/20/2016 02:45:00 0.0
2016_12_19_S23 12/20/2016 02:50:00 0.0
2016_12_19_S23 12/20/2016 02:55:00 0.0
2016_12_19_S23 12/20/2016 03:00:00 0.0
2016_12_19_S23 12/20/2016 03:05:00 0.0
2016_12_19_S23 12/20/2016 03:10:00 0.0
2016_12_19_S23 12/20/2016 03:15:00 0.0
2016_12_19_S23 12/20/2016 03:20:00 0.0
2016_12_19_S23 12/20/2016 03:25:00 0.0
2016_12_19_S23 12/20/2016 03:30:00 0.0
2016_12_19_S23 12/20/2016 03:35:00 0.0
2016_12_19_S23 12/20/2016 03:40:00 0.0
2016_12_19_S23 12/20/2016 03:45:00 0.0
2016_12_19_S23 12/20/2016 03:50:00 0.0
2016_12_19_S23 12/20/2016 03:55:00 0.0
2016_12_19_S23 12/20/2016 04:00:00 0.0
2016_12_19_S23 12/20/2016 04:05:00 0.0
2016_12_19_S23 12/20/2016 04:10:00 0.0
2016_12_19_S23 12/20/2016 04:15:00 0.0
2016_12_19_S23 12/20/2016 04:20:00 0.0
2016_12_19_S23 12/20/2016 04:25:00 0.0
2016_12_19_S23 12/20/2016 04:30:00 0.0
2016_12_19_S23 12/20/2016 04:35:00 0.0
2016_12_19_S23 12/20/2016 04:40:00 0.0
2016_12_19_S23 12/20/2016 04:45:00 0.0
2016_12_19_S23 12/20/2016 04:50:00 0.0
2016_12_19_S23 12/20/2016 04:55:00 0.0
2016_12_19_S23 12/20/2016 05:00:00 0.0
2016_12_19_S23 12/20/2016 05:05:00 0.0
2016_12_19_S23 12/20/2016 05:10:00 0.0
2016_12_19_S23 12/20/2016 05:15:00 0.0
2016_12_19_S23 12/20/2016 05:20:00 0.0
2016_12_19_S23 12/20/2016 05:25:00 0.0
2016_12_19_S23 12/20/2016 05:30:00 0.0
2016_12_19_S23 12/20/2016 05:35:00 0.0
2016_12_19_S23 12/20/2016 05:40:00 0.0
2016_12_19_S23 12/20/2016 05:45:00 0.0
2016_12_19_S23 12/20/2016 05:50:00 0.0
2016_12_19_S23 12/20/2016 05:55:00 0.0
2016_12_19_S23 12/20/2016 06:00:00 0.0
2016_12_19_S23 12/20/2016 06:05:00 0.0
2016_12_19_S23 12/20/2016 06:10:00 0.0
2016_12_19_S23 12/20/2016 06:15:00 0.0
2016_12_19_S23 12/20/2016 06:20:00 0.0
2016_12_19_S23 12/20/2016 06:25:00 0.0
2016_12_19_S23 12/20/2016 06:30:00 0.0
2016_12_19_S23 12/20/2016 06:35:00 0.0
2016_12_19_S23 12/20/2016 06:40:00 0.0
2016_12_19_S23 12/20/2016 06:45:00 0.0
2016_12_19_S23 12/20/2016 06:50:00 0.0
2016_12_19_S23 12/20/2016 06:55:00 0.0
2016_12_19_S23 12/20/2016 07:00:00 0.0
2016_12_19_S23 12/20/2016 07:05:00 0.0
2016_12_19_S23 12/20/2016 07:10:00 0.0
2016_12_19_S23 12/20/2016 07:15:00 0.0
2016_12_19_S23 12/20/2016 07:20:00 0.0
2016_12_19_S23 12/20/2016 07:25:00 0.0
2016_12_19_S23 12/20/2016 07:30:00 0.0
2016_12_19_S23 12/20/2016 07:35:00 0.0
2016_12_19_S23 12/20/2016 07:40:00 0.0
2016_12_19_S23 12/20/2016 07:45:00 0.0
2016_12_19_S23 12/20/2016 07:50:00 0.0
2016_12_19_S23 12/20/2016 07:55:00 0.0
2016_12_19_S23 12/20/2016 08:00:00 0.0

2016_12_19_S24 12/19/2016 15:20:00 0.0393
2016_12_19_S24 12/19/2016 15:25:00 0.2534
2016_12_19_S24 12/19/2016 15:30:00 0.1408
2016_12_19_S24 12/19/2016 15:35:00 0.0083
2016_12_19_S24 12/19/2016 15:40:00 0.0
2016_12_19_S24 12/19/2016 15:45:00 0.0095
2016_12_19_S24 12/19/2016 15:50:00 0.0887
2016_12_19_S24 12/19/2016 15:55:00 0.9956
2016_12_19_S24 12/19/2016 16:00:00 0.7431
2016_12_19_S24 12/19/2016 16:05:00 1.4887
2016_12_19_S24 12/19/2016 16:10:00 4.4149
2016_12_19_S24 12/19/2016 16:15:00 4.1
2016_12_19_S24 12/19/2016 16:20:00 4.2803
2016_12_19_S24 12/19/2016 16:25:00 3.1745
2016_12_19_S24 12/19/2016 16:30:00 0.8031
2016_12_19_S24 12/19/2016 16:35:00 0.3942
2016_12_19_S24 12/19/2016 16:40:00 0.9209
2016_12_19_S24 12/19/2016 16:45:00 0.1341
2016_12_19_S24 12/19/2016 16:50:00 0.0366
2016_12_19_S24 12/19/2016 16:55:00 0.0577
2016_12_19_S24 12/19/2016 17:00:00 0.1235
2016_12_19_S24 12/19/2016 17:05:00 0.1962
2016_12_19_S24 12/19/2016 17:10:00 0.185
2016_12_19_S24 12/19/2016 17:15:00 0.3057
2016_12_19_S24 12/19/2016 17:20:00 0.3942
2016_12_19_S24 12/19/2016 17:25:00 0.2325
2016_12_19_S24 12/19/2016 17:30:00 0.1967
2016_12_19_S24 12/19/2016 17:35:00 0.1167
2016_12_19_S24 12/19/2016 17:40:00 0.1483
2016_12_19_S24 12/19/2016 17:45:00 0.0751
2016_12_19_S24 12/19/2016 17:50:00 0.0074
2016_12_19_S24 12/19/2016 17:55:00 0.0
2016_12_19_S24 12/19/2016 18:00:00 0.0
2016_12_19_S24 12/19/2016 18:05:00 0.0
2016_12_19_S24 12/19/2016 18:10:00 0.0
2016_12_19_S24 12/19/2016 18:15:00 0.0
2016_12_19_S24 12/19/2016 18:20:00 0.0
2016_12_19_S24 12/19/2016 18:25:00 0.0
2016_12_19_S24 12/19/2016 18:30:00 0.0
2016_12_19_S24 12/19/2016 18:35:00 0.0
2016_12_19_S24 12/19/2016 18:40:00 0.0
2016_12_19_S24 12/19/2016 18:45:00 0.0
2016_12_19_S24 12/19/2016 18:50:00 0.0
2016_12_19_S24 12/19/2016 18:55:00 0.0
2016_12_19_S24 12/19/2016 19:00:00 0.0
2016_12_19_S24 12/19/2016 19:05:00 0.0
2016_12_19_S24 12/19/2016 19:10:00 0.0
2016_12_19_S24 12/19/2016 19:15:00 0.0049
2016_12_19_S24 12/19/2016 19:20:00 0.0167
2016_12_19_S24 12/19/2016 19:25:00 0.0687
2016_12_19_S24 12/19/2016 19:30:00 0.0129
2016_12_19_S24 12/19/2016 19:35:00 0.0366
2016_12_19_S24 12/19/2016 19:40:00 0.0613
2016_12_19_S24 12/19/2016 19:45:00 0.0131
2016_12_19_S24 12/19/2016 19:50:00 0.0058
2016_12_19_S24 12/19/2016 19:55:00 0.0
2016_12_19_S24 12/19/2016 20:00:00 0.0025
2016_12_19_S24 12/19/2016 20:05:00 0.0
2016_12_19_S24 12/19/2016 20:10:00 0.0
2016_12_19_S24 12/19/2016 20:15:00 0.0
2016_12_19_S24 12/19/2016 20:20:00 0.0
2016_12_19_S24 12/19/2016 20:25:00 0.0
2016_12_19_S24 12/19/2016 20:30:00 0.0
2016_12_19_S24 12/19/2016 20:35:00 0.0
2016_12_19_S24 12/19/2016 20:40:00 0.0
2016_12_19_S24 12/19/2016 20:45:00 0.0
2016_12_19_S24 12/19/2016 20:50:00 0.0
2016_12_19_S24 12/19/2016 20:55:00 0.0
2016_12_19_S24 12/19/2016 21:00:00 0.0
2016_12_19_S24 12/19/2016 21:05:00 0.0
2016_12_19_S24 12/19/2016 21:10:00 0.0
2016_12_19_S24 12/19/2016 21:15:00 0.0
2016_12_19_S24 12/19/2016 21:20:00 0.0
2016_12_19_S24 12/19/2016 21:25:00 0.0
2016_12_19_S24 12/19/2016 21:30:00 0.0
2016_12_19_S24 12/19/2016 21:35:00 0.0
2016_12_19_S24 12/19/2016 21:40:00 0.0
2016_12_19_S24 12/19/2016 21:45:00 0.0
2016_12_19_S24 12/19/2016 21:50:00 0.0
2016_12_19_S24 12/19/2016 21:55:00 0.0
2016_12_19_S24 12/19/2016 22:00:00 0.0
2016_12_19_S24 12/19/2016 22:05:00 0.0
2016_12_19_S24 12/19/2016 22:10:00 0.0
2016_12_19_S24 12/19/2016 22:15:00 0.0
2016_12_19_S24 12/19/2016 22:20:00 0.0
2016_12_19_S24 12/19/2016 22:25:00 0.0
2016_12_19_S24 12/19/2016 22:30:00 0.0
2016_12_19_S24 12/19/2016 22:35:00 0.0
2016_12_19_S24 12/19/2016 22:40:00 0.0
2016_12_19_S24 12/19/2016 22:45:00 0.0
2016_12_19_S24 12/19/2016 22:50:00 0.0
2016_12_19_S24 12/19/2016 22:55:00 0.0
2016_12_19_S24 12/19/2016 23:00:00 0.0
2016_12_19_S24 12/19/2016 23:05:00 0.0
2016_12_19_S24 12/19/2016 23:10:00 0.0
2016_12_19_S24 12/19/2016 23:15:00 0.0
2016_12_19_S24 12/19/2016 23:20:00 0.0
2016_12_19_S24 12/19/2016 23:25:00 0.0
2016_12_19_S24 12/19/2016 23:30:00 0.0
2016_12_19_S24 12/19/2016 23:35:00 0.0
2016_12_19_S24 12/19/2016 23:40:00 0.0
2016_12_19_S24 12/19/2016 23:45:00 0.0
2016_12_19_S24 12/19/2016 23:50:00 0.0
2016_12_19_S24 12/19/2016 23:55:00 0.0
2016_12_19_S24 12/20/2016 00:00:00 0.0
2016_12_19_S24 12/20/2016 00:05:00 0.0
2016_12_19_S24 12/20/2016 00:10:00 0.0
2016_12_19_S24 12/20/2016 00:15:00 0.0
2016_12_19_S24 12/20/2016 00:20:00 0.0
2016_12_19_S24 12/20/2016 00:25:00 0.0
2016_12_19_S24 12/20/2016 00:30:00 0.0
2016_12_19_S24 12/20/2016 00:35:00 0.0
2016_12_19_S24 12/20/2016 00:40:00 0.0
2016_12_19_S24 12/20/2016 00:45:00 0.0
2016_12_19_S24 12/20/2016 00:50:00 0.0
2016_12_19_S24 12/20/2016 00:55:00 0.0
2016_12_19_S24 12/20/2016 01:00:00 0.0
2016_12_19_S24 12/20/2016 01:05:00 0.0
2016_12_19_S24 12/20/2016 01:10:00 0.0
2016_12_19_S24 12/20/2016 01:15:00 0.0
2016_12_19_S24 12/20/2016 01:20:00 0.0
2016_12_19_S24 12/20/2016 01:25:00 0.0
2016_12_19_S24 12/20/2016 01:30:00 0.0
2016_12_19_S24 12/20/2016 01:35:00 0.0
2016_12_19_S24 12/20/2016 01:40:00 0.0
2016_12_19_S24 12/20/2016 01:45:00 0.0
2016_12_19_S24 12/20/2016 01:50:00 0.0
2016_12_19_S24 12/20/2016 01:55:00 0.0
2016_12_19_S24 12/20/2016 02:00:00 0.0
2016_12_19_S24 12/20/2016 02:05:00 0.0
2016_12_19_S24 12/20/2016 02:10:00 0.0
2016_12_19_S24 12/20/2016 02:15:00 0.0
2016_12_19_S24 12/20/2016 02:20:00 0.0
2016_12_19_S24 12/20/2016 02:25:00 0.0
2016_12_19_S24 12/20/2016 02:30:00 0.0
2016_12_19_S24 12/20/2016 02:35:00 0.0
2016_12_19_S24 12/20/2016 02:40:00 0.0
2016_12_19_S24 12/20/2016 02:45:00 0.0
2016_12_19_S24 12/20/2016 02:50:00 0.0
2016_12_19_S24 12/20/2016 02:55:00 0.0
2016_12_19_S24 12/20/2016 03:00:00 0.0
2016_12_19_S24 12/20/2016 03:05:00 0.0
2016_12_19_S24 12/20/2016 03:10:00 0.0
2016_12_19_S24 12/20/2016 03:15:00 0.0
2016_12_19_S24 12/20/2016 03:20:00 0.0
2016_12_19_S24 12/20/2016 03:25:00 0.0
2016_12_19_S24 12/20/2016 03:30:00 0.0
2016_12_19_S24 12/20/2016 03:35:00 0.0
2016_12_19_S24 12/20/2016 03:40:00 0.0
2016_12_19_S24 12/20/2016 03:45:00 0.0
2016_12_19_S24 12/20/2016 03:50:00 0.0
2016_12_19_S24 12/20/2016 03:55:00 0.0
2016_12_19_S24 12/20/2016 04:00:00 0.0
2016_12_19_S24 12/20/2016 04:05:00 0.0
2016_12_19_S24 12/20/2016 04:10:00 0.0
2016_12_19_S24 12/20/2016 04:15:00 0.0
2016_12_19_S24 12/20/2016 04:20:00 0.0
2016_12_19_S24 12/20/2016 04:25:00 0.0
2016_12_19_S24 12/20/2016 04:30:00 0.0
2016_12_19_S24 12/20/2016 04:35:00 0.0
2016_12_19_S24 12/20/2016 04:40:00 0.0
2016_12_19_S24 12/20/2016 04:45:00 0.0
2016_12_19_S24 12/20/2016 04:50:00 0.0
2016_12_19_S24 12/20/2016 04:55:00 0.0
2016_12_19_S24 12/20/2016 05:00:00 0.0
2016_12_19_S24 12/20/2016 05:05:00 0.0
2016_12_19_S24 12/20/2016 05:10:00 0.0
2016_12_19_S24 12/20/2016 05:15:00 0.0
2016_12_19_S24 12/20/2016 05:20:00 0.0
2016_12_19_S24 12/20/2016 05:25:00 0.0
2016_12_19_S24 12/20/2016 05:30:00 0.0
2016_12_19_S24 12/20/2016 05:35:00 0.0
2016_12_19_S24 12/20/2016 05:40:00 0.0
2016_12_19_S24 12/20/2016 05:45:00 0.0
2016_12_19_S24 12/20/2016 05:50:00 0.0
2016_12_19_S24 12/20/2016 05:55:00 0.0
2016_12_19_S24 12/20/2016 06:00:00 0.0
2016_12_19_S24 12/20/2016 06:05:00 0.0
2016_12_19_S24 12/20/2016 06:10:00 0.0
2016_12_19_S24 12/20/2016 06:15:00 0.0
2016_12_19_S24 12/20/2016 06:20:00 0.0
2016_12_19_S24 12/20/2016 06:25:00 0.0
2016_12_19_S24 12/20/2016 06:30:00 0.0
2016_12_19_S24 12/20/2016 06:35:00 0.0
2016_12_19_S24 12/20/2016 06:40:00 0.0
2016_12_19_S24 12/20/2016 06:45:00 0.0
2016_12_19_S24 12/20/2016 06:50:00 0.0
2016_12_19_S24 12/20/2016 06:55:00 0.0
2016_12_19_S24 12/20/2016 07:00:00 0.0
2016_12_19_S24 12/20/2016 07:05:00 0.0
2016_12_19_S24 12/20/2016 07:10:00 0.0
2016_12_19_S24 12/20/2016 07:15:00 0.0
2016_12_19_S24 12/20/2016 07:20:00 0.0
2016_12_19_S24 12/20/2016 07:25:00 0.0
2016_12_19_S24 12/20/2016 07:30:00 0.0
2016_12_19_S24 12/20/2016 07:35:00 0.0
2016_12_19_S24 12/20/2016 07:40:00 0.0
2016_12_19_S24 12/20/2016 07:45:00 0.0
2016_12_19_S24 12/20/2016 07:50:00 0.0
2016_12_19_S24 12/20/2016 07:55:00 0.0
2016_12_19_S24 12/20/2016 08:00:00 0.0

2016_12_19_S25 12/19/2016 15:20:00 0.0514
2016_12_19_S25 12/19/2016 15:25:00 0.2727
2016_12_19_S25 12/19/2016 15:30:00 0.114
2016_12_19_S25 12/19/2016 15:35:00 0.0061
2016_12_19_S25 12/19/2016 15:40:00 0.0
2016_12_19_S25 12/19/2016 15:45:00 0.0068
2016_12_19_S25 12/19/2016 15:50:00 0.096
2016_12_19_S25 12/19/2016 15:55:00 1.3095
2016_12_19_S25 12/19/2016 16:00:00 0.6546
2016_12_19_S25 12/19/2016 16:05:00 1.3298
2016_12_19_S25 12/19/2016 16:10:00 4.5628
2016_12_19_S25 12/19/2016 16:15:00 3.44
2016_12_19_S25 12/19/2016 16:20:00 5.1203
2016_12_19_S25 12/19/2016 16:25:00 3.3543
2016_12_19_S25 12/19/2016 16:30:00 0.8361
2016_12_19_S25 12/19/2016 16:35:00 0.4293
2016_12_19_S25 12/19/2016 16:40:00 1.0062
2016_12_19_S25 12/19/2016 16:45:00 0.1372
2016_12_19_S25 12/19/2016 16:50:00 0.0352
2016_12_19_S25 12/19/2016 16:55:00 0.0638
2016_12_19_S25 12/19/2016 17:00:00 0.1086
2016_12_19_S25 12/19/2016 17:05:00 0.1377
2016_12_19_S25 12/19/2016 17:10:00 0.1477
2016_12_19_S25 12/19/2016 17:15:00 0.3104
2016_12_19_S25 12/19/2016 17:20:00 0.3838
2016_12_19_S25 12/19/2016 17:25:00 0.252
2016_12_19_S25 12/19/2016 17:30:00 0.1907
2016_12_19_S25 12/19/2016 17:35:00 0.1234
2016_12_19_S25 12/19/2016 17:40:00 0.1333
2016_12_19_S25 12/19/2016 17:45:00 0.0633
2016_12_19_S25 12/19/2016 17:50:00 0.0067
2016_12_19_S25 12/19/2016 17:55:00 0.0
2016_12_19_S25 12/19/2016 18:00:00 0.0
2016_12_19_S25 12/19/2016 18:05:00 0.0
2016_12_19_S25 12/19/2016 18:10:00 0.0
2016_12_19_S25 12/19/2016 18:15:00 0.0
2016_12_19_S25 12/19/2016 18:20:00 0.0
2016_12_19_S25 12/19/2016 18:25:00 0.0
2016_12_19_S25 12/19/2016 18:30:00 0.0
2016_12_19_S25 12/19/2016 18:35:00 0.0
2016_12_19_S25 12/19/2016 18:40:00 0.0
2016_12_19_S25 12/19/2016 18:45:00 0.0
2016_12_19_S25 12/19/2016 18:50:00 0.0
2016_12_19_S25 12/19/2016 18:55:00 0.0
2016_12_19_S25 12/19/2016 19:00:00 0.0
2016_12_19_S25 12/19/2016 19:05:00 0.0
2016_12_19_S25 12/19/2016 19:10:00 0.0
2016_12_19_S25 12/19/2016 19:15:00 0.0046
2016_12_19_S25 12/19/2016 19:20:00 0.0244
2016_12_19_S25 12/19/2016 19:25:00 0.0484
2016_12_19_S25 12/19/2016 19:30:00 0.0132
2016_12_19_S25 12/19/2016 19:35:00 0.0373
2016_12_19_S25 12/19/2016 19:40:00 0.0603
2016_12_19_S25 12/19/2016 19:45:00 0.0111
2016_12_19_S25 12/19/2016 19:50:00 0.0033
2016_12_19_S25 12/19/2016 19:55:00 0.0
2016_12_19_S25 12/19/2016 20:00:00 0.0001
2016_12_19_S25 12/19/2016 20:05:00 0.0
2016_12_19_S25 12/19/2016 20:10:00 0.0
2016_12_19_S25 12/19/2016 20:15:00 0.0
2016_12_19_S25 12/19/2016 20:20:00 0.0
2016_12_19_S25 12/19/2016 20:25:00 0.0
2016_12_19_S25 12/19/2016 20:30:00 0.0
2016_12_19_S25 12/19/2016 20:35:00 0.0
2016_12_19_S25 12/19/2016 20:40:00 0.0
2016_12_19_S25 12/19/2016 20:45:00 0.0
2016_12_19_S25 12/19/2016 20:50:00 0.0
2016_12_19_S25 12/19/2016 20:55:00 0.0
2016_12_19_S25 12/19/2016 21:00:00 0.0
2016_12_19_S25 12/19/2016 21:05:00 0.0
2016_12_19_S25 12/19/2016 21:10:00 0.0
2016_12_19_S25 12/19/2016 21:15:00 0.0
2016_12_19_S25 12/19/2016 21:20:00 0.0
2016_12_19_S25 12/19/2016 21:25:00 0.0
2016_12_19_S25 12/19/2016 21:30:00 0.0
2016_12_19_S25 12/19/2016 21:35:00 0.0
2016_12_19_S25 12/19/2016 21:40:00 0.0
2016_12_19_S25 12/19/2016 21:45:00 0.0
2016_12_19_S25 12/19/2016 21:50:00 0.0
2016_12_19_S25 12/19/2016 21:55:00 0.0
2016_12_19_S25 12/19/2016 22:00:00 0.0
2016_12_19_S25 12/19/2016 22:05:00 0.0
2016_12_19_S25 12/19/2016 22:10:00 0.0
2016_12_19_S25 12/19/2016 22:15:00 0.0
2016_12_19_S25 12/19/2016 22:20:00 0.0
2016_12_19_S25 12/19/2016 22:25:00 0.0
2016_12_19_S25 12/19/2016 22:30:00 0.0
2016_12_19_S25 12/19/2016 22:35:00 0.0
2016_12_19_S25 12/19/2016 22:40:00 0.0
2016_12_19_S25 12/19/2016 22:45:00 0.0
2016_12_19_S25 12/19/2016 22:50:00 0.0
2016_12_19_S25 12/19/2016 22:55:00 0.0
2016_12_19_S25 12/19/2016 23:00:00 0.0
2016_12_19_S25 12/19/2016 23:05:00 0.0
2016_12_19_S25 12/19/2016 23:10:00 0.0
2016_12_19_S25 12/19/2016 23:15:00 0.0
2016_12_19_S25 12/19/2016 23:20:00 0.0
2016_12_19_S25 12/19/2016 23:25:00 0.0
2016_12_19_S25 12/19/2016 23:30:00 0.0
2016_12_19_S25 12/19/2016 23:35:00 0.0
2016_12_19_S25 12/19/2016 23:40:00 0.0
2016_12_19_S25 12/19/2016 23:45:00 0.0
2016_12_19_S25 12/19/2016 23:50:00 0.0
2016_12_19_S25 12/19/2016 23:55:00 0.0
2016_12_19_S25 12/20/2016 00:00:00 0.0
2016_12_19_S25 12/20/2016 00:05:00 0.0
2016_12_19_S25 12/20/2016 00:10:00 0.0
2016_12_19_S25 12/20/2016 00:15:00 0.0
2016_12_19_S25 12/20/2016 00:20:00 0.0
2016_12_19_S25 12/20/2016 00:25:00 0.0
2016_12_19_S25 12/20/2016 00:30:00 0.0
2016_12_19_S25 12/20/2016 00:35:00 0.0
2016_12_19_S25 12/20/2016 00:40:00 0.0
2016_12_19_S25 12/20/2016 00:45:00 0.0
2016_12_19_S25 12/20/2016 00:50:00 0.0
2016_12_19_S25 12/20/2016 00:55:00 0.0
2016_12_19_S25 12/20/2016 01:00:00 0.0
2016_12_19_S25 12/20/2016 01:05:00 0.0
2016_12_19_S25 12/20/2016 01:10:00 0.0
2016_12_19_S25 12/20/2016 01:15:00 0.0
2016_12_19_S25 12/20/2016 01:20:00 0.0
2016_12_19_S25 12/20/2016 01:25:00 0.0
2016_12_19_S25 12/20/2016 01:30:00 0.0
2016_12_19_S25 12/20/2016 01:35:00 0.0
2016_12_19_S25 12/20/2016 01:40:00 0.0
2016_12_19_S25 12/20/2016 01:45:00 0.0
2016_12_19_S25 12/20/2016 01:50:00 0.0
2016_12_19_S25 12/20/2016 01:55:00 0.0
2016_12_19_S25 12/20/2016 02:00:00 0.0
2016_12_19_S25 12/20/2016 02:05:00 0.0
2016_12_19_S25 12/20/2016 02:10:00 0.0
2016_12_19_S25 12/20/2016 02:15:00 0.0
2016_12_19_S25 12/20/2016 02:20:00 0.0
2016_12_19_S25 12/20/2016 02:25:00 0.0
2016_12_19_S25 12/20/2016 02:30:00 0.0
2016_12_19_S25 12/20/2016 02:35:00 0.0
2016_12_19_S25 12/20/2016 02:40:00 0.0
2016_12_19_S25 12/20/2016 02:45:00 0.0
2016_12_19_S25 12/20/2016 02:50:00 0.0
2016_12_19_S25 12/20/2016 02:55:00 0.0
2016_12_19_S25 12/20/2016 03:00:00 0.0
2016_12_19_S25 12/20/2016 03:05:00 0.0
2016_12_19_S25 12/20/2016 03:10:00 0.0
2016_12_19_S25 12/20/2016 03:15:00 0.0
2016_12_19_S25 12/20/2016 03:20:00 0.0
2016_12_19_S25 12/20/2016 03:25:00 0.0
2016_12_19_S25 12/20/2016 03:30:00 0.0
2016_12_19_S25 12/20/2016 03:35:00 0.0
2016_12_19_S25 12/20/2016 03:40:00 0.0
2016_12_19_S25 12/20/2016 03:45:00 0.0
2016_12_19_S25 12/20/2016 03:50:00 0.0
2016_12_19_S25 12/20/2016 03:55:00 0.0
2016_12_19_S25 12/20/2016 04:00:00 0.0
2016_12_19_S25 12/20/2016 04:05:00 0.0
2016_12_19_S25 12/20/2016 04:10:00 0.0
2016_12_19_S25 12/20/2016 04:15:00 0.0
2016_12_19_S25 12/20/2016 04:20:00 0.0
2016_12_19_S25 12/20/2016 04:25:00 0.0
2016_12_19_S25 12/20/2016 04:30:00 0.0
2016_12_19_S25 12/20/2016 04:35:00 0.0
2016_12_19_S25 12/20/2016 04:40:00 0.0
2016_12_19_S25 12/20/2016 04:45:00 0.0
2016_12_19_S25 12/20/2016 04:50:00 0.0
2016_12_19_S25 12/20/2016 04:55:00 0.0
2016_12_19_S25 12/20/2016 05:00:00 0.0
2016_12_19_S25 12/20/2016 05:05:00 0.0
2016_12_19_S25 12/20/2016 05:10:00 0.0
2016_12_19_S25 12/20/2016 05:15:00 0.0
2016_12_19_S25 12/20/2016 05:20:00 0.0
2016_12_19_S25 12/20/2016 05:25:00 0.0
2016_12_19_S25 12/20/2016 05:30:00 0.0
2016_12_19_S25 12/20/2016 05:35:00 0.0
2016_12_19_S25 12/20/2016 05:40:00 0.0
2016_12_19_S25 12/20/2016 05:45:00 0.0
2016_12_19_S25 12/20/2016 05:50:00 0.0
2016_12_19_S25 12/20/2016 05:55:00 0.0
2016_12_19_S25 12/20/2016 06:00:00 0.0
2016_12_19_S25 12/20/2016 06:05:00 0.0
2016_12_19_S25 12/20/2016 06:10:00 0.0
2016_12_19_S25 12/20/2016 06:15:00 0.0
2016_12_19_S25 12/20/2016 06:20:00 0.0
2016_12_19_S25 12/20/2016 06:25:00 0.0
2016_12_19_S25 12/20/2016 06:30:00 0.0
2016_12_19_S25 12/20/2016 06:35:00 0.0
2016_12_19_S25 12/20/2016 06:40:00 0.0
2016_12_19_S25 12/20/2016 06:45:00 0.0
2016_12_19_S25 12/20/2016 06:50:00 0.0
2016_12_19_S25 12/20/2016 06:55:00 0.0
2016_12_19_S25 12/20/2016 07:00:00 0.0
2016_12_19_S25 12/20/2016 07:05:00 0.0
2016_12_19_S25 12/20/2016 07:10:00 0.0
2016_12_19_S25 12/20/2016 07:15:00 0.0
2016_12_19_S25 12/20/2016 07:20:00 0.0
2016_12_19_S25 12/20/2016 07:25:00 0.0
2016_12_19_S25 12/20/2016 07:30:00 0.0
2016_12_19_S25 12/20/2016 07:35:00 0.0
2016_12_19_S25 12/20/2016 07:40:00 0.0
2016_12_19_S25 12/20/2016 07:45:00 0.0
2016_12_19_S25 12/20/2016 07:50:00 0.0
2016_12_19_S25 12/20/2016 07:55:00 0.0
2016_12_19_S25 12/20/2016 08:00:00 0.0

2016_12_19_S26 12/19/2016 15:20:00 0.0191
2016_12_19_S26 12/19/2016 15:25:00 0.1858
2016_12_19_S26 12/19/2016 15:30:00 0.1832
2016_12_19_S26 12/19/2016 15:35:00 0.0062
2016_12_19_S26 12/19/2016 15:40:00 0.0
2016_12_19_S26 12/19/2016 15:45:00 0.0119
2016_12_19_S26 12/19/2016 15:50:00 0.0845
2016_12_19_S26 12/19/2016 15:55:00 0.5854
2016_12_19_S26 12/19/2016 16:00:00 1.1416
2016_12_19_S26 12/19/2016 16:05:00 1.6422
2016_12_19_S26 12/19/2016 16:10:00 4.191
2016_12_19_S26 12/19/2016 16:15:00 4.6486
2016_12_19_S26 12/19/2016 16:20:00 3.7357
2016_12_19_S26 12/19/2016 16:25:00 3.7371
2016_12_19_S26 12/19/2016 16:30:00 0.8677
2016_12_19_S26 12/19/2016 16:35:00 0.3531
2016_12_19_S26 12/19/2016 16:40:00 1.1006
2016_12_19_S26 12/19/2016 16:45:00 0.1799
2016_12_19_S26 12/19/2016 16:50:00 0.0427
2016_12_19_S26 12/19/2016 16:55:00 0.0937
2016_12_19_S26 12/19/2016 17:00:00 0.1655
2016_12_19_S26 12/19/2016 17:05:00 0.2461
2016_12_19_S26 12/19/2016 17:10:00 0.1938
2016_12_19_S26 12/19/2016 17:15:00 0.2733
2016_12_19_S26 12/19/2016 17:20:00 0.4501
2016_12_19_S26 12/19/2016 17:25:00 0.2002
2016_12_19_S26 12/19/2016 17:30:00 0.1809
2016_12_19_S26 12/19/2016 17:35:00 0.1026
2016_12_19_S26 12/19/2016 17:40:00 0.1209
2016_12_19_S26 12/19/2016 17:45:00 0.0918
2016_12_19_S26 12/19/2016 17:50:00 0.0085
2016_12_19_S26 12/19/2016 17:55:00 0.0
2016_12_19_S26 12/19/2016 18:00:00 0.0
2016_12_19_S26 12/19/2016 18:05:00 0.0
2016_12_19_S26 12/19/2016 18:10:00 0.0
2016_12_19_S26 12/19/2016 18:15:00 0.0
2016_12_19_S26 12/19/2016 18:20:00 0.0
2016_12_19_S26 12/19/2016 18:25:00 0.0
2016_12_19_S26 12/19/2016 18:30:00 0.0
2016_12_19_S26 12/19/2016 18:35:00 0.0
2016_12_19_S26 12/19/2016 18:40:00 0.0
2016_12_19_S26 12/19/2016 18:45:00 0.0
2016_12_19_S26 12/19/2016 18:50:00 0.0
2016_12_19_S26 12/19/2016 18:55:00 0.0
2016_12_19_S26 12/19/2016 19:00:00 0.0
2016_12_19_S26 12/19/2016 19:05:00 0.0
2016_12_19_S26 12/19/2016 19:10:00 0.0
2016_12_19_S26 12/19/2016 19:15:00 0.0034
2016_12_19_S26 12/19/2016 19:20:00 0.0164
2016_12_19_S26 12/19/2016 19:25:00 0.0555
2016_12_19_S26 12/19/2016 19:30:00 0.0128
2016_12_19_S26 12/19/2016 19:35:00 0.0357
2016_12_19_S26 12/19/2016 19:40:00 0.0477
2016_12_19_S26 12/19/2016 19:45:00 0.0187
2016_12_19_S26 12/19/2016 19:50:00 0.0069
2016_12_19_S26 12/19/2016 19:55:00 0.0
2016_12_19_S26 12/19/2016 20:00:00 0.0039
2016_12_19_S26 12/19/2016 20:05:00 0.0007
2016_12_19_S26 12/19/2016 20:10:00 0.0
2016_12_19_S26 12/19/2016 20:15:00 0.0
2016_12_19_S26 12/19/2016 20:20:00 0.0
2016_12_19_S26 12/19/2016 20:25:00 0.0
2016_12_19_S26 12/19/2016 20:30:00 0.0
2016_12_19_S26 12/19/2016 20:35:00 0.0
2016_12_19_S26 12/19/2016 20:40:00 0.0
2016_12_19_S26 12/19/2016 20:45:00 0.0
2016_12_19_S26 12/19/2016 20:50:00 0.0
2016_12_19_S26 12/19/2016 20:55:00 0.0
2016_12_19_S26 12/19/2016 21:00:00 0.0
2016_12_19_S26 12/19/2016 21:05:00 0.0
2016_12_19_S26 12/19/2016 21:10:00 0.0
2016_12_19_S26 12/19/2016 21:15:00 0.0
2016_12_19_S26 12/19/2016 21:20:00 0.0
2016_12_19_S26 12/19/2016 21:25:00 0.0
2016_12_19_S26 12/19/2016 21:30:00 0.0
2016_12_19_S26 12/19/2016 21:35:00 0.0
2016_12_19_S26 12/19/2016 21:40:00 0.0
2016_12_19_S26 12/19/2016 21:45:00 0.0
2016_12_19_S26 12/19/2016 21:50:00 0.0
2016_12_19_S26 12/19/2016 21:55:00 0.0
2016_12_19_S26 12/19/2016 22:00:00 0.0
2016_12_19_S26 12/19/2016 22:05:00 0.0
2016_12_19_S26 12/19/2016 22:10:00 0.0
2016_12_19_S26 12/19/2016 22:15:00 0.0
2016_12_19_S26 12/19/2016 22:20:00 0.0
2016_12_19_S26 12/19/2016 22:25:00 0.0
2016_12_19_S26 12/19/2016 22:30:00 0.0
2016_12_19_S26 12/19/2016 22:35:00 0.0
2016_12_19_S26 12/19/2016 22:40:00 0.0
2016_12_19_S26 12/19/2016 22:45:00 0.0
2016_12_19_S26 12/19/2016 22:50:00 0.0
2016_12_19_S26 12/19/2016 22:55:00 0.0
2016_12_19_S26 12/19/2016 23:00:00 0.0
2016_12_19_S26 12/19/2016 23:05:00 0.0
2016_12_19_S26 12/19/2016 23:10:00 0.0
2016_12_19_S26 12/19/2016 23:15:00 0.0
2016_12_19_S26 12/19/2016 23:20:00 0.0
2016_12_19_S26 12/19/2016 23:25:00 0.0
2016_12_19_S26 12/19/2016 23:30:00 0.0
2016_12_19_S26 12/19/2016 23:35:00 0.0
2016_12_19_S26 12/19/2016 23:40:00 0.0
2016_12_19_S26 12/19/2016 23:45:00 0.0
2016_12_19_S26 12/19/2016 23:50:00 0.0
2016_12_19_S26 12/19/2016 23:55:00 0.0
2016_12_19_S26 12/20/2016 00:00:00 0.0
2016_12_19_S26 12/20/2016 00:05:00 0.0
2016_12_19_S26 12/20/2016 00:10:00 0.0
2016_12_19_S26 12/20/2016 00:15:00 0.0
2016_12_19_S26 12/20/2016 00:20:00 0.0
2016_12_19_S26 12/20/2016 00:25:00 0.0
2016_12_19_S26 12/20/2016 00:30:00 0.0
2016_12_19_S26 12/20/2016 00:35:00 0.0
2016_12_19_S26 12/20/2016 00:40:00 0.0
2016_12_19_S26 12/20/2016 00:45:00 0.0
2016_12_19_S26 12/20/2016 00:50:00 0.0
2016_12_19_S26 12/20/2016 00:55:00 0.0
2016_12_19_S26 12/20/2016 01:00:00 0.0
2016_12_19_S26 12/20/2016 01:05:00 0.0
2016_12_19_S26 12/20/2016 01:10:00 0.0
2016_12_19_S26 12/20/2016 01:15:00 0.0
2016_12_19_S26 12/20/2016 01:20:00 0.0
2016_12_19_S26 12/20/2016 01:25:00 0.0
2016_12_19_S26 12/20/2016 01:30:00 0.0
2016_12_19_S26 12/20/2016 01:35:00 0.0
2016_12_19_S26 12/20/2016 01:40:00 0.0
2016_12_19_S26 12/20/2016 01:45:00 0.0
2016_12_19_S26 12/20/2016 01:50:00 0.0
2016_12_19_S26 12/20/2016 01:55:00 0.0
2016_12_19_S26 12/20/2016 02:00:00 0.0
2016_12_19_S26 12/20/2016 02:05:00 0.0
2016_12_19_S26 12/20/2016 02:10:00 0.0
2016_12_19_S26 12/20/2016 02:15:00 0.0
2016_12_19_S26 12/20/2016 02:20:00 0.0
2016_12_19_S26 12/20/2016 02:25:00 0.0
2016_12_19_S26 12/20/2016 02:30:00 0.0
2016_12_19_S26 12/20/2016 02:35:00 0.0
2016_12_19_S26 12/20/2016 02:40:00 0.0
2016_12_19_S26 12/20/2016 02:45:00 0.0
2016_12_19_S26 12/20/2016 02:50:00 0.0
2016_12_19_S26 12/20/2016 02:55:00 0.0
2016_12_19_S26 12/20/2016 03:00:00 0.0
2016_12_19_S26 12/20/2016 03:05:00 0.0
2016_12_19_S26 12/20/2016 03:10:00 0.0
2016_12_19_S26 12/20/2016 03:15:00 0.0
2016_12_19_S26 12/20/2016 03:20:00 0.0
2016_12_19_S26 12/20/2016 03:25:00 0.0
2016_12_19_S26 12/20/2016 03:30:00 0.0
2016_12_19_S26 12/20/2016 03:35:00 0.0
2016_12_19_S26 12/20/2016 03:40:00 0.0
2016_12_19_S26 12/20/2016 03:45:00 0.0
2016_12_19_S26 12/20/2016 03:50:00 0.0
2016_12_19_S26 12/20/2016 03:55:00 0.0
2016_12_19_S26 12/20/2016 04:00:00 0.0
2016_12_19_S26 12/20/2016 04:05:00 0.0
2016_12_19_S26 12/20/2016 04:10:00 0.0
2016_12_19_S26 12/20/2016 04:15:00 0.0
2016_12_19_S26 12/20/2016 04:20:00 0.0
2016_12_19_S26 12/20/2016 04:25:00 0.0
2016_12_19_S26 12/20/2016 04:30:00 0.0
2016_12_19_S26 12/20/2016 04:35:00 0.0
2016_12_19_S26 12/20/2016 04:40:00 0.0
2016_12_19_S26 12/20/2016 04:45:00 0.0
2016_12_19_S26 12/20/2016 04:50:00 0.0
2016_12_19_S26 12/20/2016 04:55:00 0.0
2016_12_19_S26 12/20/2016 05:00:00 0.0
2016_12_19_S26 12/20/2016 05:05:00 0.0
2016_12_19_S26 12/20/2016 05:10:00 0.0
2016_12_19_S26 12/20/2016 05:15:00 0.0
2016_12_19_S26 12/20/2016 05:20:00 0.0
2016_12_19_S26 12/20/2016 05:25:00 0.0
2016_12_19_S26 12/20/2016 05:30:00 0.0
2016_12_19_S26 12/20/2016 05:35:00 0.0
2016_12_19_S26 12/20/2016 05:40:00 0.0
2016_12_19_S26 12/20/2016 05:45:00 0.0
2016_12_19_S26 12/20/2016 05:50:00 0.0
2016_12_19_S26 12/20/2016 05:55:00 0.0
2016_12_19_S26 12/20/2016 06:00:00 0.0
2016_12_19_S26 12/20/2016 06:05:00 0.0
2016_12_19_S26 12/20/2016 06:10:00 0.0
2016_12_19_S26 12/20/2016 06:15:00 0.0
2016_12_19_S26 12/20/2016 06:20:00 0.0
2016_12_19_S26 12/20/2016 06:25:00 0.0
2016_12_19_S26 12/20/2016 06:30:00 0.0
2016_12_19_S26 12/20/2016 06:35:00 0.0
2016_12_19_S26 12/20/2016 06:40:00 0.0
2016_12_19_S26 12/20/2016 06:45:00 0.0
2016_12_19_S26 12/20/2016 06:50:00 0.0
2016_12_19_S26 12/20/2016 06:55:00 0.0
2016_12_19_S26 12/20/2016 07:00:00 0.0
2016_12_19_S26 12/20/2016 07:05:00 0.0
2016_12_19_S26 12/20/2016 07:10:00 0.0
2016_12_19_S26 12/20/2016 07:15:00 0.0
2016_12_19_S26 12/20/2016 07:20:00 0.0
2016_12_19_S26 12/20/2016 07:25:00 0.0
2016_12_19_S26 12/20/2016 07:30:00 0.0
2016_12_19_S26 12/20/2016 07:35:00 0.0
2016_12_19_S26 12/20/2016 07:40:00 0.0
2016_12_19_S26 12/20/2016 07:45:00 0.0
2016_12_19_S26 12/20/2016 07:50:00 0.0
2016_12_19_S26 12/20/2016 07:55:00 0.0
2016_12_19_S26 12/20/2016 08:00:00 0.0

2016_12_19_S27 12/19/2016 15:20:00 0.0148
2016_12_19_S27 12/19/2016 15:25:00 0.1977
2016_12_19_S27 12/19/2016 15:30:00 0.2712
2016_12_19_S27 12/19/2016 15:35:00 0.0052
2016_12_19_S27 12/19/2016 15:40:00 0.0
2016_12_19_S27 12/19/2016 15:45:00 0.0185
2016_12_19_S27 12/19/2016 15:50:00 0.0568
2016_12_19_S27 12/19/2016 15:55:00 0.5511
2016_12_19_S27 12/19/2016 16:00:00 1.396
2016_12_19_S27 12/19/2016 16:05:00 1.0662
2016_12_19_S27 12/19/2016 16:10:00 4.4317
2016_12_19_S27 12/19/2016 16:15:00 4.6285
2016_12_19_S27 12/19/2016 16:20:00 4.0038
2016_12_19_S27 12/19/2016 16:25:00 2.3488
2016_12_19_S27 12/19/2016 16:30:00 0.8908
2016_12_19_S27 12/19/2016 16:35:00 0.2518
2016_12_19_S27 12/19/2016 16:40:00 0.6045
2016_12_19_S27 12/19/2016 16:45:00 0.1455
2016_12_19_S27 12/19/2016 16:50:00 0.0511
2016_12_19_S27 12/19/2016 16:55:00 0.0762
2016_12_19_S27 12/19/2016 17:00:00 0.1476
2016_12_19_S27 12/19/2016 17:05:00 0.2301
2016_12_19_S27 12/19/2016 17:10:00 0.2177
2016_12_19_S27 12/19/2016 17:15:00 0.2886
2016_12_19_S27 12/19/2016 17:20:00 0.5008
2016_12_19_S27 12/19/2016 17:25:00 0.29
2016_12_19_S27 12/19/2016 17:30:00 0.2491
2016_12_19_S27 12/19/2016 17:35:00 0.1238
2016_12_19_S27 12/19/2016 17:40:00 0.1615
2016_12_19_S27 12/19/2016 17:45:00 0.109
2016_12_19_S27 12/19/2016 17:50:00 0.013
2016_12_19_S27 12/19/2016 17:55:00 0.0011
2016_12_19_S27 12/19/2016 18:00:00 0.0
2016_12_19_S27 12/19/2016 18:05:00 0.0
2016_12_19_S27 12/19/2016 18:10:00 0.0
2016_12_19_S27 12/19/2016 18:15:00 0.0
2016_12_19_S27 12/19/2016 18:20:00 0.0
2016_12_19_S27 12/19/2016 18:25:00 0.0
2016_12_19_S27 12/19/2016 18:30:00 0.0
2016_12_19_S27 12/19/2016 18:35:00 0.0
2016_12_19_S27 12/19/2016 18:40:00 0.0
2016_12_19_S27 12/19/2016 18:45:00 0.0
2016_12_19_S27 12/19/2016 18:50:00 0.0
2016_12_19_S27 12/19/2016 18:55:00 0.0
2016_12_19_S27 12/19/2016 19:00:00 0.0
2016_12_19_S27 12/19/2016 19:05:00 0.0
2016_12_19_S27 12/19/2016 19:10:00 0.0
2016_12_19_S27 12/19/2016 19:15:00 0.002
2016_12_19_S27 12/19/2016 19:20:00 0.0096
2016_12_19_S27 12/19/2016 19:25:00 0.0527
2016_12_19_S27 12/19/2016 19:30:00 0.0166
2016_12_19_S27 12/19/2016 19:35:00 0.0284
2016_12_19_S27 12/19/2016 19:40:00 0.059
2016_12_19_S27 12/19/2016 19:45:00 0.0257
2016_12_19_S27 12/19/2016 19:50:00 0.0038
2016_12_19_S27 12/19/2016 19:55:00 0.001
2016_12_19_S27 12/19/2016 20:00:00 0.0054
2016_12_19_S27 12/19/2016 20:05:00 0.0
2016_12_19_S27 12/19/2016 20:10:00 0.0
2016_12_19_S27 12/19/2016 20:15:00 0.0
2016_12_19_S27 12/19/2016 20:20:00 0.0
2016_12_19_S27 12/19/2016 20:25:00 0.0
2016_12_19_S27 12/19/2016 20:30:00 0.0
2016_12_19_S27 12/19/2016 20:35:00 0.0
2016_12_19_S27 12/19/2016 20:40:00 0.0
2016_12_19_S27 12/19/2016 20:45:00 0.0
2016_12_19_S27 12/19/2016 20:50:00 0.0
2016_12_19_S27 12/19/2016 20:55:00 0.0
2016_12_19_S27 12/19/2016 21:00:00 0.0
2016_12_19_S27 12/19/2016 21:05:00 0.0
2016_12_19_S27 12/19/2016 21:10:00 0.0
2016_12_19_S27 12/19/2016 21:15:00 0.0
2016_12_19_S27 12/19/2016 21:20:00 0.0
2016_12_19_S27 12/19/2016 21:25:00 0.0
2016_12_19_S27 12/19/2016 21:30:00 0.0
2016_12_19_S27 12/19/2016 21:35:00 0.0
2016_12_19_S27 12/19/2016 21:40:00 0.0
2016_12_19_S27 12/19/2016 21:45:00 0.0
2016_12_19_S27 12/19/2016 21:50:00 0.0
2016_12_19_S27 12/19/2016 21:55:00 0.0
2016_12_19_S27 12/19/2016 22:00:00 0.0
2016_12_19_S27 12/19/2016 22:05:00 0.0
2016_12_19_S27 12/19/2016 22:10:00 0.0
2016_12_19_S27 12/19/2016 22:15:00 0.0
2016_12_19_S27 12/19/2016 22:20:00 0.0
2016_12_19_S27 12/19/2016 22:25:00 0.0
2016_12_19_S27 12/19/2016 22:30:00 0.0
2016_12_19_S27 12/19/2016 22:35:00 0.0
2016_12_19_S27 12/19/2016 22:40:00 0.0
2016_12_19_S27 12/19/2016 22:45:00 0.0
2016_12_19_S27 12/19/2016 22:50:00 0.0
2016_12_19_S27 12/19/2016 22:55:00 0.0
2016_12_19_S27 12/19/2016 23:00:00 0.0
2016_12_19_S27 12/19/2016 23:05:00 0.0
2016_12_19_S27 12/19/2016 23:10:00 0.0
2016_12_19_S27 12/19/2016 23:15:00 0.0
2016_12_19_S27 12/19/2016 23:20:00 0.0
2016_12_19_S27 12/19/2016 23:25:00 0.0
2016_12_19_S27 12/19/2016 23:30:00 0.0
2016_12_19_S27 12/19/2016 23:35:00 0.0
2016_12_19_S27 12/19/2016 23:40:00 0.0
2016_12_19_S27 12/19/2016 23:45:00 0.0
2016_12_19_S27 12/19/2016 23:50:00 0.0
2016_12_19_S27 12/19/2016 23:55:00 0.0
2016_12_19_S27 12/20/2016 00:00:00 0.0
2016_12_19_S27 12/20/2016 00:05:00 0.0
2016_12_19_S27 12/20/2016 00:10:00 0.0
2016_12_19_S27 12/20/2016 00:15:00 0.0
2016_12_19_S27 12/20/2016 00:20:00 0.0
2016_12_19_S27 12/20/2016 00:25:00 0.0
2016_12_19_S27 12/20/2016 00:30:00 0.0
2016_12_19_S27 12/20/2016 00:35:00 0.0
2016_12_19_S27 12/20/2016 00:40:00 0.0
2016_12_19_S27 12/20/2016 00:45:00 0.0
2016_12_19_S27 12/20/2016 00:50:00 0.0
2016_12_19_S27 12/20/2016 00:55:00 0.0
2016_12_19_S27 12/20/2016 01:00:00 0.0
2016_12_19_S27 12/20/2016 01:05:00 0.0
2016_12_19_S27 12/20/2016 01:10:00 0.0
2016_12_19_S27 12/20/2016 01:15:00 0.0
2016_12_19_S27 12/20/2016 01:20:00 0.0
2016_12_19_S27 12/20/2016 01:25:00 0.0
2016_12_19_S27 12/20/2016 01:30:00 0.0
2016_12_19_S27 12/20/2016 01:35:00 0.0
2016_12_19_S27 12/20/2016 01:40:00 0.0
2016_12_19_S27 12/20/2016 01:45:00 0.0
2016_12_19_S27 12/20/2016 01:50:00 0.0
2016_12_19_S27 12/20/2016 01:55:00 0.0
2016_12_19_S27 12/20/2016 02:00:00 0.0
2016_12_19_S27 12/20/2016 02:05:00 0.0
2016_12_19_S27 12/20/2016 02:10:00 0.0
2016_12_19_S27 12/20/2016 02:15:00 0.0
2016_12_19_S27 12/20/2016 02:20:00 0.0
2016_12_19_S27 12/20/2016 02:25:00 0.0
2016_12_19_S27 12/20/2016 02:30:00 0.0
2016_12_19_S27 12/20/2016 02:35:00 0.0
2016_12_19_S27 12/20/2016 02:40:00 0.0
2016_12_19_S27 12/20/2016 02:45:00 0.0
2016_12_19_S27 12/20/2016 02:50:00 0.0
2016_12_19_S27 12/20/2016 02:55:00 0.0
2016_12_19_S27 12/20/2016 03:00:00 0.0
2016_12_19_S27 12/20/2016 03:05:00 0.0
2016_12_19_S27 12/20/2016 03:10:00 0.0
2016_12_19_S27 12/20/2016 03:15:00 0.0
2016_12_19_S27 12/20/2016 03:20:00 0.0
2016_12_19_S27 12/20/2016 03:25:00 0.0
2016_12_19_S27 12/20/2016 03:30:00 0.0
2016_12_19_S27 12/20/2016 03:35:00 0.0
2016_12_19_S27 12/20/2016 03:40:00 0.0
2016_12_19_S27 12/20/2016 03:45:00 0.0
2016_12_19_S27 12/20/2016 03:50:00 0.0
2016_12_19_S27 12/20/2016 03:55:00 0.0
2016_12_19_S27 12/20/2016 04:00:00 0.0
2016_12_19_S27 12/20/2016 04:05:00 0.0
2016_12_19_S27 12/20/2016 04:10:00 0.0
2016_12_19_S27 12/20/2016 04:15:00 0.0
2016_12_19_S27 12/20/2016 04:20:00 0.0
2016_12_19_S27 12/20/2016 04:25:00 0.0
2016_12_19_S27 12/20/2016 04:30:00 0.0
2016_12_19_S27 12/20/2016 04:35:00 0.0
2016_12_19_S27 12/20/2016 04:40:00 0.0
2016_12_19_S27 12/20/2016 04:45:00 0.0
2016_12_19_S27 12/20/2016 04:50:00 0.0
2016_12_19_S27 12/20/2016 04:55:00 0.0
2016_12_19_S27 12/20/2016 05:00:00 0.0
2016_12_19_S27 12/20/2016 05:05:00 0.0
2016_12_19_S27 12/20/2016 05:10:00 0.0
2016_12_19_S27 12/20/2016 05:15:00 0.0
2016_12_19_S27 12/20/2016 05:20:00 0.0
2016_12_19_S27 12/20/2016 05:25:00 0.0
2016_12_19_S27 12/20/2016 05:30:00 0.0
2016_12_19_S27 12/20/2016 05:35:00 0.0
2016_12_19_S27 12/20/2016 05:40:00 0.0
2016_12_19_S27 12/20/2016 05:45:00 0.0
2016_12_19_S27 12/20/2016 05:50:00 0.0
2016_12_19_S27 12/20/2016 05:55:00 0.0
2016_12_19_S27 12/20/2016 06:00:00 0.0
2016_12_19_S27 12/20/2016 06:05:00 0.0
2016_12_19_S27 12/20/2016 06:10:00 0.0
2016_12_19_S27 12/20/2016 06:15:00 0.0
2016_12_19_S27 12/20/2016 06:20:00 0.0
2016_12_19_S27 12/20/2016 06:25:00 0.0
2016_12_19_S27 12/20/2016 06:30:00 0.0
2016_12_19_S27 12/20/2016 06:35:00 0.0
2016_12_19_S27 12/20/2016 06:40:00 0.0
2016_12_19_S27 12/20/2016 06:45:00 0.0
2016_12_19_S27 12/20/2016 06:50:00 0.0
2016_12_19_S27 12/20/2016 06:55:00 0.0
2016_12_19_S27 12/20/2016 07:00:00 0.0
2016_12_19_S27 12/20/2016 07:05:00 0.0
2016_12_19_S27 12/20/2016 07:10:00 0.0
2016_12_19_S27 12/20/2016 07:15:00 0.0
2016_12_19_S27 12/20/2016 07:20:00 0.0
2016_12_19_S27 12/20/2016 07:25:00 0.0
2016_12_19_S27 12/20/2016 07:30:00 0.0
2016_12_19_S27 12/20/2016 07:35:00 0.0
2016_12_19_S27 12/20/2016 07:40:00 0.0
2016_12_19_S27 12/20/2016 07:45:00 0.0
2016_12_19_S27 12/20/2016 07:50:00 0.0
2016_12_19_S27 12/20/2016 07:55:00 0.0
2016_12_19_S27 12/20/2016 08:00:00 0.0

2016_12_19_S28 12/19/2016 15:20:00 0.0128
2016_12_19_S28 12/19/2016 15:25:00 0.1326
2016_12_19_S28 12/19/2016 15:30:00 0.3029
2016_12_19_S28 12/19/2016 15:35:00 0.0053
2016_12_19_S28 12/19/2016 15:40:00 0.0
2016_12_19_S28 12/19/2016 15:45:00 0.0354
2016_12_19_S28 12/19/2016 15:50:00 0.0408
2016_12_19_S28 12/19/2016 15:55:00 0.8831
2016_12_19_S28 12/19/2016 16:00:00 1.4507
2016_12_19_S28 12/19/2016 16:05:00 0.5135
2016_12_19_S28 12/19/2016 16:10:00 4.6072
2016_12_19_S28 12/19/2016 16:15:00 2.9407
2016_12_19_S28 12/19/2016 16:20:00 3.7519
2016_12_19_S28 12/19/2016 16:25:00 1.7159
2016_12_19_S28 12/19/2016 16:30:00 0.912
2016_12_19_S28 12/19/2016 16:35:00 0.2236
2016_12_19_S28 12/19/2016 16:40:00 0.3804
2016_12_19_S28 12/19/2016 16:45:00 0.1542
2016_12_19_S28 12/19/2016 16:50:00 0.0423
2016_12_19_S28 12/19/2016 16:55:00 0.0415
2016_12_19_S28 12/19/2016 17:00:00 0.1011
2016_12_19_S28 12/19/2016 17:05:00 0.2409
2016_12_19_S28 12/19/2016 17:10:00 0.2296
2016_12_19_S28 12/19/2016 17:15:00 0.2844
2016_12_19_S28 12/19/2016 17:20:00 0.4823
2016_12_19_S28 12/19/2016 17:25:00 0.3347
2016_12_19_S28 12/19/2016 17:30:00 0.2627
2016_12_19_S28 12/19/2016 17:35:00 0.0937
2016_12_19_S28 12/19/2016 17:40:00 0.2624
2016_12_19_S28 12/19/2016 17:45:00 0.0991
2016_12_19_S28 12/19/2016 17:50:00 0.0137
2016_12_19_S28 12/19/2016 17:55:00 0.0
2016_12_19_S28 12/19/2016 18:00:00 0.0
2016_12_19_S28 12/19/2016 18:05:00 0.0
2016_12_19_S28 12/19/2016 18:10:00 0.0
2016_12_19_S28 12/19/2016 18:15:00 0.0
2016_12_19_S28 12/19/2016 18:20:00 0.0
2016_12_19_S28 12/19/2016 18:25:00 0.0
2016_12_19_S28 12/19/2016 18:30:00 0.0
2016_12_19_S28 12/19/2016 18:35:00 0.0
2016_12_19_S28 12/19/2016 18:40:00 0.0
2016_12_19_S28 12/19/2016 18:45:00 0.0
2016_12_19_S28 12/19/2016 18:50:00 0.0
2016_12_19_S28 12/19/2016 18:55:00 0.0
2016_12_19_S28 12/19/2016 19:00:00 0.0
2016_12_19_S28 12/19/2016 19:05:00 0.0
2016_12_19_S28 12/19/2016 19:10:00 0.0
2016_12_19_S28 12/19/2016 19:15:00 0.0004
2016_12_19_S28 12/19/2016 19:20:00 0.0114
2016_12_19_S28 12/19/2016 19:25:00 0.048
2016_12_19_S28 12/19/2016 19:30:00 0.0217
2016_12_19_S28 12/19/2016 19:35:00 0.0273
2016_12_19_S28 12/19/2016 19:40:00 0.054
2016_12_19_S28 12/19/2016 19:45:00 0.026
2016_12_19_S28 12/19/2016 19:50:00 0.0
2016_12_19_S28 12/19/2016 19:55:00 0.0034
2016_12_19_S28 12/19/2016 20:00:00 0.0064
2016_12_19_S28 12/19/2016 20:05:00 0.0
2016_12_19_S28 12/19/2016 20:10:00 0.0
2016_12_19_S28 12/19/2016 20:15:00 0.0
2016_12_19_S28 12/19/2016 20:20:00 0.0
2016_12_19_S28 12/19/2016 20:25:00 0.0
2016_12_19_S28 12/19/2016 20:30:00 0.0
2016_12_19_S28 12/19/2016 20:35:00 0.0
2016_12_19_S28 12/19/2016 20:40:00 0.0
2016_12_19_S28 12/19/2016 20:45:00 0.0
2016_12_19_S28 12/19/2016 20:50:00 0.0
2016_12_19_S28 12/19/2016 20:55:00 0.0
2016_12_19_S28 12/19/2016 21:00:00 0.0
2016_12_19_S28 12/19/2016 21:05:00 0.0
2016_12_19_S28 12/19/2016 21:10:00 0.0
2016_12_19_S28 12/19/2016 21:15:00 0.0
2016_12_19_S28 12/19/2016 21:20:00 0.0
2016_12_19_S28 12/19/2016 21:25:00 0.0
2016_12_19_S28 12/19/2016 21:30:00 0.0
2016_12_19_S28 12/19/2016 21:35:00 0.0
2016_12_19_S28 12/19/2016 21:40:00 0.0
2016_12_19_S28 12/19/2016 21:45:00 0.0
2016_12_19_S28 12/19/2016 21:50:00 0.0
2016_12_19_S28 12/19/2016 21:55:00 0.0
2016_12_19_S28 12/19/2016 22:00:00 0.0
2016_12_19_S28 12/19/2016 22:05:00 0.0
2016_12_19_S28 12/19/2016 22:10:00 0.0
2016_12_19_S28 12/19/2016 22:15:00 0.0
2016_12_19_S28 12/19/2016 22:20:00 0.0
2016_12_19_S28 12/19/2016 22:25:00 0.0
2016_12_19_S28 12/19/2016 22:30:00 0.0
2016_12_19_S28 12/19/2016 22:35:00 0.0
2016_12_19_S28 12/19/2016 22:40:00 0.0
2016_12_19_S28 12/19/2016 22:45:00 0.0
2016_12_19_S28 12/19/2016 22:50:00 0.0
2016_12_19_S28 12/19/2016 22:55:00 0.0
2016_12_19_S28 12/19/2016 23:00:00 0.0
2016_12_19_S28 12/19/2016 23:05:00 0.0
2016_12_19_S28 12/19/2016 23:10:00 0.0
2016_12_19_S28 12/19/2016 23:15:00 0.0
2016_12_19_S28 12/19/2016 23:20:00 0.0
2016_12_19_S28 12/19/2016 23:25:00 0.0
2016_12_19_S28 12/19/2016 23:30:00 0.0
2016_12_19_S28 12/19/2016 23:35:00 0.0
2016_12_19_S28 12/19/2016 23:40:00 0.0
2016_12_19_S28 12/19/2016 23:45:00 0.0
2016_12_19_S28 12/19/2016 23:50:00 0.0
2016_12_19_S28 12/19/2016 23:55:00 0.0
2016_12_19_S28 12/20/2016 00:00:00 0.0
2016_12_19_S28 12/20/2016 00:05:00 0.0
2016_12_19_S28 12/20/2016 00:10:00 0.0
2016_12_19_S28 12/20/2016 00:15:00 0.0
2016_12_19_S28 12/20/2016 00:20:00 0.0
2016_12_19_S28 12/20/2016 00:25:00 0.0
2016_12_19_S28 12/20/2016 00:30:00 0.0
2016_12_19_S28 12/20/2016 00:35:00 0.0
2016_12_19_S28 12/20/2016 00:40:00 0.0
2016_12_19_S28 12/20/2016 00:45:00 0.0
2016_12_19_S28 12/20/2016 00:50:00 0.0
2016_12_19_S28 12/20/2016 00:55:00 0.0
2016_12_19_S28 12/20/2016 01:00:00 0.0
2016_12_19_S28 12/20/2016 01:05:00 0.0
2016_12_19_S28 12/20/2016 01:10:00 0.0
2016_12_19_S28 12/20/2016 01:15:00 0.0
2016_12_19_S28 12/20/2016 01:20:00 0.0
2016_12_19_S28 12/20/2016 01:25:00 0.0
2016_12_19_S28 12/20/2016 01:30:00 0.0
2016_12_19_S28 12/20/2016 01:35:00 0.0
2016_12_19_S28 12/20/2016 01:40:00 0.0
2016_12_19_S28 12/20/2016 01:45:00 0.0
2016_12_19_S28 12/20/2016 01:50:00 0.0
2016_12_19_S28 12/20/2016 01:55:00 0.0
2016_12_19_S28 12/20/2016 02:00:00 0.0
2016_12_19_S28 12/20/2016 02:05:00 0.0
2016_12_19_S28 12/20/2016 02:10:00 0.0
2016_12_19_S28 12/20/2016 02:15:00 0.0
2016_12_19_S28 12/20/2016 02:20:00 0.0
2016_12_19_S28 12/20/2016 02:25:00 0.0
2016_12_19_S28 12/20/2016 02:30:00 0.0
2016_12_19_S28 12/20/2016 02:35:00 0.0
2016_12_19_S28 12/20/2016 02:40:00 0.0
2016_12_19_S28 12/20/2016 02:45:00 0.0
2016_12_19_S28 12/20/2016 02:50:00 0.0
2016_12_19_S28 12/20/2016 02:55:00 0.0
2016_12_19_S28 12/20/2016 03:00:00 0.0
2016_12_19_S28 12/20/2016 03:05:00 0.0
2016_12_19_S28 12/20/2016 03:10:00 0.0
2016_12_19_S28 12/20/2016 03:15:00 0.0
2016_12_19_S28 12/20/2016 03:20:00 0.0
2016_12_19_S28 12/20/2016 03:25:00 0.0
2016_12_19_S28 12/20/2016 03:30:00 0.0
2016_12_19_S28 12/20/2016 03:35:00 0.0
2016_12_19_S28 12/20/2016 03:40:00 0.0
2016_12_19_S28 12/20/2016 03:45:00 0.0
2016_12_19_S28 12/20/2016 03:50:00 0.0
2016_12_19_S28 12/20/2016 03:55:00 0.0
2016_12_19_S28 12/20/2016 04:00:00 0.0
2016_12_19_S28 12/20/2016 04:05:00 0.0
2016_12_19_S28 12/20/2016 04:10:00 0.0
2016_12_19_S28 12/20/2016 04:15:00 0.0
2016_12_19_S28 12/20/2016 04:20:00 0.0
2016_12_19_S28 12/20/2016 04:25:00 0.0
2016_12_19_S28 12/20/2016 04:30:00 0.0
2016_12_19_S28 12/20/2016 04:35:00 0.0
2016_12_19_S28 12/20/2016 04:40:00 0.0
2016_12_19_S28 12/20/2016 04:45:00 0.0
2016_12_19_S28 12/20/2016 04:50:00 0.0
2016_12_19_S28 12/20/2016 04:55:00 0.0
2016_12_19_S28 12/20/2016 05:00:00 0.0
2016_12_19_S28 12/20/2016 05:05:00 0.0
2016_12_19_S28 12/20/2016 05:10:00 0.0
2016_12_19_S28 12/20/2016 05:15:00 0.0
2016_12_19_S28 12/20/2016 05:20:00 0.0
2016_12_19_S28 12/20/2016 05:25:00 0.0
2016_12_19_S28 12/20/2016 05:30:00 0.0
2016_12_19_S28 12/20/2016 05:35:00 0.0
2016_12_19_S28 12/20/2016 05:40:00 0.0
2016_12_19_S28 12/20/2016 05:45:00 0.0
2016_12_19_S28 12/20/2016 05:50:00 0.0
2016_12_19_S28 12/20/2016 05:55:00 0.0
2016_12_19_S28 12/20/2016 06:00:00 0.0
2016_12_19_S28 12/20/2016 06:05:00 0.0
2016_12_19_S28 12/20/2016 06:10:00 0.0
2016_12_19_S28 12/20/2016 06:15:00 0.0
2016_12_19_S28 12/20/2016 06:20:00 0.0
2016_12_19_S28 12/20/2016 06:25:00 0.0
2016_12_19_S28 12/20/2016 06:30:00 0.0
2016_12_19_S28 12/20/2016 06:35:00 0.0
2016_12_19_S28 12/20/2016 06:40:00 0.0
2016_12_19_S28 12/20/2016 06:45:00 0.0
2016_12_19_S28 12/20/2016 06:50:00 0.0
2016_12_19_S28 12/20/2016 06:55:00 0.0
2016_12_19_S28 12/20/2016 07:00:00 0.0
2016_12_19_S28 12/20/2016 07:05:00 0.0
2016_12_19_S28 12/20/2016 07:10:00 0.0
2016_12_19_S28 12/20/2016 07:15:00 0.0
2016_12_19_S28 12/20/2016 07:20:00 0.0
2016_12_19_S28 12/20/2016 07:25:00 0.0
2016_12_19_S28 12/20/2016 07:30:00 0.0
2016_12_19_S28 12/20/2016 07:35:00 0.0
2016_12_19_S28 12/20/2016 07:40:00 0.0
2016_12_19_S28 12/20/2016 07:45:00 0.0
2016_12_19_S28 12/20/2016 07:50:00 0.0
2016_12_19_S28 12/20/2016 07:55:00 0.0
2016_12_19_S28 12/20/2016 08:00:00 0.0

;;____________________________________________________________________________________________________
[REPORT]
;;Reporting Options
SUBCATCHMENTS ALL
NODES ALL
LINKS ALL

;;____________________________________________________________________________________________________
[MAP]
DIMENSIONS 185865.396 673350.000 190772.001 679332.930
Units      Meters

;;____________________________________________________________________________________________________
[COORDINATES]
;;Node           X-Coord            Y-Coord           
;;-------------- ------------------ ------------------
J1               188416.573         678864.133        
J10              187876.949         676421.351        
J11              187771.585         676118.430        
J12              187745.244         675971.909        
J13              187705.733         675874.777        
J14              187172.330         676006.482        
J15              186808.496         675525.760        
J16              187588.852         675315.403        
J17              187325.287         674633.430        
J18              186976.064         674336.920        
J2               188485.717         678548.042        
J20              188922.377         677824.394        
J21              189159.110         677387.020        
J22              189116.281         676672.101        
J23              188928.977         676213.404        
J24              188829.655         675802.338        
J25              188998.163         675748.871        
J26              189650.485         676542.859        
J3               188483.151         678441.702        
J4               188316.513         677812.480        
J5               188232.551         677631.386        
J6               188137.065         677425.598        
J7               188104.139         677267.552        
J8               188018.531         676976.156        
J9               187918.106         676592.567        
O1               188423.158         679007.361

;;____________________________________________________________________________________________________
[VERTICES]
;;Link           X-Coord            Y-Coord           
;;-------------- ------------------ ------------------
C2               188487.548         678593.979        
C2               188403.586         678740.501        
C21              189211.773         677639.351        
C21              189047.045         677701.947        
C21              189037.161         677797.490        
C22              189218.362         677049.625        
C22              189093.169         677092.455        
C23              188968.026         676309.700        
C23              189040.506         676306.405        
C4               188383.830         677872.897        
C4               188365.721         677925.579        
C4               188360.782         678067.161        
C4               188415.110         678221.914        
C4               188480.962         678429.349        
C5               188251.288         677708.747

;;____________________________________________________________________________________________________
[POLYGONS]
;;Subcatchment   X-Coord            Y-Coord           
;;-------------- ------------------ ------------------
S01              187279.862         678858.156        
S01              187414.939         678805.443        
S01              187494.009         678798.854        
S01              187622.496         678838.389        
S01              187675.209         678818.621        
S01              187790.519         678812.032        
S01              187823.464         678848.272        
S01              187866.293         678854.861        
S01              187899.239         678868.040        
S01              187981.603         678802.148        
S01              188027.727         678798.854        
S01              188077.145         678805.443        
S01              188123.269         678821.916        
S01              188162.804         678844.978        
S01              188205.633         678861.450        
S01              188281.408         678874.629        
S01              188337.415         678910.869        
S01              188390.128         678950.403        
S01              188406.601         678999.822        
S01              188446.135         679009.705        
S01              188446.135         678980.054        
S01              188423.073         678854.861        
S01              188416.484         678756.025        
S01              188495.554         678591.297        
S01              188067.261         678535.289        
S01              187734.511         678525.406        
S01              187095.367         678528.700        
S01              187194.204         678607.770        
S01              187167.848         678634.126        
S01              187164.553         678680.250        
S01              187276.568         678841.683        
S02              188311.826         678562.991        
S02              188093.122         678531.748        
S02              187825.817         678517.862        
S02              187121.103         678531.748        
S02              187034.315         678455.375        
S02              186964.886         678427.603        
S02              187003.072         678170.712        
S02              186968.357         678125.583        
S02              186933.642         678021.438        
S02              186874.627         677899.935        
S02              186982.243         677882.578        
S02              187207.890         677858.277        
S02              187277.320         677872.163        
S02              187659.185         677872.163        
S02              188023.692         677865.220        
S02              188318.769         677851.334        
S02              188322.241         677934.650        
S02              188339.598         678087.396        
S02              188402.085         678212.370        
S02              188412.500         678292.215        
S02              188468.044         678431.074        
S02              188464.572         678583.820        
S03              186866.088         677850.375        
S03              186852.202         677826.075        
S03              186855.674         677753.174        
S03              186914.689         677610.842        
S03              186994.534         677586.542        
S03              187067.435         677558.770        
S03              187109.093         677503.226        
S03              187154.222         677492.811        
S03              187244.481         677524.055        
S03              187383.341         677562.241        
S03              187466.657         677576.127        
S03              187570.802         677534.469        
S03              187855.465         677503.226        
S03              187987.382         677548.355        
S03              188126.241         677635.143        
S03              188188.728         677697.630        
S03              188240.801         677718.459        
S03              188285.930         677774.003        
S03              188320.645         677843.432        
S03              187740.905         677857.318        
S03              187185.466         677846.904        
S03              186886.917         677878.147        
S04              187214.648         677432.470        
S04              187264.984         677411.641        
S04              187275.399         677323.118        
S04              187509.725         677234.595        
S04              187551.383         677357.833        
S04              187709.336         677323.118        
S04              187735.372         677366.512        
S04              187898.533         677333.532        
S04              187919.361         677422.056        
S04              188125.916         677369.983        
S04              188223.117         677611.252        
S04              188240.475         677727.547        
S04              188037.392         677592.159        
S04              187900.268         677515.786        
S04              187593.041         677538.351        
S04              187488.896         677571.330        
S04              187419.466         677571.330        
S04              187232.005         677514.050        
S05              187478.475         677233.098        
S05              187442.024         677106.389        
S05              187785.702         677003.980        
S05              187822.153         677102.917        
S05              187962.749         677075.145        
S05              187985.313         677113.332        
S05              188053.008         677106.389        
S05              188139.795         677359.808        
S05              187924.562         677406.673        
S05              187910.676         677325.093        
S05              187740.573         677354.601        
S05              187712.801         677323.357        
S05              187539.226         677342.450        
S05              187527.076         677264.342        
S05              187494.097         677220.948        
S06              186705.854         677552.926        
S06              186698.911         677467.875        
S06              186665.932         677434.896        
S06              186657.253         677073.860        
S06              186627.745         677021.788        
S06              186652.046         676938.472        
S06              187217.900         676783.990        
S06              187261.293         676910.700        
S06              187933.028         676740.596        
S06              188044.116         677108.575        
S06              187981.629         677118.989        
S06              187946.914         677089.482        
S06              187813.261         677125.932        
S06              187792.432         677009.637        
S06              187441.811         677108.575        
S06              187466.112         677242.228        
S06              187259.558         677320.336        
S06              187250.879         677412.331        
S06              187197.071         677408.859        
S06              187209.221         677500.854        
S06              187117.226         677493.911        
S06              187056.475         677565.077        
S06              186898.522         677613.678        
S06              186836.035         677537.305        
S06              186711.061         677559.869        
S07              186650.642         676928.193        
S07              186604.518         676855.713        
S07              186578.162         676763.466        
S07              186650.642         676608.621        
S07              186742.890         676457.072        
S07              186917.501         676407.654        
S07              186940.563         676473.545        
S07              187457.809         676331.879        
S07              187431.452         676256.104        
S07              187790.559         676147.384        
S07              187978.348         676727.226        
S07              187260.135         676921.604        
S07              187227.190         676786.528        
S07              186644.053         676931.488        
S08              186765.952         676443.894        
S08              186848.316         676364.824        
S08              186756.068         676249.515        
S08              186769.246         676239.631        
S08              187105.291         676134.205        
S08              187141.531         676018.896        
S08              187711.489         675864.052        
S08              187810.326         676144.089        
S08              187434.747         676236.337        
S08              187464.398         676331.879        
S08              186940.563         676476.839        
S08              186930.680         676407.654        
S08              186746.184         676453.777        
S09              186774.094         676232.497        
S09              187105.622         676117.938        
S09              187136.865         676013.793        
S09              187254.896         675973.871        
S09              187091.736         675496.540        
S09              186834.845         675557.291        
S09              186846.995         675678.794        
S09              186650.856         675720.452        
S09              186619.612         675847.161        
S09              186609.198         676031.151        
S09              186640.441         676112.731        
S09              186770.622         676249.855        
S10              186660.526         675669.673        
S10              186588.046         675623.549        
S10              186541.922         675534.596        
S10              186403.551         675514.829        
S10              186370.605         675465.410        
S10              186367.310         675386.341        
S10              186291.536         675359.985        
S10              186258.590         675294.094        
S10              186278.357         675261.148        
S10              186261.885         675211.730        
S10              186268.474         675089.831        
S10              186298.125         675116.188        
S10              186360.721         675053.591        
S10              186456.263         675040.413        
S10              186476.031         674967.932        
S10              186624.286         674911.925        
S10              186848.316         675053.591        
S10              186924.090         675231.497        
S10              186999.865         675521.418        
S10              186825.254         675551.069        
S10              186851.610         675676.262        
S10              186627.580         675722.386        
S11              186996.571         675488.472        
S11              186943.858         675290.799        
S11              186854.905         675066.769        
S11              186630.875         674921.809        
S11              186627.580         674625.299        
S11              186574.867         674526.462        
S11              186739.595         674302.432        
S11              186733.006         674167.355        
S11              187306.259         674061.929        
S11              187372.150         674028.984        
S11              187263.430         674529.756        
S11              187167.888         674533.051        
S11              187227.190         674895.452        
S11              187335.910         675228.202        
S11              187319.437         675310.566        
S11              187246.957         675392.930        
S11              187131.647         675491.767        
S11              186996.571         675514.829        
S12              186752.882         674155.010        
S12              187356.922         674047.394        
S12              187353.450         673849.518        
S12              187304.850         673898.119        
S12              187204.176         673918.948        
S12              187075.731         673936.306        
S12              187016.715         673842.575        
S12              186752.882         673832.161        
S12              186669.566         673905.062        
S12              186659.151         673932.834        
S12              186738.996         674016.150        
S12              186735.524         674144.595        
S13              187362.328         673864.932        
S13              187369.271         674069.750        
S13              187279.013         674527.988        
S13              187174.868         674538.402        
S13              187268.598         675059.126        
S13              187334.556         675257.002        
S13              187289.427         675357.675        
S13              187192.225         675434.048        
S13              187108.909         675472.235        
S13              187258.184         675968.659        
S13              187806.680         675833.270        
S13              187806.680         675753.426        
S13              188230.203         675645.809        
S13              188230.203         675562.493        
S13              188414.192         675562.493        
S13              188455.850         675007.054        
S13              188275.332         674850.837        
S13              188094.814         674753.635        
S13              188039.270         674538.402        
S13              187955.954         674462.029        
S13              187917.768         674267.625        
S13              187942.068         674205.138        
S13              187949.011         674062.807        
S13              187883.053         673996.849        
S13              187848.338         674000.320        
S13              187758.079         673962.134        
S13              187695.592         673812.859        
S13              187626.162         673764.258        
S13              187476.888         673788.559        
S13              187358.857         673864.932        
S14              187715.284         675871.166        
S14              187833.314         676235.673        
S14              188503.313         676062.098        
S14              188454.712         675905.881        
S14              188291.552         675912.824        
S14              188246.423         675659.404        
S14              187819.429         675756.606        
S14              187812.486         675857.280        
S14              187729.170         675874.637        
S15              188699.856         674898.747        
S15              188604.314         674846.034        
S15              188469.237         674987.700        
S15              188423.114         675570.836        
S15              188235.324         675560.953        
S15              188228.735         675643.317        
S15              188245.207         675705.913        
S15              188274.858         675722.386        
S15              188571.369         675643.317        
S15              188614.198         675794.866        
S15              189009.545         675705.913        
S15              189035.901         675788.277        
S15              189388.419         675323.745        
S15              189312.644         675336.923        
S15              189200.629         675307.272        
S15              189095.203         675191.962        
S15              189088.614         675014.056        
S15              188956.832         674974.522        
S15              188917.297         674872.390        
S15              188762.453         674859.212        
S15              188706.445         674905.336        
S16              189072.141         675738.859        
S16              189391.713         675310.566        
S16              189427.953         675336.923        
S16              189622.332         675336.923        
S16              189734.347         675373.163        
S16              189803.533         675313.861        
S16              189935.315         675458.821        
S16              189968.260         675633.433        
S16              189510.317         675653.200        
S16              189507.023         675808.044        
S16              189605.859         676018.896        
S16              189605.859         676068.314        
S16              189424.659         676078.198        
S16              189358.767         675775.099        
S16              189049.079         675775.099        
S17              188292.964         675915.061        
S17              188470.010         675880.346        
S17              188619.285         676414.957        
S17              188640.114         676418.428        
S17              189521.874         676165.009        
S17              189501.045         676078.221        
S17              189431.615         676071.278        
S17              189421.200         676046.978        
S17              189348.299         675779.673        
S17              189028.921         675793.559        
S17              189018.507         675724.129        
S17              188612.342         675803.973        
S17              188588.041         675661.642        
S17              188275.607         675734.543        
S17              188310.322         675911.590        
S18              187933.690         676600.013        
S18              187833.017         676245.920        
S18              188506.487         676075.817        
S18              188624.518         676422.967        
S18              187937.162         676596.541        
S19              188046.282         676980.558        
S19              188310.116         676883.356        
S19              188337.888         676956.257        
S19              188712.810         676865.998        
S19              188716.281         676848.641        
S19              188629.494         676588.278        
S19              188639.908         676439.004        
S19              187931.723         676602.164        
S19              188046.282         676977.086        
S20              188151.099         677391.191        
S20              188699.596         677300.932        
S20              188692.653         677186.373        
S20              188786.383         677148.186        
S20              188716.953         676839.223        
S20              188345.503         676960.726        
S20              188314.260         676898.239        
S20              188046.954         676967.669        
S20              188151.099         677384.248        
S21              188644.301         676422.695        
S21              188630.415         676474.768        
S21              188717.202         676811.503        
S21              188800.518         677141.295        
S21              189776.009         676901.762        
S21              189633.677         676290.778        
S21              189592.019         676075.545        
S21              189505.232         676072.074        
S21              189519.118         676186.633        
S21              188640.829         676433.110        
S22              189609.358         676094.851        
S22              189796.819         676879.409        
S22              189828.062         676993.969        
S22              189848.891         676948.839        
S22              189921.793         676855.109        
S22              189977.337         676827.337        
S22              190053.710         676733.606        
S22              190119.668         676695.420        
S22              190185.627         676695.420        
S22              190268.943         676636.404        
S22              190362.673         676660.705        
S22              190432.103         676594.746        
S22              190452.932         676521.845        
S22              190425.160         676476.716        
S22              190553.605         676386.457        
S22              190557.077         676303.141        
S22              190494.590         676202.467        
S22              190525.833         676060.136        
S22              190515.419         675955.991        
S22              190414.745         675865.732        
S22              190161.326         675667.857        
S22              190088.425         675695.629        
S22              189977.337         675640.085        
S22              189522.571         675647.028        
S22              189508.685         675792.831        
S22              189619.773         676063.608        
S23              188878.835         677825.274        
S23              188944.793         677832.217        
S23              189187.798         677755.844        
S23              189392.616         677717.657        
S23              189691.165         677696.828        
S23              189684.222         677578.797        
S23              189760.595         677540.611        
S23              189750.181         677429.523        
S23              189718.937         677349.679        
S23              189791.838         677269.834        
S23              189798.781         677040.716        
S23              189777.953         676922.685        
S23              188944.793         677134.446        
S23              188965.622         677262.891        
S23              188913.550         677262.891        
S23              188930.907         677495.482        
S23              188885.778         677498.953        
S23              188861.477         677825.274        
S24              188340.468         677855.197        
S24              188784.820         677851.726        
S24              188868.135         677834.368        
S24              188864.664         677511.519        
S24              188923.679         677490.690        
S24              188902.850         677261.571        
S24              188951.451         677258.100        
S24              188947.980         677140.069        
S24              188916.736         677140.069        
S24              188708.447         677209.499        
S24              188684.146         677615.664        
S24              188267.567         677671.208        
S24              188333.525         677855.197        
S25              188250.451         677657.676        
S25              188691.331         677605.603        
S25              188691.331         677588.246        
S25              188698.274         677463.272        
S25              188712.160         677400.785        
S25              188705.217         677310.526        
S25              188160.192         677386.899        
S25              188246.979         677654.204        
S26              188709.123         678042.797        
S26              188719.538         677869.222        
S26              188820.211         677876.165        
S26              188861.869         677844.922        
S26              189007.672         677820.621        
S26              189299.278         677747.720        
S26              189688.085         677681.761        
S26              189698.500         677713.005        
S26              189681.142         677855.336        
S26              189629.070         677980.310        
S26              189483.267         678126.113        
S26              189313.163         678122.641        
S26              189268.034         678146.942        
S26              189014.615         678136.527        
S26              189004.200         678098.341        
S26              188702.180         678042.797        
S27              188509.779         678591.953        
S27              188617.395         678623.196        
S27              188929.830         678640.554        
S27              188884.700         679064.076        
S27              188981.902         679039.776        
S27              189207.550         679022.419        
S27              189259.622         678970.346        
S27              189419.311         678959.932        
S27              189467.912         678932.160        
S27              189471.383         678817.600        
S27              189433.197         678758.585        
S27              189502.627         678720.398        
S27              189572.057         678682.212        
S27              189596.357         678598.896        
S27              189565.114         678581.538        
S27              189526.927         678539.881        
S27              189509.570         678456.565        
S27              189471.383         678383.663        
S27              189471.383         678144.130        
S27              189308.223         678123.301        
S27              189290.866         678161.487        
S27              189006.203         678147.601        
S27              189009.674         678105.943        
S27              188714.597         678050.400        
S27              188718.069         677883.768        
S27              188363.976         677855.996        
S27              188363.976         677883.768        
S27              188377.862         678060.814        
S27              188409.105         678137.187        
S27              188475.064         678376.720        
S27              188506.307         678598.896        
S28              188431.500         678929.384        
S28              188415.027         678744.888        
S28              188474.329         678599.928        
S28              188569.871         678616.401        
S28              188747.777         678636.168        
S28              188849.908         678639.463        
S28              188909.210         678622.990        
S28              188912.505         678688.881        
S28              188892.738         678850.314        
S28              188863.087         679061.166        
S28              188635.762         679067.755        
S28              188606.111         679051.282        
S28              188507.274         678988.686        
S28              188434.794         678988.686

;;____________________________________________________________________________________________________
[SYMBOLS]
;;Gage           X-Coord            Y-Coord           
;;-------------- ------------------ ------------------

;;____________________________________________________________________________________________________
[BACKDROP]
FILE       "raanana_24subcatchments.png"
DIMENSIONS 185865.396 673350.000 190728.391 679250.737