[TITLE]
;;Project Title/Notes

;;____________________________________________________________________________________________________
[OPTIONS]
FLOW_UNITS           CMS
INFILTRATION         CURVE_NUMBER
FLOW_ROUTING         DYNWAVE
LINK_OFFSETS         DEPTH
MIN_SLOPE            0
ALLOW_PONDING        NO
SKIP_STEADY_STATE    NO
START_DATE           02/13/2018
START_TIME           02:00:00
REPORT_START_DATE    02/13/2018
REPORT_START_TIME    02:00:00
END_DATE             02/13/2018
END_TIME             11:00:00
SWEEP_START          01/01
SWEEP_END            12/31
DRY_DAYS             0
REPORT_STEP          00:05:00
WET_STEP             00:05:00
DRY_STEP             01:00:00
ROUTING_STEP         0:00:20
RULE_STEP            00:00:00
INERTIAL_DAMPING     PARTIAL
NORMAL_FLOW_LIMITED  BOTH
FORCE_MAIN_EQUATION  H-W
VARIABLE_STEP        0.75
LENGTHENING_STEP     0
MIN_SURFAREA         1.167
MAX_TRIALS           8
HEAD_TOLERANCE       0.0015
SYS_FLOW_TOL         5
LAT_FLOW_TOL         5
MINIMUM_STEP         0.5
THREADS              1

;;____________________________________________________________________________________________________
[EVAPORATION]
CONSTANT  4
DRY_ONLY  NO

;;____________________________________________________________________________________________________
[RAINGAGES]
R01 VOLUME 0:05 0 TIMESERIES 2018_02_13_S1
R02 VOLUME 0:05 0 TIMESERIES 2018_02_13_S2
R03 VOLUME 0:05 0 TIMESERIES 2018_02_13_S3
R04 VOLUME 0:05 0 TIMESERIES 2018_02_13_S4
R05 VOLUME 0:05 0 TIMESERIES 2018_02_13_S5
R06 VOLUME 0:05 0 TIMESERIES 2018_02_13_S6
R07 VOLUME 0:05 0 TIMESERIES 2018_02_13_S7
R08 VOLUME 0:05 0 TIMESERIES 2018_02_13_S8
R09 VOLUME 0:05 0 TIMESERIES 2018_02_13_S9
R10 VOLUME 0:05 0 TIMESERIES 2018_02_13_S10
R11 VOLUME 0:05 0 TIMESERIES 2018_02_13_S11
R12 VOLUME 0:05 0 TIMESERIES 2018_02_13_S12
R13 VOLUME 0:05 0 TIMESERIES 2018_02_13_S13
R14 VOLUME 0:05 0 TIMESERIES 2018_02_13_S14
R15 VOLUME 0:05 0 TIMESERIES 2018_02_13_S15
R16 VOLUME 0:05 0 TIMESERIES 2018_02_13_S16
R17 VOLUME 0:05 0 TIMESERIES 2018_02_13_S17
R18 VOLUME 0:05 0 TIMESERIES 2018_02_13_S18
R19 VOLUME 0:05 0 TIMESERIES 2018_02_13_S19
R20 VOLUME 0:05 0 TIMESERIES 2018_02_13_S20
R21 VOLUME 0:05 0 TIMESERIES 2018_02_13_S21
R22 VOLUME 0:05 0 TIMESERIES 2018_02_13_S22
R23 VOLUME 0:05 0 TIMESERIES 2018_02_13_S23
R24 VOLUME 0:05 0 TIMESERIES 2018_02_13_S24
R25 VOLUME 0:05 0 TIMESERIES 2018_02_13_S25
R26 VOLUME 0:05 0 TIMESERIES 2018_02_13_S26
R27 VOLUME 0:05 0 TIMESERIES 2018_02_13_S27
R28 VOLUME 0:05 0 TIMESERIES 2018_02_13_S28

;;____________________________________________________________________________________________________
[SUBCATCHMENTS]
S01 R01 J1 35.9 6 3211 3 0
S02 R02 J2 92.9 54 3640 2.6 0
S03 R03 J4 40.8 64.5 3640 2.2 0
S04 R04 J6 20.1 70.5 2457 2.4 0
S05 R05 J7 17.4 67.5 1508 3.5 0
S06 R06 J8 61.1 70.5 3692 1.9 0
S07 R07 J9 60.2 70.5 3458 2 0
S08 R08 J11 29 70.5 2600 2.8 0
S09 R09 J14 31.1 19.5 1482 3 0
S10 R10 J15 35.6 70.5 1820 2.2 0
S11 R11 J17 67.4 70.5 702 3.5 0
S12 R12 J18 15.2 16.5 2860 4 0
S13 R13 J16 177.1 10.5 5408 1.3 0
S14 R14 J12 27 73.5 1391 3 0
S15 R15 J24 59.2 24 1703 2.5 0
S16 R16 J25 28.6 45 1703 2.3 0
S17 R17 J23 53.4 73.5 1560 2.4 0
S18 R18 J10 25.4 73.5 1872 2.9 0
S19 R19 J8 27.8 73.5 1820 3.2 0
S20 R20 J7 28.2 70.5 1820 3.3 0
S21 R21 J22 76.7 70.5 1976 2.8 0
S22 R22 J26 87.9 82.5 2405 2.4 0
S23 R23 J21 60.3 69 2262 2.1 0
S24 R24 J4 21.6 70.5 3255.2 2 0
S25 R25 J5 14 76.5 1274 3.6 0
S26 R26 J20 30.9 94.5 2470 2.1 0
S27 R27 J3 82 97.5 2782 1.9 0
S28 R28 J1 18.8 3 1235 2.4 0


;;____________________________________________________________________________________________________
[SUBAREAS]
S01 0.011 0.06 14.4 40 30 PERVIOUS 45
S02 0.011 0.06 14.4 40 50 PERVIOUS 45
S03 0.011 0.06 14.4 40 50 PERVIOUS 45
S04 0.011 0.06 14.4 40 50 PERVIOUS 45
S05 0.011 0.06 14.4 40 50 PERVIOUS 45
S06 0.011 0.06 14.4 40 50 PERVIOUS 45
S07 0.011 0.06 14.4 40 50 PERVIOUS 45
S08 0.011 0.06 14.4 40 50 PERVIOUS 45
S09 0.011 0.06 14.4 40 30 PERVIOUS 45
S10 0.011 0.06 14.4 40 50 PERVIOUS 45
S11 0.011 0.06 14.4 40 50 PERVIOUS 45
S12 0.011 0.06 14.4 40 30 PERVIOUS 45
S13 0.011 0.06 14.4 40 30 PERVIOUS 45
S14 0.011 0.06 14.4 40 50 PERVIOUS 45
S15 0.011 0.06 14.4 40 30 PERVIOUS 45
S16 0.011 0.06 14.4 40 50 PERVIOUS 45
S17 0.011 0.06 14.4 40 50 PERVIOUS 45
S18 0.011 0.06 14.4 40 50 PERVIOUS 45
S19 0.011 0.06 14.4 40 50 PERVIOUS 45
S20 0.011 0.06 14.4 40 50 PERVIOUS 45
S21 0.011 0.06 14.4 40 50 PERVIOUS 45
S22 0.011 0.06 14.4 40 60 PERVIOUS 45
S23 0.011 0.06 14.4 40 50 PERVIOUS 45
S24 0.011 0.06 14.4 40 50 PERVIOUS 45
S25 0.011 0.06 14.4 40 50 PERVIOUS 45
S26 0.011 0.06 14.4 40 60 PERVIOUS 45
S27 0.011 0.06 14.4 40 60 PERVIOUS 45
S28 0.011 0.06 14.4 40 30 PERVIOUS 45


;;____________________________________________________________________________________________________
[INFILTRATION]
S01 39 0.5 4
S02 39 0.5 4
S03 39 0.5 4
S04 39 0.5 4
S05 39 0.5 4
S06 39 0.5 4
S07 39 0.5 4
S08 39 0.5 4
S09 39 0.5 4
S10 39 0.5 4
S11 39 0.5 4
S12 39 0.5 4
S13 39 0.5 4
S14 39 0.5 4
S15 39 0.5 4
S16 39 0.5 4
S17 39 0.5 4
S18 39 0.5 4
S19 39 0.5 4
S20 39 0.5 4
S21 39 0.5 4
S22 39 0.5 4
S23 39 0.5 4
S24 39 0.5 4
S25 39 0.5 4
S26 39 0.5 4
S27 39 0.5 4
S28 39 0.5 4


;;____________________________________________________________________________________________________
[JUNCTIONS]
;;Name           Elevation  MaxDepth   InitDepth  SurDepth   Aponded   
;;-------------- ---------- ---------- ---------- ---------- ----------
J1               28.6       0          0          0          0         
J10              41.7       0          0          0          0         
J11              43.4       0          0          0          0         
J12              44.5       0          0          0          0         
J13              45.2       0          0          0          0         
J14              54.6       0          0          0          0         
J15              60.3       0          0          0          0         
J16              49         0          0          0          0         
J17              55.5       0          0          0          0         
J18              65.1       0          0          0          0         
J2               31.6       0          0          0          0         
J20              37.3       0          0          0          0         
J21              42.7       0          0          0          0         
J22              46.8       0          0          0          0         
J23              49.5       0          0          0          0         
J24              50.1       0          0          0          0         
J25              53.6       0          0          0          0         
J26              53.8       0          0          0          0         
J3               31.8       0          0          0          0         
J4               33.2       0          0          0          0         
J5               35.8       0          0          0          0         
J6               38         0          0          0          0         
J7               38.5       0          0          0          0         
J8               39.9       0          0          0          0         
J9               40.6       0          0          0          0

;;____________________________________________________________________________________________________
[OUTFALLS]
;;Name           Elevation  Type       Stage Data       Gated    Route To        
;;-------------- ---------- ---------- ---------------- -------- ----------------
O1               28         FREE                        NO

;;____________________________________________________________________________________________________
[CONDUITS]
;;Name           From Node        To Node          Length     Roughness  InOffset   OutOffset  InitFlow   MaxFlow   
;;-------------- ---------------- ---------------- ---------- ---------- ---------- ---------- ---------- ----------
C1               J1               O1               130        0.05       0          0          0          0         
C10              J10              J9               320        0.01       0          0          0          0         
C11              J11              J10              315        0.01       0          0          0          0         
C12              J12              J11              130        0.01       0          0          0          0         
C13              J13              J12              110        0.01       0          0          0          0         
C14              J13              J14              550        0.01       0          0          0          0         
C15              J15              J14              540        0.01       0          0          0          0         
C16              J16              J13              590        0.01       0          0          0          0         
C17              J17              J16              770        0.01       0          0          0          0         
C18              J18              J17              505        0.01       0          0          0          0         
C2               J2               J1               330        0.01       0          0          0          0         
C20              J20              J4               600        0.01       0          0          0          0         
C21              J21              J20              620        0.01       0          0          0          0         
C22              J22              J21              850        0.01       0          0          0          0         
C23              J23              J22              530        0.01       0          0          0          0         
C24              J24              J23              440        0.01       0          0          0          0         
C25              J25              J24              190        0.01       0          0          0          0         
C26              J26              J22              600        0.01       0          0          0          0         
C3               J3               J2               95         0.01       0          0          0          0         
C4               J4               J3               660        0.01       0          0          0          0         
C5               J5               J4               175        0.01       0          0          0          0         
C6               J6               J5               280        0.01       0          0          0          0         
C7               J7               J6               120        0.01       0          0          0          0         
C8               J8               J7               300        0.01       0          0          0          0         
C9               J9               J8               250        0.01       0          0          0          0

;;____________________________________________________________________________________________________
[XSECTIONS]
;;Link           Shape        Geom1            Geom2      Geom3      Geom4      Barrels    Culvert   
;;-------------- ------------ ---------------- ---------- ---------- ---------- ---------- ----------
C1               PARABOLIC    5                12         0          0          1                    
C10              RECT_CLOSED  1.5              1.7        0          0          1                    
C11              RECT_CLOSED  1.25             1.5        0          0          1                    
C12              RECT_CLOSED  1.25             1.5        0          0          1                    
C13              RECT_CLOSED  1.95             3.85       0          0          1                    
C14              CIRCULAR     0.6              0          0          0          1                    
C15              RECT_CLOSED  1.95             3.85       0          0          1                    
C16              PARABOLIC    1.95             3.85       0          0          1                    
C17              RECT_CLOSED  1.95             3.85       0          0          1                    
C18              RECT_CLOSED  1.95             3.85       0          0          1                    
C2               PARABOLIC    5                12         0          0          1                    
C20              RECT_CLOSED  1.25             4.5        0          0          1                    
C21              CIRCULAR     1.5              0          0          0          1                    
C22              CIRCULAR     1.8              0          0          0          1                    
C23              CIRCULAR     1.25             0          0          0          1                    
C24              CIRCULAR     1.5              0          0          0          1                    
C25              RECT_CLOSED  1.95             3.85       0          0          1                    
C26              CIRCULAR     1.25             0          0          0          1                    
C3               RECT_CLOSED  3.70             6          0          0          1                    
C4               RECT_CLOSED  3.60             5.85       0          0          1                    
C5               RECT_CLOSED  1.85             2.5        0          0          1                    
C6               RECT_CLOSED  1.85             2.5        0          0          1                    
C7               RECT_CLOSED  1.95             3.85       0          0          1                    
C8               RECT_CLOSED  1.85             2          0          0          1                    
C9               RECT_CLOSED  1.85             2          0          0          1

;;____________________________________________________________________________________________________
[TIMESERIES]
2018_02_13_S1 02/12/2018 19:55:00 0.066
2018_02_13_S1 02/12/2018 20:00:00 0.1259
2018_02_13_S1 02/12/2018 20:05:00 0.1507
2018_02_13_S1 02/12/2018 20:10:00 0.1347
2018_02_13_S1 02/12/2018 20:15:00 0.1321
2018_02_13_S1 02/12/2018 20:20:00 0.117
2018_02_13_S1 02/12/2018 20:25:00 0.1067
2018_02_13_S1 02/12/2018 20:30:00 0.2292
2018_02_13_S1 02/12/2018 20:35:00 0.1087
2018_02_13_S1 02/12/2018 20:40:00 0.0939
2018_02_13_S1 02/12/2018 20:45:00 0.0574
2018_02_13_S1 02/12/2018 20:50:00 0.0501
2018_02_13_S1 02/12/2018 20:55:00 0.0332
2018_02_13_S1 02/12/2018 21:00:00 0.0406
2018_02_13_S1 02/12/2018 21:05:00 0.0354
2018_02_13_S1 02/12/2018 21:10:00 0.0406
2018_02_13_S1 02/12/2018 21:15:00 0.0714
2018_02_13_S1 02/12/2018 21:20:00 0.0621
2018_02_13_S1 02/12/2018 21:25:00 0.0682
2018_02_13_S1 02/12/2018 21:30:00 0.0733
2018_02_13_S1 02/12/2018 21:35:00 0.0421
2018_02_13_S1 02/12/2018 21:40:00 0.0506
2018_02_13_S1 02/12/2018 21:45:00 0.0588
2018_02_13_S1 02/12/2018 21:50:00 0.0598
2018_02_13_S1 02/12/2018 21:55:00 0.0895
2018_02_13_S1 02/12/2018 22:00:00 0.0647
2018_02_13_S1 02/12/2018 22:05:00 0.0473
2018_02_13_S1 02/12/2018 22:10:00 0.0423
2018_02_13_S1 02/12/2018 22:15:00 0.0427
2018_02_13_S1 02/12/2018 22:20:00 0.0398
2018_02_13_S1 02/12/2018 22:25:00 0.0419
2018_02_13_S1 02/12/2018 22:30:00 0.0422
2018_02_13_S1 02/12/2018 22:35:00 0.071
2018_02_13_S1 02/12/2018 22:40:00 0.0519
2018_02_13_S1 02/12/2018 22:45:00 0.0717
2018_02_13_S1 02/12/2018 22:50:00 0.0456
2018_02_13_S1 02/12/2018 22:55:00 0.0894
2018_02_13_S1 02/12/2018 23:00:00 0.0835
2018_02_13_S1 02/12/2018 23:05:00 0.0657
2018_02_13_S1 02/12/2018 23:10:00 0.0639
2018_02_13_S1 02/12/2018 23:15:00 0.0975
2018_02_13_S1 02/12/2018 23:20:00 0.1034
2018_02_13_S1 02/12/2018 23:25:00 0.0874
2018_02_13_S1 02/12/2018 23:30:00 0.0956
2018_02_13_S1 02/12/2018 23:35:00 0.09
2018_02_13_S1 02/12/2018 23:40:00 0.0685
2018_02_13_S1 02/12/2018 23:45:00 0.0745
2018_02_13_S1 02/12/2018 23:50:00 0.0777
2018_02_13_S1 02/12/2018 23:55:00 0.0597
2018_02_13_S1 02/13/2018 00:00:00 0.0754
2018_02_13_S1 02/13/2018 00:05:00 0.075
2018_02_13_S1 02/13/2018 00:10:00 0.1225
2018_02_13_S1 02/13/2018 00:15:00 0.0347
2018_02_13_S1 02/13/2018 00:20:00 0.0097
2018_02_13_S1 02/13/2018 00:25:00 0.006
2018_02_13_S1 02/13/2018 00:30:00 0.0495
2018_02_13_S1 02/13/2018 00:35:00 0.0428
2018_02_13_S1 02/13/2018 00:40:00 0.0175
2018_02_13_S1 02/13/2018 00:45:00 0.0208
2018_02_13_S1 02/13/2018 00:50:00 0.0361
2018_02_13_S1 02/13/2018 00:55:00 0.0923
2018_02_13_S1 02/13/2018 01:00:00 0.0391
2018_02_13_S1 02/13/2018 01:05:00 0.0399
2018_02_13_S1 02/13/2018 01:10:00 0.0368
2018_02_13_S1 02/13/2018 01:15:00 0.066
2018_02_13_S1 02/13/2018 01:20:00 0.0659
2018_02_13_S1 02/13/2018 01:25:00 0.0569
2018_02_13_S1 02/13/2018 01:30:00 0.0217
2018_02_13_S1 02/13/2018 01:35:00 0.028
2018_02_13_S1 02/13/2018 01:40:00 0.0109
2018_02_13_S1 02/13/2018 01:45:00 0.0098
2018_02_13_S1 02/13/2018 01:50:00 0.0081
2018_02_13_S1 02/13/2018 01:55:00 0.0114
2018_02_13_S1 02/13/2018 02:00:00 0.0092
2018_02_13_S1 02/13/2018 02:05:00 0.0278
2018_02_13_S1 02/13/2018 02:10:00 0.0414
2018_02_13_S1 02/13/2018 02:15:00 0.013
2018_02_13_S1 02/13/2018 02:20:00 0.0612
2018_02_13_S1 02/13/2018 02:25:00 0.0565
2018_02_13_S1 02/13/2018 02:30:00 0.0098
2018_02_13_S1 02/13/2018 02:35:00 0.0401
2018_02_13_S1 02/13/2018 02:40:00 0.0595
2018_02_13_S1 02/13/2018 02:45:00 0.0796
2018_02_13_S1 02/13/2018 02:50:00 0.0734
2018_02_13_S1 02/13/2018 02:55:00 0.045
2018_02_13_S1 02/13/2018 03:00:00 0.0416
2018_02_13_S1 02/13/2018 03:05:00 0.0584
2018_02_13_S1 02/13/2018 03:10:00 0.0492
2018_02_13_S1 02/13/2018 03:15:00 0.0567
2018_02_13_S1 02/13/2018 03:20:00 0.1071
2018_02_13_S1 02/13/2018 03:25:00 0.0391
2018_02_13_S1 02/13/2018 03:30:00 0.0286
2018_02_13_S1 02/13/2018 03:35:00 0.1755
2018_02_13_S1 02/13/2018 03:40:00 0.1503
2018_02_13_S1 02/13/2018 03:45:00 0.2562
2018_02_13_S1 02/13/2018 03:50:00 0.3917
2018_02_13_S1 02/13/2018 03:55:00 0.2951
2018_02_13_S1 02/13/2018 04:00:00 0.1823
2018_02_13_S1 02/13/2018 04:05:00 0.1956
2018_02_13_S1 02/13/2018 04:10:00 0.1467
2018_02_13_S1 02/13/2018 04:15:00 1.0023
2018_02_13_S1 02/13/2018 04:20:00 0.2841
2018_02_13_S1 02/13/2018 04:25:00 0.2923
2018_02_13_S1 02/13/2018 04:30:00 0.3235
2018_02_13_S1 02/13/2018 04:35:00 0.6395
2018_02_13_S1 02/13/2018 04:40:00 1.0435
2018_02_13_S1 02/13/2018 04:45:00 0.8583
2018_02_13_S1 02/13/2018 04:50:00 0.2986
2018_02_13_S1 02/13/2018 04:55:00 0.674
2018_02_13_S1 02/13/2018 05:00:00 0.6753
2018_02_13_S1 02/13/2018 05:05:00 0.78
2018_02_13_S1 02/13/2018 05:10:00 0.9749
2018_02_13_S1 02/13/2018 05:15:00 0.6178
2018_02_13_S1 02/13/2018 05:20:00 0.543
2018_02_13_S1 02/13/2018 05:25:00 0.5354
2018_02_13_S1 02/13/2018 05:30:00 0.4108
2018_02_13_S1 02/13/2018 05:35:00 0.4372
2018_02_13_S1 02/13/2018 05:40:00 1.2804
2018_02_13_S1 02/13/2018 05:45:00 0.6158
2018_02_13_S1 02/13/2018 05:50:00 0.594
2018_02_13_S1 02/13/2018 05:55:00 0.3584
2018_02_13_S1 02/13/2018 06:00:00 0.1088
2018_02_13_S1 02/13/2018 06:05:00 0.2927
2018_02_13_S1 02/13/2018 06:10:00 0.4959
2018_02_13_S1 02/13/2018 06:15:00 0.8763
2018_02_13_S1 02/13/2018 06:20:00 0.9382
2018_02_13_S1 02/13/2018 06:25:00 0.5056
2018_02_13_S1 02/13/2018 06:30:00 0.3262
2018_02_13_S1 02/13/2018 06:35:00 0.1598
2018_02_13_S1 02/13/2018 06:40:00 0.3231
2018_02_13_S1 02/13/2018 06:45:00 0.1038
2018_02_13_S1 02/13/2018 06:50:00 0.2588
2018_02_13_S1 02/13/2018 06:55:00 0.4144
2018_02_13_S1 02/13/2018 07:00:00 3.3807
2018_02_13_S1 02/13/2018 07:05:00 0.605
2018_02_13_S1 02/13/2018 07:10:00 3.0719
2018_02_13_S1 02/13/2018 07:15:00 0.008
2018_02_13_S1 02/13/2018 07:20:00 0.0007
2018_02_13_S1 02/13/2018 07:25:00 0.0507
2018_02_13_S1 02/13/2018 07:30:00 0.0985
2018_02_13_S1 02/13/2018 07:35:00 0.2329
2018_02_13_S1 02/13/2018 07:40:00 0.0954
2018_02_13_S1 02/13/2018 07:45:00 0.0007
2018_02_13_S1 02/13/2018 07:50:00 0.0
2018_02_13_S1 02/13/2018 07:55:00 0.0
2018_02_13_S1 02/13/2018 08:00:00 0.0

2018_02_13_S2 02/12/2018 19:55:00 0.0624
2018_02_13_S2 02/12/2018 20:00:00 0.1066
2018_02_13_S2 02/12/2018 20:05:00 0.1237
2018_02_13_S2 02/12/2018 20:10:00 0.121
2018_02_13_S2 02/12/2018 20:15:00 0.1083
2018_02_13_S2 02/12/2018 20:20:00 0.1246
2018_02_13_S2 02/12/2018 20:25:00 0.1122
2018_02_13_S2 02/12/2018 20:30:00 0.214
2018_02_13_S2 02/12/2018 20:35:00 0.1055
2018_02_13_S2 02/12/2018 20:40:00 0.091
2018_02_13_S2 02/12/2018 20:45:00 0.0573
2018_02_13_S2 02/12/2018 20:50:00 0.0486
2018_02_13_S2 02/12/2018 20:55:00 0.0328
2018_02_13_S2 02/12/2018 21:00:00 0.0432
2018_02_13_S2 02/12/2018 21:05:00 0.0372
2018_02_13_S2 02/12/2018 21:10:00 0.0382
2018_02_13_S2 02/12/2018 21:15:00 0.0695
2018_02_13_S2 02/12/2018 21:20:00 0.0622
2018_02_13_S2 02/12/2018 21:25:00 0.0706
2018_02_13_S2 02/12/2018 21:30:00 0.0689
2018_02_13_S2 02/12/2018 21:35:00 0.0437
2018_02_13_S2 02/12/2018 21:40:00 0.0486
2018_02_13_S2 02/12/2018 21:45:00 0.0569
2018_02_13_S2 02/12/2018 21:50:00 0.0582
2018_02_13_S2 02/12/2018 21:55:00 0.0888
2018_02_13_S2 02/12/2018 22:00:00 0.0603
2018_02_13_S2 02/12/2018 22:05:00 0.0458
2018_02_13_S2 02/12/2018 22:10:00 0.0439
2018_02_13_S2 02/12/2018 22:15:00 0.046
2018_02_13_S2 02/12/2018 22:20:00 0.0411
2018_02_13_S2 02/12/2018 22:25:00 0.0426
2018_02_13_S2 02/12/2018 22:30:00 0.0411
2018_02_13_S2 02/12/2018 22:35:00 0.0721
2018_02_13_S2 02/12/2018 22:40:00 0.0513
2018_02_13_S2 02/12/2018 22:45:00 0.0689
2018_02_13_S2 02/12/2018 22:50:00 0.0506
2018_02_13_S2 02/12/2018 22:55:00 0.0828
2018_02_13_S2 02/12/2018 23:00:00 0.0775
2018_02_13_S2 02/12/2018 23:05:00 0.0685
2018_02_13_S2 02/12/2018 23:10:00 0.0683
2018_02_13_S2 02/12/2018 23:15:00 0.0964
2018_02_13_S2 02/12/2018 23:20:00 0.1042
2018_02_13_S2 02/12/2018 23:25:00 0.0898
2018_02_13_S2 02/12/2018 23:30:00 0.1023
2018_02_13_S2 02/12/2018 23:35:00 0.0856
2018_02_13_S2 02/12/2018 23:40:00 0.0869
2018_02_13_S2 02/12/2018 23:45:00 0.0797
2018_02_13_S2 02/12/2018 23:50:00 0.082
2018_02_13_S2 02/12/2018 23:55:00 0.0632
2018_02_13_S2 02/13/2018 00:00:00 0.0719
2018_02_13_S2 02/13/2018 00:05:00 0.07
2018_02_13_S2 02/13/2018 00:10:00 0.148
2018_02_13_S2 02/13/2018 00:15:00 0.0436
2018_02_13_S2 02/13/2018 00:20:00 0.0097
2018_02_13_S2 02/13/2018 00:25:00 0.0062
2018_02_13_S2 02/13/2018 00:30:00 0.0531
2018_02_13_S2 02/13/2018 00:35:00 0.042
2018_02_13_S2 02/13/2018 00:40:00 0.021
2018_02_13_S2 02/13/2018 00:45:00 0.0201
2018_02_13_S2 02/13/2018 00:50:00 0.0396
2018_02_13_S2 02/13/2018 00:55:00 0.0955
2018_02_13_S2 02/13/2018 01:00:00 0.0356
2018_02_13_S2 02/13/2018 01:05:00 0.0482
2018_02_13_S2 02/13/2018 01:10:00 0.0418
2018_02_13_S2 02/13/2018 01:15:00 0.0633
2018_02_13_S2 02/13/2018 01:20:00 0.0657
2018_02_13_S2 02/13/2018 01:25:00 0.0538
2018_02_13_S2 02/13/2018 01:30:00 0.0254
2018_02_13_S2 02/13/2018 01:35:00 0.0317
2018_02_13_S2 02/13/2018 01:40:00 0.009
2018_02_13_S2 02/13/2018 01:45:00 0.0098
2018_02_13_S2 02/13/2018 01:50:00 0.0086
2018_02_13_S2 02/13/2018 01:55:00 0.0097
2018_02_13_S2 02/13/2018 02:00:00 0.0089
2018_02_13_S2 02/13/2018 02:05:00 0.0276
2018_02_13_S2 02/13/2018 02:10:00 0.0356
2018_02_13_S2 02/13/2018 02:15:00 0.0135
2018_02_13_S2 02/13/2018 02:20:00 0.0578
2018_02_13_S2 02/13/2018 02:25:00 0.0489
2018_02_13_S2 02/13/2018 02:30:00 0.0087
2018_02_13_S2 02/13/2018 02:35:00 0.0326
2018_02_13_S2 02/13/2018 02:40:00 0.0661
2018_02_13_S2 02/13/2018 02:45:00 0.0653
2018_02_13_S2 02/13/2018 02:50:00 0.0845
2018_02_13_S2 02/13/2018 02:55:00 0.0454
2018_02_13_S2 02/13/2018 03:00:00 0.0347
2018_02_13_S2 02/13/2018 03:05:00 0.0558
2018_02_13_S2 02/13/2018 03:10:00 0.046
2018_02_13_S2 02/13/2018 03:15:00 0.0462
2018_02_13_S2 02/13/2018 03:20:00 0.1344
2018_02_13_S2 02/13/2018 03:25:00 0.0507
2018_02_13_S2 02/13/2018 03:30:00 0.0383
2018_02_13_S2 02/13/2018 03:35:00 0.1917
2018_02_13_S2 02/13/2018 03:40:00 0.1652
2018_02_13_S2 02/13/2018 03:45:00 0.2304
2018_02_13_S2 02/13/2018 03:50:00 0.3569
2018_02_13_S2 02/13/2018 03:55:00 0.2749
2018_02_13_S2 02/13/2018 04:00:00 0.1368
2018_02_13_S2 02/13/2018 04:05:00 0.2364
2018_02_13_S2 02/13/2018 04:10:00 0.1724
2018_02_13_S2 02/13/2018 04:15:00 0.9597
2018_02_13_S2 02/13/2018 04:20:00 0.2874
2018_02_13_S2 02/13/2018 04:25:00 0.2494
2018_02_13_S2 02/13/2018 04:30:00 0.2925
2018_02_13_S2 02/13/2018 04:35:00 0.5625
2018_02_13_S2 02/13/2018 04:40:00 0.8991
2018_02_13_S2 02/13/2018 04:45:00 0.9751
2018_02_13_S2 02/13/2018 04:50:00 0.3318
2018_02_13_S2 02/13/2018 04:55:00 0.7286
2018_02_13_S2 02/13/2018 05:00:00 0.5754
2018_02_13_S2 02/13/2018 05:05:00 0.9303
2018_02_13_S2 02/13/2018 05:10:00 0.8858
2018_02_13_S2 02/13/2018 05:15:00 0.3793
2018_02_13_S2 02/13/2018 05:20:00 0.4556
2018_02_13_S2 02/13/2018 05:25:00 0.4072
2018_02_13_S2 02/13/2018 05:30:00 0.3182
2018_02_13_S2 02/13/2018 05:35:00 0.487
2018_02_13_S2 02/13/2018 05:40:00 1.1739
2018_02_13_S2 02/13/2018 05:45:00 0.7518
2018_02_13_S2 02/13/2018 05:50:00 0.7169
2018_02_13_S2 02/13/2018 05:55:00 0.2608
2018_02_13_S2 02/13/2018 06:00:00 0.1168
2018_02_13_S2 02/13/2018 06:05:00 0.3692
2018_02_13_S2 02/13/2018 06:10:00 0.4771
2018_02_13_S2 02/13/2018 06:15:00 0.9041
2018_02_13_S2 02/13/2018 06:20:00 0.897
2018_02_13_S2 02/13/2018 06:25:00 0.5344
2018_02_13_S2 02/13/2018 06:30:00 0.322
2018_02_13_S2 02/13/2018 06:35:00 0.1502
2018_02_13_S2 02/13/2018 06:40:00 0.4537
2018_02_13_S2 02/13/2018 06:45:00 0.0929
2018_02_13_S2 02/13/2018 06:50:00 0.1916
2018_02_13_S2 02/13/2018 06:55:00 0.1455
2018_02_13_S2 02/13/2018 07:00:00 3.0598
2018_02_13_S2 02/13/2018 07:05:00 0.7629
2018_02_13_S2 02/13/2018 07:10:00 4.4085
2018_02_13_S2 02/13/2018 07:15:00 0.0103
2018_02_13_S2 02/13/2018 07:20:00 0.0
2018_02_13_S2 02/13/2018 07:25:00 0.0434
2018_02_13_S2 02/13/2018 07:30:00 0.177
2018_02_13_S2 02/13/2018 07:35:00 0.0715
2018_02_13_S2 02/13/2018 07:40:00 0.104
2018_02_13_S2 02/13/2018 07:45:00 0.0
2018_02_13_S2 02/13/2018 07:50:00 0.0
2018_02_13_S2 02/13/2018 07:55:00 0.0
2018_02_13_S2 02/13/2018 08:00:00 0.0

2018_02_13_S3 02/12/2018 19:55:00 0.0646
2018_02_13_S3 02/12/2018 20:00:00 0.1014
2018_02_13_S3 02/12/2018 20:05:00 0.105
2018_02_13_S3 02/12/2018 20:10:00 0.1187
2018_02_13_S3 02/12/2018 20:15:00 0.0811
2018_02_13_S3 02/12/2018 20:20:00 0.1299
2018_02_13_S3 02/12/2018 20:25:00 0.1316
2018_02_13_S3 02/12/2018 20:30:00 0.202
2018_02_13_S3 02/12/2018 20:35:00 0.0996
2018_02_13_S3 02/12/2018 20:40:00 0.0881
2018_02_13_S3 02/12/2018 20:45:00 0.0531
2018_02_13_S3 02/12/2018 20:50:00 0.0428
2018_02_13_S3 02/12/2018 20:55:00 0.0332
2018_02_13_S3 02/12/2018 21:00:00 0.0436
2018_02_13_S3 02/12/2018 21:05:00 0.0315
2018_02_13_S3 02/12/2018 21:10:00 0.0369
2018_02_13_S3 02/12/2018 21:15:00 0.0611
2018_02_13_S3 02/12/2018 21:20:00 0.0648
2018_02_13_S3 02/12/2018 21:25:00 0.0717
2018_02_13_S3 02/12/2018 21:30:00 0.0639
2018_02_13_S3 02/12/2018 21:35:00 0.0422
2018_02_13_S3 02/12/2018 21:40:00 0.0476
2018_02_13_S3 02/12/2018 21:45:00 0.0545
2018_02_13_S3 02/12/2018 21:50:00 0.0524
2018_02_13_S3 02/12/2018 21:55:00 0.0845
2018_02_13_S3 02/12/2018 22:00:00 0.0573
2018_02_13_S3 02/12/2018 22:05:00 0.046
2018_02_13_S3 02/12/2018 22:10:00 0.0488
2018_02_13_S3 02/12/2018 22:15:00 0.048
2018_02_13_S3 02/12/2018 22:20:00 0.0412
2018_02_13_S3 02/12/2018 22:25:00 0.0441
2018_02_13_S3 02/12/2018 22:30:00 0.0427
2018_02_13_S3 02/12/2018 22:35:00 0.0711
2018_02_13_S3 02/12/2018 22:40:00 0.054
2018_02_13_S3 02/12/2018 22:45:00 0.0651
2018_02_13_S3 02/12/2018 22:50:00 0.052
2018_02_13_S3 02/12/2018 22:55:00 0.0849
2018_02_13_S3 02/12/2018 23:00:00 0.0772
2018_02_13_S3 02/12/2018 23:05:00 0.0683
2018_02_13_S3 02/12/2018 23:10:00 0.074
2018_02_13_S3 02/12/2018 23:15:00 0.1029
2018_02_13_S3 02/12/2018 23:20:00 0.1096
2018_02_13_S3 02/12/2018 23:25:00 0.0866
2018_02_13_S3 02/12/2018 23:30:00 0.0984
2018_02_13_S3 02/12/2018 23:35:00 0.0881
2018_02_13_S3 02/12/2018 23:40:00 0.0909
2018_02_13_S3 02/12/2018 23:45:00 0.0802
2018_02_13_S3 02/12/2018 23:50:00 0.0884
2018_02_13_S3 02/12/2018 23:55:00 0.0663
2018_02_13_S3 02/13/2018 00:00:00 0.0711
2018_02_13_S3 02/13/2018 00:05:00 0.0697
2018_02_13_S3 02/13/2018 00:10:00 0.1549
2018_02_13_S3 02/13/2018 00:15:00 0.0477
2018_02_13_S3 02/13/2018 00:20:00 0.0093
2018_02_13_S3 02/13/2018 00:25:00 0.0078
2018_02_13_S3 02/13/2018 00:30:00 0.0577
2018_02_13_S3 02/13/2018 00:35:00 0.0423
2018_02_13_S3 02/13/2018 00:40:00 0.0227
2018_02_13_S3 02/13/2018 00:45:00 0.0207
2018_02_13_S3 02/13/2018 00:50:00 0.0406
2018_02_13_S3 02/13/2018 00:55:00 0.0843
2018_02_13_S3 02/13/2018 01:00:00 0.0365
2018_02_13_S3 02/13/2018 01:05:00 0.0554
2018_02_13_S3 02/13/2018 01:10:00 0.0487
2018_02_13_S3 02/13/2018 01:15:00 0.0588
2018_02_13_S3 02/13/2018 01:20:00 0.0666
2018_02_13_S3 02/13/2018 01:25:00 0.052
2018_02_13_S3 02/13/2018 01:30:00 0.0266
2018_02_13_S3 02/13/2018 01:35:00 0.0332
2018_02_13_S3 02/13/2018 01:40:00 0.0088
2018_02_13_S3 02/13/2018 01:45:00 0.0098
2018_02_13_S3 02/13/2018 01:50:00 0.0086
2018_02_13_S3 02/13/2018 01:55:00 0.0103
2018_02_13_S3 02/13/2018 02:00:00 0.0089
2018_02_13_S3 02/13/2018 02:05:00 0.0261
2018_02_13_S3 02/13/2018 02:10:00 0.0334
2018_02_13_S3 02/13/2018 02:15:00 0.0136
2018_02_13_S3 02/13/2018 02:20:00 0.0531
2018_02_13_S3 02/13/2018 02:25:00 0.0377
2018_02_13_S3 02/13/2018 02:30:00 0.0082
2018_02_13_S3 02/13/2018 02:35:00 0.0295
2018_02_13_S3 02/13/2018 02:40:00 0.0802
2018_02_13_S3 02/13/2018 02:45:00 0.0536
2018_02_13_S3 02/13/2018 02:50:00 0.0888
2018_02_13_S3 02/13/2018 02:55:00 0.046
2018_02_13_S3 02/13/2018 03:00:00 0.0324
2018_02_13_S3 02/13/2018 03:05:00 0.0576
2018_02_13_S3 02/13/2018 03:10:00 0.0471
2018_02_13_S3 02/13/2018 03:15:00 0.0408
2018_02_13_S3 02/13/2018 03:20:00 0.1417
2018_02_13_S3 02/13/2018 03:25:00 0.059
2018_02_13_S3 02/13/2018 03:30:00 0.052
2018_02_13_S3 02/13/2018 03:35:00 0.2059
2018_02_13_S3 02/13/2018 03:40:00 0.2073
2018_02_13_S3 02/13/2018 03:45:00 0.1993
2018_02_13_S3 02/13/2018 03:50:00 0.2837
2018_02_13_S3 02/13/2018 03:55:00 0.2501
2018_02_13_S3 02/13/2018 04:00:00 0.1261
2018_02_13_S3 02/13/2018 04:05:00 0.2649
2018_02_13_S3 02/13/2018 04:10:00 0.1853
2018_02_13_S3 02/13/2018 04:15:00 0.9321
2018_02_13_S3 02/13/2018 04:20:00 0.3519
2018_02_13_S3 02/13/2018 04:25:00 0.2721
2018_02_13_S3 02/13/2018 04:30:00 0.2997
2018_02_13_S3 02/13/2018 04:35:00 0.4566
2018_02_13_S3 02/13/2018 04:40:00 0.8435
2018_02_13_S3 02/13/2018 04:45:00 1.0633
2018_02_13_S3 02/13/2018 04:50:00 0.3692
2018_02_13_S3 02/13/2018 04:55:00 0.741
2018_02_13_S3 02/13/2018 05:00:00 0.5385
2018_02_13_S3 02/13/2018 05:05:00 1.1206
2018_02_13_S3 02/13/2018 05:10:00 0.7174
2018_02_13_S3 02/13/2018 05:15:00 0.2854
2018_02_13_S3 02/13/2018 05:20:00 0.321
2018_02_13_S3 02/13/2018 05:25:00 0.2777
2018_02_13_S3 02/13/2018 05:30:00 0.354
2018_02_13_S3 02/13/2018 05:35:00 0.47
2018_02_13_S3 02/13/2018 05:40:00 0.9864
2018_02_13_S3 02/13/2018 05:45:00 1.0647
2018_02_13_S3 02/13/2018 05:50:00 0.8762
2018_02_13_S3 02/13/2018 05:55:00 0.2449
2018_02_13_S3 02/13/2018 06:00:00 0.1286
2018_02_13_S3 02/13/2018 06:05:00 0.3777
2018_02_13_S3 02/13/2018 06:10:00 0.4288
2018_02_13_S3 02/13/2018 06:15:00 0.7845
2018_02_13_S3 02/13/2018 06:20:00 0.8937
2018_02_13_S3 02/13/2018 06:25:00 0.5355
2018_02_13_S3 02/13/2018 06:30:00 0.299
2018_02_13_S3 02/13/2018 06:35:00 0.1358
2018_02_13_S3 02/13/2018 06:40:00 0.5153
2018_02_13_S3 02/13/2018 06:45:00 0.0845
2018_02_13_S3 02/13/2018 06:50:00 0.112
2018_02_13_S3 02/13/2018 06:55:00 0.0712
2018_02_13_S3 02/13/2018 07:00:00 2.3389
2018_02_13_S3 02/13/2018 07:05:00 1.0626
2018_02_13_S3 02/13/2018 07:10:00 5.6093
2018_02_13_S3 02/13/2018 07:15:00 0.0112
2018_02_13_S3 02/13/2018 07:20:00 0.0
2018_02_13_S3 02/13/2018 07:25:00 0.0361
2018_02_13_S3 02/13/2018 07:30:00 0.2486
2018_02_13_S3 02/13/2018 07:35:00 0.0214
2018_02_13_S3 02/13/2018 07:40:00 0.0661
2018_02_13_S3 02/13/2018 07:45:00 0.0
2018_02_13_S3 02/13/2018 07:50:00 0.0
2018_02_13_S3 02/13/2018 07:55:00 0.0
2018_02_13_S3 02/13/2018 08:00:00 0.0

2018_02_13_S4 02/12/2018 19:55:00 0.0585
2018_02_13_S4 02/12/2018 20:00:00 0.1044
2018_02_13_S4 02/12/2018 20:05:00 0.0935
2018_02_13_S4 02/12/2018 20:10:00 0.1228
2018_02_13_S4 02/12/2018 20:15:00 0.0867
2018_02_13_S4 02/12/2018 20:20:00 0.1382
2018_02_13_S4 02/12/2018 20:25:00 0.1364
2018_02_13_S4 02/12/2018 20:30:00 0.2006
2018_02_13_S4 02/12/2018 20:35:00 0.1094
2018_02_13_S4 02/12/2018 20:40:00 0.0985
2018_02_13_S4 02/12/2018 20:45:00 0.0562
2018_02_13_S4 02/12/2018 20:50:00 0.0425
2018_02_13_S4 02/12/2018 20:55:00 0.0332
2018_02_13_S4 02/12/2018 21:00:00 0.0434
2018_02_13_S4 02/12/2018 21:05:00 0.0289
2018_02_13_S4 02/12/2018 21:10:00 0.0369
2018_02_13_S4 02/12/2018 21:15:00 0.0524
2018_02_13_S4 02/12/2018 21:20:00 0.059
2018_02_13_S4 02/12/2018 21:25:00 0.0692
2018_02_13_S4 02/12/2018 21:30:00 0.066
2018_02_13_S4 02/12/2018 21:35:00 0.0347
2018_02_13_S4 02/12/2018 21:40:00 0.0455
2018_02_13_S4 02/12/2018 21:45:00 0.0558
2018_02_13_S4 02/12/2018 21:50:00 0.0482
2018_02_13_S4 02/12/2018 21:55:00 0.0766
2018_02_13_S4 02/12/2018 22:00:00 0.0589
2018_02_13_S4 02/12/2018 22:05:00 0.0444
2018_02_13_S4 02/12/2018 22:10:00 0.0473
2018_02_13_S4 02/12/2018 22:15:00 0.0508
2018_02_13_S4 02/12/2018 22:20:00 0.037
2018_02_13_S4 02/12/2018 22:25:00 0.0418
2018_02_13_S4 02/12/2018 22:30:00 0.0403
2018_02_13_S4 02/12/2018 22:35:00 0.0704
2018_02_13_S4 02/12/2018 22:40:00 0.0575
2018_02_13_S4 02/12/2018 22:45:00 0.06
2018_02_13_S4 02/12/2018 22:50:00 0.0514
2018_02_13_S4 02/12/2018 22:55:00 0.0742
2018_02_13_S4 02/12/2018 23:00:00 0.0719
2018_02_13_S4 02/12/2018 23:05:00 0.0687
2018_02_13_S4 02/12/2018 23:10:00 0.0796
2018_02_13_S4 02/12/2018 23:15:00 0.0979
2018_02_13_S4 02/12/2018 23:20:00 0.1192
2018_02_13_S4 02/12/2018 23:25:00 0.0844
2018_02_13_S4 02/12/2018 23:30:00 0.0941
2018_02_13_S4 02/12/2018 23:35:00 0.0855
2018_02_13_S4 02/12/2018 23:40:00 0.0806
2018_02_13_S4 02/12/2018 23:45:00 0.0786
2018_02_13_S4 02/12/2018 23:50:00 0.0917
2018_02_13_S4 02/12/2018 23:55:00 0.0614
2018_02_13_S4 02/13/2018 00:00:00 0.07
2018_02_13_S4 02/13/2018 00:05:00 0.069
2018_02_13_S4 02/13/2018 00:10:00 0.1501
2018_02_13_S4 02/13/2018 00:15:00 0.0547
2018_02_13_S4 02/13/2018 00:20:00 0.0096
2018_02_13_S4 02/13/2018 00:25:00 0.0072
2018_02_13_S4 02/13/2018 00:30:00 0.0574
2018_02_13_S4 02/13/2018 00:35:00 0.0427
2018_02_13_S4 02/13/2018 00:40:00 0.0229
2018_02_13_S4 02/13/2018 00:45:00 0.0187
2018_02_13_S4 02/13/2018 00:50:00 0.0429
2018_02_13_S4 02/13/2018 00:55:00 0.08
2018_02_13_S4 02/13/2018 01:00:00 0.0361
2018_02_13_S4 02/13/2018 01:05:00 0.0598
2018_02_13_S4 02/13/2018 01:10:00 0.0541
2018_02_13_S4 02/13/2018 01:15:00 0.0569
2018_02_13_S4 02/13/2018 01:20:00 0.064
2018_02_13_S4 02/13/2018 01:25:00 0.0516
2018_02_13_S4 02/13/2018 01:30:00 0.0268
2018_02_13_S4 02/13/2018 01:35:00 0.0344
2018_02_13_S4 02/13/2018 01:40:00 0.0098
2018_02_13_S4 02/13/2018 01:45:00 0.01
2018_02_13_S4 02/13/2018 01:50:00 0.0084
2018_02_13_S4 02/13/2018 01:55:00 0.0125
2018_02_13_S4 02/13/2018 02:00:00 0.0084
2018_02_13_S4 02/13/2018 02:05:00 0.018
2018_02_13_S4 02/13/2018 02:10:00 0.0371
2018_02_13_S4 02/13/2018 02:15:00 0.01
2018_02_13_S4 02/13/2018 02:20:00 0.0462
2018_02_13_S4 02/13/2018 02:25:00 0.0308
2018_02_13_S4 02/13/2018 02:30:00 0.008
2018_02_13_S4 02/13/2018 02:35:00 0.0308
2018_02_13_S4 02/13/2018 02:40:00 0.088
2018_02_13_S4 02/13/2018 02:45:00 0.0423
2018_02_13_S4 02/13/2018 02:50:00 0.0671
2018_02_13_S4 02/13/2018 02:55:00 0.0493
2018_02_13_S4 02/13/2018 03:00:00 0.034
2018_02_13_S4 02/13/2018 03:05:00 0.0682
2018_02_13_S4 02/13/2018 03:10:00 0.0435
2018_02_13_S4 02/13/2018 03:15:00 0.0419
2018_02_13_S4 02/13/2018 03:20:00 0.1169
2018_02_13_S4 02/13/2018 03:25:00 0.0592
2018_02_13_S4 02/13/2018 03:30:00 0.0666
2018_02_13_S4 02/13/2018 03:35:00 0.2329
2018_02_13_S4 02/13/2018 03:40:00 0.2695
2018_02_13_S4 02/13/2018 03:45:00 0.1848
2018_02_13_S4 02/13/2018 03:50:00 0.2327
2018_02_13_S4 02/13/2018 03:55:00 0.254
2018_02_13_S4 02/13/2018 04:00:00 0.1409
2018_02_13_S4 02/13/2018 04:05:00 0.3148
2018_02_13_S4 02/13/2018 04:10:00 0.1829
2018_02_13_S4 02/13/2018 04:15:00 0.7313
2018_02_13_S4 02/13/2018 04:20:00 0.3762
2018_02_13_S4 02/13/2018 04:25:00 0.2496
2018_02_13_S4 02/13/2018 04:30:00 0.2756
2018_02_13_S4 02/13/2018 04:35:00 0.3927
2018_02_13_S4 02/13/2018 04:40:00 0.7524
2018_02_13_S4 02/13/2018 04:45:00 1.1565
2018_02_13_S4 02/13/2018 04:50:00 0.456
2018_02_13_S4 02/13/2018 04:55:00 0.8032
2018_02_13_S4 02/13/2018 05:00:00 0.6003
2018_02_13_S4 02/13/2018 05:05:00 1.3706
2018_02_13_S4 02/13/2018 05:10:00 0.7534
2018_02_13_S4 02/13/2018 05:15:00 0.2508
2018_02_13_S4 02/13/2018 05:20:00 0.2745
2018_02_13_S4 02/13/2018 05:25:00 0.255
2018_02_13_S4 02/13/2018 05:30:00 0.4027
2018_02_13_S4 02/13/2018 05:35:00 0.4325
2018_02_13_S4 02/13/2018 05:40:00 0.6081
2018_02_13_S4 02/13/2018 05:45:00 1.3892
2018_02_13_S4 02/13/2018 05:50:00 1.0766
2018_02_13_S4 02/13/2018 05:55:00 0.281
2018_02_13_S4 02/13/2018 06:00:00 0.1437
2018_02_13_S4 02/13/2018 06:05:00 0.3272
2018_02_13_S4 02/13/2018 06:10:00 0.4254
2018_02_13_S4 02/13/2018 06:15:00 0.7073
2018_02_13_S4 02/13/2018 06:20:00 0.9688
2018_02_13_S4 02/13/2018 06:25:00 0.4564
2018_02_13_S4 02/13/2018 06:30:00 0.278
2018_02_13_S4 02/13/2018 06:35:00 0.1284
2018_02_13_S4 02/13/2018 06:40:00 0.5315
2018_02_13_S4 02/13/2018 06:45:00 0.0679
2018_02_13_S4 02/13/2018 06:50:00 0.0555
2018_02_13_S4 02/13/2018 06:55:00 0.0346
2018_02_13_S4 02/13/2018 07:00:00 1.8793
2018_02_13_S4 02/13/2018 07:05:00 1.7198
2018_02_13_S4 02/13/2018 07:10:00 5.5697
2018_02_13_S4 02/13/2018 07:15:00 0.0024
2018_02_13_S4 02/13/2018 07:20:00 0.0
2018_02_13_S4 02/13/2018 07:25:00 0.0283
2018_02_13_S4 02/13/2018 07:30:00 0.1572
2018_02_13_S4 02/13/2018 07:35:00 0.0118
2018_02_13_S4 02/13/2018 07:40:00 0.078
2018_02_13_S4 02/13/2018 07:45:00 0.0
2018_02_13_S4 02/13/2018 07:50:00 0.0
2018_02_13_S4 02/13/2018 07:55:00 0.0
2018_02_13_S4 02/13/2018 08:00:00 0.0

2018_02_13_S5 02/12/2018 19:55:00 0.0625
2018_02_13_S5 02/12/2018 20:00:00 0.1015
2018_02_13_S5 02/12/2018 20:05:00 0.0834
2018_02_13_S5 02/12/2018 20:10:00 0.1152
2018_02_13_S5 02/12/2018 20:15:00 0.0823
2018_02_13_S5 02/12/2018 20:20:00 0.1348
2018_02_13_S5 02/12/2018 20:25:00 0.1308
2018_02_13_S5 02/12/2018 20:30:00 0.211
2018_02_13_S5 02/12/2018 20:35:00 0.1113
2018_02_13_S5 02/12/2018 20:40:00 0.102
2018_02_13_S5 02/12/2018 20:45:00 0.0578
2018_02_13_S5 02/12/2018 20:50:00 0.0443
2018_02_13_S5 02/12/2018 20:55:00 0.0321
2018_02_13_S5 02/12/2018 21:00:00 0.0435
2018_02_13_S5 02/12/2018 21:05:00 0.0288
2018_02_13_S5 02/12/2018 21:10:00 0.036
2018_02_13_S5 02/12/2018 21:15:00 0.0504
2018_02_13_S5 02/12/2018 21:20:00 0.0576
2018_02_13_S5 02/12/2018 21:25:00 0.0729
2018_02_13_S5 02/12/2018 21:30:00 0.0651
2018_02_13_S5 02/12/2018 21:35:00 0.0358
2018_02_13_S5 02/12/2018 21:40:00 0.042
2018_02_13_S5 02/12/2018 21:45:00 0.0565
2018_02_13_S5 02/12/2018 21:50:00 0.0494
2018_02_13_S5 02/12/2018 21:55:00 0.0782
2018_02_13_S5 02/12/2018 22:00:00 0.0596
2018_02_13_S5 02/12/2018 22:05:00 0.0424
2018_02_13_S5 02/12/2018 22:10:00 0.0458
2018_02_13_S5 02/12/2018 22:15:00 0.0503
2018_02_13_S5 02/12/2018 22:20:00 0.037
2018_02_13_S5 02/12/2018 22:25:00 0.0429
2018_02_13_S5 02/12/2018 22:30:00 0.0421
2018_02_13_S5 02/12/2018 22:35:00 0.0688
2018_02_13_S5 02/12/2018 22:40:00 0.0567
2018_02_13_S5 02/12/2018 22:45:00 0.0571
2018_02_13_S5 02/12/2018 22:50:00 0.0495
2018_02_13_S5 02/12/2018 22:55:00 0.0729
2018_02_13_S5 02/12/2018 23:00:00 0.0703
2018_02_13_S5 02/12/2018 23:05:00 0.0719
2018_02_13_S5 02/12/2018 23:10:00 0.0765
2018_02_13_S5 02/12/2018 23:15:00 0.0988
2018_02_13_S5 02/12/2018 23:20:00 0.1198
2018_02_13_S5 02/12/2018 23:25:00 0.0857
2018_02_13_S5 02/12/2018 23:30:00 0.0961
2018_02_13_S5 02/12/2018 23:35:00 0.0882
2018_02_13_S5 02/12/2018 23:40:00 0.0761
2018_02_13_S5 02/12/2018 23:45:00 0.0866
2018_02_13_S5 02/12/2018 23:50:00 0.0913
2018_02_13_S5 02/12/2018 23:55:00 0.0646
2018_02_13_S5 02/13/2018 00:00:00 0.0636
2018_02_13_S5 02/13/2018 00:05:00 0.0698
2018_02_13_S5 02/13/2018 00:10:00 0.1548
2018_02_13_S5 02/13/2018 00:15:00 0.0562
2018_02_13_S5 02/13/2018 00:20:00 0.0094
2018_02_13_S5 02/13/2018 00:25:00 0.007
2018_02_13_S5 02/13/2018 00:30:00 0.0566
2018_02_13_S5 02/13/2018 00:35:00 0.0412
2018_02_13_S5 02/13/2018 00:40:00 0.0237
2018_02_13_S5 02/13/2018 00:45:00 0.0194
2018_02_13_S5 02/13/2018 00:50:00 0.0405
2018_02_13_S5 02/13/2018 00:55:00 0.0789
2018_02_13_S5 02/13/2018 01:00:00 0.0343
2018_02_13_S5 02/13/2018 01:05:00 0.0551
2018_02_13_S5 02/13/2018 01:10:00 0.0521
2018_02_13_S5 02/13/2018 01:15:00 0.0543
2018_02_13_S5 02/13/2018 01:20:00 0.0636
2018_02_13_S5 02/13/2018 01:25:00 0.0478
2018_02_13_S5 02/13/2018 01:30:00 0.026
2018_02_13_S5 02/13/2018 01:35:00 0.0368
2018_02_13_S5 02/13/2018 01:40:00 0.0098
2018_02_13_S5 02/13/2018 01:45:00 0.0103
2018_02_13_S5 02/13/2018 01:50:00 0.008
2018_02_13_S5 02/13/2018 01:55:00 0.0125
2018_02_13_S5 02/13/2018 02:00:00 0.0092
2018_02_13_S5 02/13/2018 02:05:00 0.0116
2018_02_13_S5 02/13/2018 02:10:00 0.0356
2018_02_13_S5 02/13/2018 02:15:00 0.0089
2018_02_13_S5 02/13/2018 02:20:00 0.0444
2018_02_13_S5 02/13/2018 02:25:00 0.0299
2018_02_13_S5 02/13/2018 02:30:00 0.008
2018_02_13_S5 02/13/2018 02:35:00 0.03
2018_02_13_S5 02/13/2018 02:40:00 0.0903
2018_02_13_S5 02/13/2018 02:45:00 0.0409
2018_02_13_S5 02/13/2018 02:50:00 0.0614
2018_02_13_S5 02/13/2018 02:55:00 0.0558
2018_02_13_S5 02/13/2018 03:00:00 0.0381
2018_02_13_S5 02/13/2018 03:05:00 0.0702
2018_02_13_S5 02/13/2018 03:10:00 0.0451
2018_02_13_S5 02/13/2018 03:15:00 0.0407
2018_02_13_S5 02/13/2018 03:20:00 0.1138
2018_02_13_S5 02/13/2018 03:25:00 0.0601
2018_02_13_S5 02/13/2018 03:30:00 0.0687
2018_02_13_S5 02/13/2018 03:35:00 0.2326
2018_02_13_S5 02/13/2018 03:40:00 0.2567
2018_02_13_S5 02/13/2018 03:45:00 0.1995
2018_02_13_S5 02/13/2018 03:50:00 0.2434
2018_02_13_S5 02/13/2018 03:55:00 0.2597
2018_02_13_S5 02/13/2018 04:00:00 0.1546
2018_02_13_S5 02/13/2018 04:05:00 0.3261
2018_02_13_S5 02/13/2018 04:10:00 0.1982
2018_02_13_S5 02/13/2018 04:15:00 0.639
2018_02_13_S5 02/13/2018 04:20:00 0.3718
2018_02_13_S5 02/13/2018 04:25:00 0.2247
2018_02_13_S5 02/13/2018 04:30:00 0.2236
2018_02_13_S5 02/13/2018 04:35:00 0.3752
2018_02_13_S5 02/13/2018 04:40:00 0.7359
2018_02_13_S5 02/13/2018 04:45:00 1.2421
2018_02_13_S5 02/13/2018 04:50:00 0.4344
2018_02_13_S5 02/13/2018 04:55:00 0.7641
2018_02_13_S5 02/13/2018 05:00:00 0.6082
2018_02_13_S5 02/13/2018 05:05:00 1.3845
2018_02_13_S5 02/13/2018 05:10:00 0.8286
2018_02_13_S5 02/13/2018 05:15:00 0.2461
2018_02_13_S5 02/13/2018 05:20:00 0.2843
2018_02_13_S5 02/13/2018 05:25:00 0.2355
2018_02_13_S5 02/13/2018 05:30:00 0.4481
2018_02_13_S5 02/13/2018 05:35:00 0.3744
2018_02_13_S5 02/13/2018 05:40:00 0.4626
2018_02_13_S5 02/13/2018 05:45:00 1.382
2018_02_13_S5 02/13/2018 05:50:00 1.0917
2018_02_13_S5 02/13/2018 05:55:00 0.2928
2018_02_13_S5 02/13/2018 06:00:00 0.144
2018_02_13_S5 02/13/2018 06:05:00 0.2935
2018_02_13_S5 02/13/2018 06:10:00 0.4284
2018_02_13_S5 02/13/2018 06:15:00 0.6441
2018_02_13_S5 02/13/2018 06:20:00 0.9406
2018_02_13_S5 02/13/2018 06:25:00 0.4963
2018_02_13_S5 02/13/2018 06:30:00 0.2769
2018_02_13_S5 02/13/2018 06:35:00 0.1301
2018_02_13_S5 02/13/2018 06:40:00 0.5639
2018_02_13_S5 02/13/2018 06:45:00 0.0659
2018_02_13_S5 02/13/2018 06:50:00 0.037
2018_02_13_S5 02/13/2018 06:55:00 0.0202
2018_02_13_S5 02/13/2018 07:00:00 1.4563
2018_02_13_S5 02/13/2018 07:05:00 1.8028
2018_02_13_S5 02/13/2018 07:10:00 4.4755
2018_02_13_S5 02/13/2018 07:15:00 0.0002
2018_02_13_S5 02/13/2018 07:20:00 0.0
2018_02_13_S5 02/13/2018 07:25:00 0.0252
2018_02_13_S5 02/13/2018 07:30:00 0.0957
2018_02_13_S5 02/13/2018 07:35:00 0.0088
2018_02_13_S5 02/13/2018 07:40:00 0.0866
2018_02_13_S5 02/13/2018 07:45:00 0.0
2018_02_13_S5 02/13/2018 07:50:00 0.0
2018_02_13_S5 02/13/2018 07:55:00 0.0
2018_02_13_S5 02/13/2018 08:00:00 0.0

2018_02_13_S6 02/12/2018 19:55:00 0.0539
2018_02_13_S6 02/12/2018 20:00:00 0.1026
2018_02_13_S6 02/12/2018 20:05:00 0.0973
2018_02_13_S6 02/12/2018 20:10:00 0.1097
2018_02_13_S6 02/12/2018 20:15:00 0.07
2018_02_13_S6 02/12/2018 20:20:00 0.115
2018_02_13_S6 02/12/2018 20:25:00 0.1396
2018_02_13_S6 02/12/2018 20:30:00 0.1919
2018_02_13_S6 02/12/2018 20:35:00 0.1041
2018_02_13_S6 02/12/2018 20:40:00 0.0961
2018_02_13_S6 02/12/2018 20:45:00 0.0442
2018_02_13_S6 02/12/2018 20:50:00 0.0368
2018_02_13_S6 02/12/2018 20:55:00 0.0308
2018_02_13_S6 02/12/2018 21:00:00 0.0495
2018_02_13_S6 02/12/2018 21:05:00 0.0324
2018_02_13_S6 02/12/2018 21:10:00 0.0381
2018_02_13_S6 02/12/2018 21:15:00 0.054
2018_02_13_S6 02/12/2018 21:20:00 0.064
2018_02_13_S6 02/12/2018 21:25:00 0.0688
2018_02_13_S6 02/12/2018 21:30:00 0.0656
2018_02_13_S6 02/12/2018 21:35:00 0.0385
2018_02_13_S6 02/12/2018 21:40:00 0.0495
2018_02_13_S6 02/12/2018 21:45:00 0.0594
2018_02_13_S6 02/12/2018 21:50:00 0.0479
2018_02_13_S6 02/12/2018 21:55:00 0.0765
2018_02_13_S6 02/12/2018 22:00:00 0.0531
2018_02_13_S6 02/12/2018 22:05:00 0.0469
2018_02_13_S6 02/12/2018 22:10:00 0.0509
2018_02_13_S6 02/12/2018 22:15:00 0.0551
2018_02_13_S6 02/12/2018 22:20:00 0.0347
2018_02_13_S6 02/12/2018 22:25:00 0.0411
2018_02_13_S6 02/12/2018 22:30:00 0.0365
2018_02_13_S6 02/12/2018 22:35:00 0.0671
2018_02_13_S6 02/12/2018 22:40:00 0.0504
2018_02_13_S6 02/12/2018 22:45:00 0.0597
2018_02_13_S6 02/12/2018 22:50:00 0.0525
2018_02_13_S6 02/12/2018 22:55:00 0.0845
2018_02_13_S6 02/12/2018 23:00:00 0.0711
2018_02_13_S6 02/12/2018 23:05:00 0.0696
2018_02_13_S6 02/12/2018 23:10:00 0.0751
2018_02_13_S6 02/12/2018 23:15:00 0.1009
2018_02_13_S6 02/12/2018 23:20:00 0.1086
2018_02_13_S6 02/12/2018 23:25:00 0.0966
2018_02_13_S6 02/12/2018 23:30:00 0.1
2018_02_13_S6 02/12/2018 23:35:00 0.0825
2018_02_13_S6 02/12/2018 23:40:00 0.0779
2018_02_13_S6 02/12/2018 23:45:00 0.0832
2018_02_13_S6 02/12/2018 23:50:00 0.0865
2018_02_13_S6 02/12/2018 23:55:00 0.0579
2018_02_13_S6 02/13/2018 00:00:00 0.0751
2018_02_13_S6 02/13/2018 00:05:00 0.0703
2018_02_13_S6 02/13/2018 00:10:00 0.1564
2018_02_13_S6 02/13/2018 00:15:00 0.0508
2018_02_13_S6 02/13/2018 00:20:00 0.009
2018_02_13_S6 02/13/2018 00:25:00 0.009
2018_02_13_S6 02/13/2018 00:30:00 0.0585
2018_02_13_S6 02/13/2018 00:35:00 0.041
2018_02_13_S6 02/13/2018 00:40:00 0.0237
2018_02_13_S6 02/13/2018 00:45:00 0.0201
2018_02_13_S6 02/13/2018 00:50:00 0.0423
2018_02_13_S6 02/13/2018 00:55:00 0.0745
2018_02_13_S6 02/13/2018 01:00:00 0.0361
2018_02_13_S6 02/13/2018 01:05:00 0.0638
2018_02_13_S6 02/13/2018 01:10:00 0.0506
2018_02_13_S6 02/13/2018 01:15:00 0.0529
2018_02_13_S6 02/13/2018 01:20:00 0.0683
2018_02_13_S6 02/13/2018 01:25:00 0.0477
2018_02_13_S6 02/13/2018 01:30:00 0.0329
2018_02_13_S6 02/13/2018 01:35:00 0.0315
2018_02_13_S6 02/13/2018 01:40:00 0.0093
2018_02_13_S6 02/13/2018 01:45:00 0.0089
2018_02_13_S6 02/13/2018 01:50:00 0.0086
2018_02_13_S6 02/13/2018 01:55:00 0.0144
2018_02_13_S6 02/13/2018 02:00:00 0.0091
2018_02_13_S6 02/13/2018 02:05:00 0.0315
2018_02_13_S6 02/13/2018 02:10:00 0.0309
2018_02_13_S6 02/13/2018 02:15:00 0.0137
2018_02_13_S6 02/13/2018 02:20:00 0.0398
2018_02_13_S6 02/13/2018 02:25:00 0.0268
2018_02_13_S6 02/13/2018 02:30:00 0.0073
2018_02_13_S6 02/13/2018 02:35:00 0.0252
2018_02_13_S6 02/13/2018 02:40:00 0.0919
2018_02_13_S6 02/13/2018 02:45:00 0.0488
2018_02_13_S6 02/13/2018 02:50:00 0.0784
2018_02_13_S6 02/13/2018 02:55:00 0.0547
2018_02_13_S6 02/13/2018 03:00:00 0.0393
2018_02_13_S6 02/13/2018 03:05:00 0.0643
2018_02_13_S6 02/13/2018 03:10:00 0.0431
2018_02_13_S6 02/13/2018 03:15:00 0.0391
2018_02_13_S6 02/13/2018 03:20:00 0.1271
2018_02_13_S6 02/13/2018 03:25:00 0.0667
2018_02_13_S6 02/13/2018 03:30:00 0.064
2018_02_13_S6 02/13/2018 03:35:00 0.251
2018_02_13_S6 02/13/2018 03:40:00 0.2824
2018_02_13_S6 02/13/2018 03:45:00 0.1941
2018_02_13_S6 02/13/2018 03:50:00 0.2477
2018_02_13_S6 02/13/2018 03:55:00 0.2601
2018_02_13_S6 02/13/2018 04:00:00 0.1085
2018_02_13_S6 02/13/2018 04:05:00 0.2961
2018_02_13_S6 02/13/2018 04:10:00 0.1272
2018_02_13_S6 02/13/2018 04:15:00 0.5522
2018_02_13_S6 02/13/2018 04:20:00 0.3405
2018_02_13_S6 02/13/2018 04:25:00 0.3946
2018_02_13_S6 02/13/2018 04:30:00 0.5457
2018_02_13_S6 02/13/2018 04:35:00 0.4088
2018_02_13_S6 02/13/2018 04:40:00 0.8014
2018_02_13_S6 02/13/2018 04:45:00 1.0892
2018_02_13_S6 02/13/2018 04:50:00 0.7482
2018_02_13_S6 02/13/2018 04:55:00 0.6222
2018_02_13_S6 02/13/2018 05:00:00 0.5645
2018_02_13_S6 02/13/2018 05:05:00 1.3457
2018_02_13_S6 02/13/2018 05:10:00 0.4589
2018_02_13_S6 02/13/2018 05:15:00 0.2592
2018_02_13_S6 02/13/2018 05:20:00 0.2583
2018_02_13_S6 02/13/2018 05:25:00 0.2964
2018_02_13_S6 02/13/2018 05:30:00 0.472
2018_02_13_S6 02/13/2018 05:35:00 0.447
2018_02_13_S6 02/13/2018 05:40:00 0.7474
2018_02_13_S6 02/13/2018 05:45:00 1.2044
2018_02_13_S6 02/13/2018 05:50:00 0.9778
2018_02_13_S6 02/13/2018 05:55:00 0.2526
2018_02_13_S6 02/13/2018 06:00:00 0.1378
2018_02_13_S6 02/13/2018 06:05:00 0.2989
2018_02_13_S6 02/13/2018 06:10:00 0.4193
2018_02_13_S6 02/13/2018 06:15:00 0.6771
2018_02_13_S6 02/13/2018 06:20:00 0.8248
2018_02_13_S6 02/13/2018 06:25:00 0.4114
2018_02_13_S6 02/13/2018 06:30:00 0.2873
2018_02_13_S6 02/13/2018 06:35:00 0.1451
2018_02_13_S6 02/13/2018 06:40:00 0.3358
2018_02_13_S6 02/13/2018 06:45:00 0.0882
2018_02_13_S6 02/13/2018 06:50:00 0.0743
2018_02_13_S6 02/13/2018 06:55:00 0.0789
2018_02_13_S6 02/13/2018 07:00:00 1.318
2018_02_13_S6 02/13/2018 07:05:00 0.9431
2018_02_13_S6 02/13/2018 07:10:00 4.2806
2018_02_13_S6 02/13/2018 07:15:00 0.0065
2018_02_13_S6 02/13/2018 07:20:00 0.0
2018_02_13_S6 02/13/2018 07:25:00 0.0218
2018_02_13_S6 02/13/2018 07:30:00 0.2828
2018_02_13_S6 02/13/2018 07:35:00 0.002
2018_02_13_S6 02/13/2018 07:40:00 0.0374
2018_02_13_S6 02/13/2018 07:45:00 0.0
2018_02_13_S6 02/13/2018 07:50:00 0.0
2018_02_13_S6 02/13/2018 07:55:00 0.0
2018_02_13_S6 02/13/2018 08:00:00 0.0

2018_02_13_S7 02/12/2018 19:55:00 0.0612
2018_02_13_S7 02/12/2018 20:00:00 0.0923
2018_02_13_S7 02/12/2018 20:05:00 0.0807
2018_02_13_S7 02/12/2018 20:10:00 0.1115
2018_02_13_S7 02/12/2018 20:15:00 0.0809
2018_02_13_S7 02/12/2018 20:20:00 0.1053
2018_02_13_S7 02/12/2018 20:25:00 0.1433
2018_02_13_S7 02/12/2018 20:30:00 0.1875
2018_02_13_S7 02/12/2018 20:35:00 0.098
2018_02_13_S7 02/12/2018 20:40:00 0.0966
2018_02_13_S7 02/12/2018 20:45:00 0.0462
2018_02_13_S7 02/12/2018 20:50:00 0.035
2018_02_13_S7 02/12/2018 20:55:00 0.0325
2018_02_13_S7 02/12/2018 21:00:00 0.0532
2018_02_13_S7 02/12/2018 21:05:00 0.0308
2018_02_13_S7 02/12/2018 21:10:00 0.0326
2018_02_13_S7 02/12/2018 21:15:00 0.0524
2018_02_13_S7 02/12/2018 21:20:00 0.0579
2018_02_13_S7 02/12/2018 21:25:00 0.0722
2018_02_13_S7 02/12/2018 21:30:00 0.0638
2018_02_13_S7 02/12/2018 21:35:00 0.0373
2018_02_13_S7 02/12/2018 21:40:00 0.0449
2018_02_13_S7 02/12/2018 21:45:00 0.0588
2018_02_13_S7 02/12/2018 21:50:00 0.0461
2018_02_13_S7 02/12/2018 21:55:00 0.0718
2018_02_13_S7 02/12/2018 22:00:00 0.054
2018_02_13_S7 02/12/2018 22:05:00 0.0425
2018_02_13_S7 02/12/2018 22:10:00 0.0518
2018_02_13_S7 02/12/2018 22:15:00 0.053
2018_02_13_S7 02/12/2018 22:20:00 0.0363
2018_02_13_S7 02/12/2018 22:25:00 0.0412
2018_02_13_S7 02/12/2018 22:30:00 0.0386
2018_02_13_S7 02/12/2018 22:35:00 0.0626
2018_02_13_S7 02/12/2018 22:40:00 0.0496
2018_02_13_S7 02/12/2018 22:45:00 0.0632
2018_02_13_S7 02/12/2018 22:50:00 0.0484
2018_02_13_S7 02/12/2018 22:55:00 0.0824
2018_02_13_S7 02/12/2018 23:00:00 0.0707
2018_02_13_S7 02/12/2018 23:05:00 0.0742
2018_02_13_S7 02/12/2018 23:10:00 0.0736
2018_02_13_S7 02/12/2018 23:15:00 0.1064
2018_02_13_S7 02/12/2018 23:20:00 0.1191
2018_02_13_S7 02/12/2018 23:25:00 0.0966
2018_02_13_S7 02/12/2018 23:30:00 0.1079
2018_02_13_S7 02/12/2018 23:35:00 0.0809
2018_02_13_S7 02/12/2018 23:40:00 0.0697
2018_02_13_S7 02/12/2018 23:45:00 0.089
2018_02_13_S7 02/12/2018 23:50:00 0.0821
2018_02_13_S7 02/12/2018 23:55:00 0.0634
2018_02_13_S7 02/13/2018 00:00:00 0.0746
2018_02_13_S7 02/13/2018 00:05:00 0.0698
2018_02_13_S7 02/13/2018 00:10:00 0.1653
2018_02_13_S7 02/13/2018 00:15:00 0.0486
2018_02_13_S7 02/13/2018 00:20:00 0.009
2018_02_13_S7 02/13/2018 00:25:00 0.0103
2018_02_13_S7 02/13/2018 00:30:00 0.0583
2018_02_13_S7 02/13/2018 00:35:00 0.0394
2018_02_13_S7 02/13/2018 00:40:00 0.0228
2018_02_13_S7 02/13/2018 00:45:00 0.0209
2018_02_13_S7 02/13/2018 00:50:00 0.0371
2018_02_13_S7 02/13/2018 00:55:00 0.0736
2018_02_13_S7 02/13/2018 01:00:00 0.0353
2018_02_13_S7 02/13/2018 01:05:00 0.0515
2018_02_13_S7 02/13/2018 01:10:00 0.0445
2018_02_13_S7 02/13/2018 01:15:00 0.0495
2018_02_13_S7 02/13/2018 01:20:00 0.0713
2018_02_13_S7 02/13/2018 01:25:00 0.0428
2018_02_13_S7 02/13/2018 01:30:00 0.0321
2018_02_13_S7 02/13/2018 01:35:00 0.0344
2018_02_13_S7 02/13/2018 01:40:00 0.0093
2018_02_13_S7 02/13/2018 01:45:00 0.0095
2018_02_13_S7 02/13/2018 01:50:00 0.0076
2018_02_13_S7 02/13/2018 01:55:00 0.0197
2018_02_13_S7 02/13/2018 02:00:00 0.0125
2018_02_13_S7 02/13/2018 02:05:00 0.0269
2018_02_13_S7 02/13/2018 02:10:00 0.0267
2018_02_13_S7 02/13/2018 02:15:00 0.0117
2018_02_13_S7 02/13/2018 02:20:00 0.0322
2018_02_13_S7 02/13/2018 02:25:00 0.0201
2018_02_13_S7 02/13/2018 02:30:00 0.004
2018_02_13_S7 02/13/2018 02:35:00 0.0217
2018_02_13_S7 02/13/2018 02:40:00 0.0924
2018_02_13_S7 02/13/2018 02:45:00 0.0445
2018_02_13_S7 02/13/2018 02:50:00 0.0544
2018_02_13_S7 02/13/2018 02:55:00 0.0691
2018_02_13_S7 02/13/2018 03:00:00 0.0518
2018_02_13_S7 02/13/2018 03:05:00 0.0729
2018_02_13_S7 02/13/2018 03:10:00 0.0466
2018_02_13_S7 02/13/2018 03:15:00 0.0307
2018_02_13_S7 02/13/2018 03:20:00 0.1107
2018_02_13_S7 02/13/2018 03:25:00 0.0724
2018_02_13_S7 02/13/2018 03:30:00 0.0741
2018_02_13_S7 02/13/2018 03:35:00 0.2659
2018_02_13_S7 02/13/2018 03:40:00 0.3125
2018_02_13_S7 02/13/2018 03:45:00 0.2607
2018_02_13_S7 02/13/2018 03:50:00 0.2787
2018_02_13_S7 02/13/2018 03:55:00 0.3322
2018_02_13_S7 02/13/2018 04:00:00 0.1115
2018_02_13_S7 02/13/2018 04:05:00 0.3376
2018_02_13_S7 02/13/2018 04:10:00 0.1327
2018_02_13_S7 02/13/2018 04:15:00 0.3211
2018_02_13_S7 02/13/2018 04:20:00 0.31
2018_02_13_S7 02/13/2018 04:25:00 0.4834
2018_02_13_S7 02/13/2018 04:30:00 0.4966
2018_02_13_S7 02/13/2018 04:35:00 0.3516
2018_02_13_S7 02/13/2018 04:40:00 0.7766
2018_02_13_S7 02/13/2018 04:45:00 0.9855
2018_02_13_S7 02/13/2018 04:50:00 0.6501
2018_02_13_S7 02/13/2018 04:55:00 0.5755
2018_02_13_S7 02/13/2018 05:00:00 0.8328
2018_02_13_S7 02/13/2018 05:05:00 1.5391
2018_02_13_S7 02/13/2018 05:10:00 0.5628
2018_02_13_S7 02/13/2018 05:15:00 0.2547
2018_02_13_S7 02/13/2018 05:20:00 0.2409
2018_02_13_S7 02/13/2018 05:25:00 0.3573
2018_02_13_S7 02/13/2018 05:30:00 0.6979
2018_02_13_S7 02/13/2018 05:35:00 0.345
2018_02_13_S7 02/13/2018 05:40:00 0.4478
2018_02_13_S7 02/13/2018 05:45:00 0.9674
2018_02_13_S7 02/13/2018 05:50:00 0.6811
2018_02_13_S7 02/13/2018 05:55:00 0.2265
2018_02_13_S7 02/13/2018 06:00:00 0.1582
2018_02_13_S7 02/13/2018 06:05:00 0.2642
2018_02_13_S7 02/13/2018 06:10:00 0.4761
2018_02_13_S7 02/13/2018 06:15:00 0.5663
2018_02_13_S7 02/13/2018 06:20:00 0.8647
2018_02_13_S7 02/13/2018 06:25:00 0.4443
2018_02_13_S7 02/13/2018 06:30:00 0.2438
2018_02_13_S7 02/13/2018 06:35:00 0.147
2018_02_13_S7 02/13/2018 06:40:00 0.3453
2018_02_13_S7 02/13/2018 06:45:00 0.0799
2018_02_13_S7 02/13/2018 06:50:00 0.0268
2018_02_13_S7 02/13/2018 06:55:00 0.0403
2018_02_13_S7 02/13/2018 07:00:00 0.6761
2018_02_13_S7 02/13/2018 07:05:00 1.3819
2018_02_13_S7 02/13/2018 07:10:00 2.3557
2018_02_13_S7 02/13/2018 07:15:00 0.0062
2018_02_13_S7 02/13/2018 07:20:00 0.0
2018_02_13_S7 02/13/2018 07:25:00 0.0119
2018_02_13_S7 02/13/2018 07:30:00 0.126
2018_02_13_S7 02/13/2018 07:35:00 0.0
2018_02_13_S7 02/13/2018 07:40:00 0.0353
2018_02_13_S7 02/13/2018 07:45:00 0.0
2018_02_13_S7 02/13/2018 07:50:00 0.0
2018_02_13_S7 02/13/2018 07:55:00 0.0
2018_02_13_S7 02/13/2018 08:00:00 0.0

2018_02_13_S8 02/12/2018 19:55:00 0.0608
2018_02_13_S8 02/12/2018 20:00:00 0.0732
2018_02_13_S8 02/12/2018 20:05:00 0.075
2018_02_13_S8 02/12/2018 20:10:00 0.1036
2018_02_13_S8 02/12/2018 20:15:00 0.0857
2018_02_13_S8 02/12/2018 20:20:00 0.0999
2018_02_13_S8 02/12/2018 20:25:00 0.1516
2018_02_13_S8 02/12/2018 20:30:00 0.1643
2018_02_13_S8 02/12/2018 20:35:00 0.0911
2018_02_13_S8 02/12/2018 20:40:00 0.0988
2018_02_13_S8 02/12/2018 20:45:00 0.0521
2018_02_13_S8 02/12/2018 20:50:00 0.0351
2018_02_13_S8 02/12/2018 20:55:00 0.035
2018_02_13_S8 02/12/2018 21:00:00 0.0557
2018_02_13_S8 02/12/2018 21:05:00 0.0313
2018_02_13_S8 02/12/2018 21:10:00 0.0281
2018_02_13_S8 02/12/2018 21:15:00 0.0516
2018_02_13_S8 02/12/2018 21:20:00 0.0522
2018_02_13_S8 02/12/2018 21:25:00 0.0762
2018_02_13_S8 02/12/2018 21:30:00 0.0618
2018_02_13_S8 02/12/2018 21:35:00 0.0354
2018_02_13_S8 02/12/2018 21:40:00 0.0442
2018_02_13_S8 02/12/2018 21:45:00 0.0571
2018_02_13_S8 02/12/2018 21:50:00 0.0465
2018_02_13_S8 02/12/2018 21:55:00 0.069
2018_02_13_S8 02/12/2018 22:00:00 0.0526
2018_02_13_S8 02/12/2018 22:05:00 0.0406
2018_02_13_S8 02/12/2018 22:10:00 0.0548
2018_02_13_S8 02/12/2018 22:15:00 0.0498
2018_02_13_S8 02/12/2018 22:20:00 0.0378
2018_02_13_S8 02/12/2018 22:25:00 0.043
2018_02_13_S8 02/12/2018 22:30:00 0.0377
2018_02_13_S8 02/12/2018 22:35:00 0.0563
2018_02_13_S8 02/12/2018 22:40:00 0.0449
2018_02_13_S8 02/12/2018 22:45:00 0.0634
2018_02_13_S8 02/12/2018 22:50:00 0.0452
2018_02_13_S8 02/12/2018 22:55:00 0.079
2018_02_13_S8 02/12/2018 23:00:00 0.0706
2018_02_13_S8 02/12/2018 23:05:00 0.0748
2018_02_13_S8 02/12/2018 23:10:00 0.0765
2018_02_13_S8 02/12/2018 23:15:00 0.1086
2018_02_13_S8 02/12/2018 23:20:00 0.1214
2018_02_13_S8 02/12/2018 23:25:00 0.0985
2018_02_13_S8 02/12/2018 23:30:00 0.1149
2018_02_13_S8 02/12/2018 23:35:00 0.0827
2018_02_13_S8 02/12/2018 23:40:00 0.0634
2018_02_13_S8 02/12/2018 23:45:00 0.0863
2018_02_13_S8 02/12/2018 23:50:00 0.0875
2018_02_13_S8 02/12/2018 23:55:00 0.0691
2018_02_13_S8 02/13/2018 00:00:00 0.0822
2018_02_13_S8 02/13/2018 00:05:00 0.0712
2018_02_13_S8 02/13/2018 00:10:00 0.1543
2018_02_13_S8 02/13/2018 00:15:00 0.0473
2018_02_13_S8 02/13/2018 00:20:00 0.0093
2018_02_13_S8 02/13/2018 00:25:00 0.013
2018_02_13_S8 02/13/2018 00:30:00 0.059
2018_02_13_S8 02/13/2018 00:35:00 0.0475
2018_02_13_S8 02/13/2018 00:40:00 0.0236
2018_02_13_S8 02/13/2018 00:45:00 0.0204
2018_02_13_S8 02/13/2018 00:50:00 0.0363
2018_02_13_S8 02/13/2018 00:55:00 0.0723
2018_02_13_S8 02/13/2018 01:00:00 0.0362
2018_02_13_S8 02/13/2018 01:05:00 0.046
2018_02_13_S8 02/13/2018 01:10:00 0.0426
2018_02_13_S8 02/13/2018 01:15:00 0.0507
2018_02_13_S8 02/13/2018 01:20:00 0.0729
2018_02_13_S8 02/13/2018 01:25:00 0.0415
2018_02_13_S8 02/13/2018 01:30:00 0.0327
2018_02_13_S8 02/13/2018 01:35:00 0.0335
2018_02_13_S8 02/13/2018 01:40:00 0.0091
2018_02_13_S8 02/13/2018 01:45:00 0.0094
2018_02_13_S8 02/13/2018 01:50:00 0.0076
2018_02_13_S8 02/13/2018 01:55:00 0.0216
2018_02_13_S8 02/13/2018 02:00:00 0.012
2018_02_13_S8 02/13/2018 02:05:00 0.0373
2018_02_13_S8 02/13/2018 02:10:00 0.0221
2018_02_13_S8 02/13/2018 02:15:00 0.0109
2018_02_13_S8 02/13/2018 02:20:00 0.0237
2018_02_13_S8 02/13/2018 02:25:00 0.0182
2018_02_13_S8 02/13/2018 02:30:00 0.0016
2018_02_13_S8 02/13/2018 02:35:00 0.0186
2018_02_13_S8 02/13/2018 02:40:00 0.0769
2018_02_13_S8 02/13/2018 02:45:00 0.0649
2018_02_13_S8 02/13/2018 02:50:00 0.0455
2018_02_13_S8 02/13/2018 02:55:00 0.0794
2018_02_13_S8 02/13/2018 03:00:00 0.0634
2018_02_13_S8 02/13/2018 03:05:00 0.077
2018_02_13_S8 02/13/2018 03:10:00 0.0492
2018_02_13_S8 02/13/2018 03:15:00 0.0241
2018_02_13_S8 02/13/2018 03:20:00 0.0823
2018_02_13_S8 02/13/2018 03:25:00 0.0762
2018_02_13_S8 02/13/2018 03:30:00 0.073
2018_02_13_S8 02/13/2018 03:35:00 0.2985
2018_02_13_S8 02/13/2018 03:40:00 0.2969
2018_02_13_S8 02/13/2018 03:45:00 0.3382
2018_02_13_S8 02/13/2018 03:50:00 0.2965
2018_02_13_S8 02/13/2018 03:55:00 0.4937
2018_02_13_S8 02/13/2018 04:00:00 0.1153
2018_02_13_S8 02/13/2018 04:05:00 0.3356
2018_02_13_S8 02/13/2018 04:10:00 0.1446
2018_02_13_S8 02/13/2018 04:15:00 0.2612
2018_02_13_S8 02/13/2018 04:20:00 0.3069
2018_02_13_S8 02/13/2018 04:25:00 0.5395
2018_02_13_S8 02/13/2018 04:30:00 0.4363
2018_02_13_S8 02/13/2018 04:35:00 0.3115
2018_02_13_S8 02/13/2018 04:40:00 0.7307
2018_02_13_S8 02/13/2018 04:45:00 0.8325
2018_02_13_S8 02/13/2018 04:50:00 0.4185
2018_02_13_S8 02/13/2018 04:55:00 0.5323
2018_02_13_S8 02/13/2018 05:00:00 1.1293
2018_02_13_S8 02/13/2018 05:05:00 1.6532
2018_02_13_S8 02/13/2018 05:10:00 0.5851
2018_02_13_S8 02/13/2018 05:15:00 0.2741
2018_02_13_S8 02/13/2018 05:20:00 0.2106
2018_02_13_S8 02/13/2018 05:25:00 0.4439
2018_02_13_S8 02/13/2018 05:30:00 0.7783
2018_02_13_S8 02/13/2018 05:35:00 0.3249
2018_02_13_S8 02/13/2018 05:40:00 0.4653
2018_02_13_S8 02/13/2018 05:45:00 0.8644
2018_02_13_S8 02/13/2018 05:50:00 0.4302
2018_02_13_S8 02/13/2018 05:55:00 0.2404
2018_02_13_S8 02/13/2018 06:00:00 0.1812
2018_02_13_S8 02/13/2018 06:05:00 0.2307
2018_02_13_S8 02/13/2018 06:10:00 0.4821
2018_02_13_S8 02/13/2018 06:15:00 0.4875
2018_02_13_S8 02/13/2018 06:20:00 0.8739
2018_02_13_S8 02/13/2018 06:25:00 0.4549
2018_02_13_S8 02/13/2018 06:30:00 0.2258
2018_02_13_S8 02/13/2018 06:35:00 0.1523
2018_02_13_S8 02/13/2018 06:40:00 0.3449
2018_02_13_S8 02/13/2018 06:45:00 0.0773
2018_02_13_S8 02/13/2018 06:50:00 0.023
2018_02_13_S8 02/13/2018 06:55:00 0.0196
2018_02_13_S8 02/13/2018 07:00:00 0.9057
2018_02_13_S8 02/13/2018 07:05:00 0.9646
2018_02_13_S8 02/13/2018 07:10:00 1.0835
2018_02_13_S8 02/13/2018 07:15:00 0.016
2018_02_13_S8 02/13/2018 07:20:00 0.0
2018_02_13_S8 02/13/2018 07:25:00 0.0055
2018_02_13_S8 02/13/2018 07:30:00 0.1713
2018_02_13_S8 02/13/2018 07:35:00 0.0
2018_02_13_S8 02/13/2018 07:40:00 0.032
2018_02_13_S8 02/13/2018 07:45:00 0.0
2018_02_13_S8 02/13/2018 07:50:00 0.0
2018_02_13_S8 02/13/2018 07:55:00 0.0
2018_02_13_S8 02/13/2018 08:00:00 0.0

2018_02_13_S9 02/12/2018 19:55:00 0.0474
2018_02_13_S9 02/12/2018 20:00:00 0.0809
2018_02_13_S9 02/12/2018 20:05:00 0.0781
2018_02_13_S9 02/12/2018 20:10:00 0.104
2018_02_13_S9 02/12/2018 20:15:00 0.0905
2018_02_13_S9 02/12/2018 20:20:00 0.0957
2018_02_13_S9 02/12/2018 20:25:00 0.1313
2018_02_13_S9 02/12/2018 20:30:00 0.1452
2018_02_13_S9 02/12/2018 20:35:00 0.0834
2018_02_13_S9 02/12/2018 20:40:00 0.0958
2018_02_13_S9 02/12/2018 20:45:00 0.0498
2018_02_13_S9 02/12/2018 20:50:00 0.0375
2018_02_13_S9 02/12/2018 20:55:00 0.0377
2018_02_13_S9 02/12/2018 21:00:00 0.0437
2018_02_13_S9 02/12/2018 21:05:00 0.0319
2018_02_13_S9 02/12/2018 21:10:00 0.0267
2018_02_13_S9 02/12/2018 21:15:00 0.046
2018_02_13_S9 02/12/2018 21:20:00 0.0572
2018_02_13_S9 02/12/2018 21:25:00 0.0859
2018_02_13_S9 02/12/2018 21:30:00 0.0595
2018_02_13_S9 02/12/2018 21:35:00 0.0356
2018_02_13_S9 02/12/2018 21:40:00 0.0462
2018_02_13_S9 02/12/2018 21:45:00 0.0544
2018_02_13_S9 02/12/2018 21:50:00 0.0465
2018_02_13_S9 02/12/2018 21:55:00 0.0699
2018_02_13_S9 02/12/2018 22:00:00 0.0571
2018_02_13_S9 02/12/2018 22:05:00 0.039
2018_02_13_S9 02/12/2018 22:10:00 0.0529
2018_02_13_S9 02/12/2018 22:15:00 0.0491
2018_02_13_S9 02/12/2018 22:20:00 0.0329
2018_02_13_S9 02/12/2018 22:25:00 0.039
2018_02_13_S9 02/12/2018 22:30:00 0.0342
2018_02_13_S9 02/12/2018 22:35:00 0.058
2018_02_13_S9 02/12/2018 22:40:00 0.0427
2018_02_13_S9 02/12/2018 22:45:00 0.0579
2018_02_13_S9 02/12/2018 22:50:00 0.0453
2018_02_13_S9 02/12/2018 22:55:00 0.0711
2018_02_13_S9 02/12/2018 23:00:00 0.0716
2018_02_13_S9 02/12/2018 23:05:00 0.0848
2018_02_13_S9 02/12/2018 23:10:00 0.0829
2018_02_13_S9 02/12/2018 23:15:00 0.1129
2018_02_13_S9 02/12/2018 23:20:00 0.1194
2018_02_13_S9 02/12/2018 23:25:00 0.0943
2018_02_13_S9 02/12/2018 23:30:00 0.1147
2018_02_13_S9 02/12/2018 23:35:00 0.0812
2018_02_13_S9 02/12/2018 23:40:00 0.0613
2018_02_13_S9 02/12/2018 23:45:00 0.092
2018_02_13_S9 02/12/2018 23:50:00 0.0934
2018_02_13_S9 02/12/2018 23:55:00 0.0675
2018_02_13_S9 02/13/2018 00:00:00 0.0992
2018_02_13_S9 02/13/2018 00:05:00 0.0695
2018_02_13_S9 02/13/2018 00:10:00 0.157
2018_02_13_S9 02/13/2018 00:15:00 0.0447
2018_02_13_S9 02/13/2018 00:20:00 0.0088
2018_02_13_S9 02/13/2018 00:25:00 0.0175
2018_02_13_S9 02/13/2018 00:30:00 0.0517
2018_02_13_S9 02/13/2018 00:35:00 0.0602
2018_02_13_S9 02/13/2018 00:40:00 0.02
2018_02_13_S9 02/13/2018 00:45:00 0.0217
2018_02_13_S9 02/13/2018 00:50:00 0.0369
2018_02_13_S9 02/13/2018 00:55:00 0.0675
2018_02_13_S9 02/13/2018 01:00:00 0.0391
2018_02_13_S9 02/13/2018 01:05:00 0.0459
2018_02_13_S9 02/13/2018 01:10:00 0.0376
2018_02_13_S9 02/13/2018 01:15:00 0.0597
2018_02_13_S9 02/13/2018 01:20:00 0.0731
2018_02_13_S9 02/13/2018 01:25:00 0.0404
2018_02_13_S9 02/13/2018 01:30:00 0.0336
2018_02_13_S9 02/13/2018 01:35:00 0.035
2018_02_13_S9 02/13/2018 01:40:00 0.0094
2018_02_13_S9 02/13/2018 01:45:00 0.0092
2018_02_13_S9 02/13/2018 01:50:00 0.0075
2018_02_13_S9 02/13/2018 01:55:00 0.0174
2018_02_13_S9 02/13/2018 02:00:00 0.0098
2018_02_13_S9 02/13/2018 02:05:00 0.049
2018_02_13_S9 02/13/2018 02:10:00 0.0173
2018_02_13_S9 02/13/2018 02:15:00 0.0106
2018_02_13_S9 02/13/2018 02:20:00 0.0196
2018_02_13_S9 02/13/2018 02:25:00 0.0156
2018_02_13_S9 02/13/2018 02:30:00 0.0072
2018_02_13_S9 02/13/2018 02:35:00 0.0169
2018_02_13_S9 02/13/2018 02:40:00 0.0616
2018_02_13_S9 02/13/2018 02:45:00 0.0675
2018_02_13_S9 02/13/2018 02:50:00 0.0485
2018_02_13_S9 02/13/2018 02:55:00 0.0833
2018_02_13_S9 02/13/2018 03:00:00 0.0604
2018_02_13_S9 02/13/2018 03:05:00 0.0994
2018_02_13_S9 02/13/2018 03:10:00 0.0525
2018_02_13_S9 02/13/2018 03:15:00 0.0236
2018_02_13_S9 02/13/2018 03:20:00 0.0736
2018_02_13_S9 02/13/2018 03:25:00 0.082
2018_02_13_S9 02/13/2018 03:30:00 0.0794
2018_02_13_S9 02/13/2018 03:35:00 0.3015
2018_02_13_S9 02/13/2018 03:40:00 0.2317
2018_02_13_S9 02/13/2018 03:45:00 0.4026
2018_02_13_S9 02/13/2018 03:50:00 0.3034
2018_02_13_S9 02/13/2018 03:55:00 0.5503
2018_02_13_S9 02/13/2018 04:00:00 0.0925
2018_02_13_S9 02/13/2018 04:05:00 0.2711
2018_02_13_S9 02/13/2018 04:10:00 0.1214
2018_02_13_S9 02/13/2018 04:15:00 0.2051
2018_02_13_S9 02/13/2018 04:20:00 0.3148
2018_02_13_S9 02/13/2018 04:25:00 0.5631
2018_02_13_S9 02/13/2018 04:30:00 0.4575
2018_02_13_S9 02/13/2018 04:35:00 0.3472
2018_02_13_S9 02/13/2018 04:40:00 0.75
2018_02_13_S9 02/13/2018 04:45:00 0.7808
2018_02_13_S9 02/13/2018 04:50:00 0.4467
2018_02_13_S9 02/13/2018 04:55:00 0.4934
2018_02_13_S9 02/13/2018 05:00:00 1.1203
2018_02_13_S9 02/13/2018 05:05:00 1.4885
2018_02_13_S9 02/13/2018 05:10:00 0.5982
2018_02_13_S9 02/13/2018 05:15:00 0.2725
2018_02_13_S9 02/13/2018 05:20:00 0.1671
2018_02_13_S9 02/13/2018 05:25:00 0.5864
2018_02_13_S9 02/13/2018 05:30:00 0.4851
2018_02_13_S9 02/13/2018 05:35:00 0.3594
2018_02_13_S9 02/13/2018 05:40:00 0.7451
2018_02_13_S9 02/13/2018 05:45:00 0.5423
2018_02_13_S9 02/13/2018 05:50:00 0.2942
2018_02_13_S9 02/13/2018 05:55:00 0.2048
2018_02_13_S9 02/13/2018 06:00:00 0.2054
2018_02_13_S9 02/13/2018 06:05:00 0.2742
2018_02_13_S9 02/13/2018 06:10:00 0.5154
2018_02_13_S9 02/13/2018 06:15:00 0.5297
2018_02_13_S9 02/13/2018 06:20:00 0.6713
2018_02_13_S9 02/13/2018 06:25:00 0.4518
2018_02_13_S9 02/13/2018 06:30:00 0.2102
2018_02_13_S9 02/13/2018 06:35:00 0.1496
2018_02_13_S9 02/13/2018 06:40:00 0.3034
2018_02_13_S9 02/13/2018 06:45:00 0.0786
2018_02_13_S9 02/13/2018 06:50:00 0.0211
2018_02_13_S9 02/13/2018 06:55:00 0.0206
2018_02_13_S9 02/13/2018 07:00:00 2.0651
2018_02_13_S9 02/13/2018 07:05:00 0.5097
2018_02_13_S9 02/13/2018 07:10:00 0.5301
2018_02_13_S9 02/13/2018 07:15:00 0.0314
2018_02_13_S9 02/13/2018 07:20:00 0.0
2018_02_13_S9 02/13/2018 07:25:00 0.0014
2018_02_13_S9 02/13/2018 07:30:00 0.1874
2018_02_13_S9 02/13/2018 07:35:00 0.0003
2018_02_13_S9 02/13/2018 07:40:00 0.0244
2018_02_13_S9 02/13/2018 07:45:00 0.0
2018_02_13_S9 02/13/2018 07:50:00 0.0
2018_02_13_S9 02/13/2018 07:55:00 0.0
2018_02_13_S9 02/13/2018 08:00:00 0.0

2018_02_13_S10 02/12/2018 19:55:00 0.058
2018_02_13_S10 02/12/2018 20:00:00 0.0665
2018_02_13_S10 02/12/2018 20:05:00 0.0643
2018_02_13_S10 02/12/2018 20:10:00 0.0778
2018_02_13_S10 02/12/2018 20:15:00 0.085
2018_02_13_S10 02/12/2018 20:20:00 0.1051
2018_02_13_S10 02/12/2018 20:25:00 0.1857
2018_02_13_S10 02/12/2018 20:30:00 0.1346
2018_02_13_S10 02/12/2018 20:35:00 0.0879
2018_02_13_S10 02/12/2018 20:40:00 0.0958
2018_02_13_S10 02/12/2018 20:45:00 0.0486
2018_02_13_S10 02/12/2018 20:50:00 0.0376
2018_02_13_S10 02/12/2018 20:55:00 0.0378
2018_02_13_S10 02/12/2018 21:00:00 0.044
2018_02_13_S10 02/12/2018 21:05:00 0.0297
2018_02_13_S10 02/12/2018 21:10:00 0.024
2018_02_13_S10 02/12/2018 21:15:00 0.0489
2018_02_13_S10 02/12/2018 21:20:00 0.0483
2018_02_13_S10 02/12/2018 21:25:00 0.0831
2018_02_13_S10 02/12/2018 21:30:00 0.0572
2018_02_13_S10 02/12/2018 21:35:00 0.0362
2018_02_13_S10 02/12/2018 21:40:00 0.0418
2018_02_13_S10 02/12/2018 21:45:00 0.056
2018_02_13_S10 02/12/2018 21:50:00 0.0582
2018_02_13_S10 02/12/2018 21:55:00 0.0687
2018_02_13_S10 02/12/2018 22:00:00 0.0609
2018_02_13_S10 02/12/2018 22:05:00 0.0404
2018_02_13_S10 02/12/2018 22:10:00 0.0531
2018_02_13_S10 02/12/2018 22:15:00 0.0437
2018_02_13_S10 02/12/2018 22:20:00 0.0361
2018_02_13_S10 02/12/2018 22:25:00 0.0392
2018_02_13_S10 02/12/2018 22:30:00 0.0349
2018_02_13_S10 02/12/2018 22:35:00 0.0516
2018_02_13_S10 02/12/2018 22:40:00 0.0484
2018_02_13_S10 02/12/2018 22:45:00 0.0559
2018_02_13_S10 02/12/2018 22:50:00 0.0488
2018_02_13_S10 02/12/2018 22:55:00 0.075
2018_02_13_S10 02/12/2018 23:00:00 0.0676
2018_02_13_S10 02/12/2018 23:05:00 0.0745
2018_02_13_S10 02/12/2018 23:10:00 0.0835
2018_02_13_S10 02/12/2018 23:15:00 0.0994
2018_02_13_S10 02/12/2018 23:20:00 0.1088
2018_02_13_S10 02/12/2018 23:25:00 0.1097
2018_02_13_S10 02/12/2018 23:30:00 0.1113
2018_02_13_S10 02/12/2018 23:35:00 0.0866
2018_02_13_S10 02/12/2018 23:40:00 0.0528
2018_02_13_S10 02/12/2018 23:45:00 0.1005
2018_02_13_S10 02/12/2018 23:50:00 0.0822
2018_02_13_S10 02/12/2018 23:55:00 0.0641
2018_02_13_S10 02/13/2018 00:00:00 0.0859
2018_02_13_S10 02/13/2018 00:05:00 0.0655
2018_02_13_S10 02/13/2018 00:10:00 0.1564
2018_02_13_S10 02/13/2018 00:15:00 0.0378
2018_02_13_S10 02/13/2018 00:20:00 0.0095
2018_02_13_S10 02/13/2018 00:25:00 0.0531
2018_02_13_S10 02/13/2018 00:30:00 0.0609
2018_02_13_S10 02/13/2018 00:35:00 0.0766
2018_02_13_S10 02/13/2018 00:40:00 0.0205
2018_02_13_S10 02/13/2018 00:45:00 0.0163
2018_02_13_S10 02/13/2018 00:50:00 0.0363
2018_02_13_S10 02/13/2018 00:55:00 0.06
2018_02_13_S10 02/13/2018 01:00:00 0.0369
2018_02_13_S10 02/13/2018 01:05:00 0.0468
2018_02_13_S10 02/13/2018 01:10:00 0.0375
2018_02_13_S10 02/13/2018 01:15:00 0.0685
2018_02_13_S10 02/13/2018 01:20:00 0.0688
2018_02_13_S10 02/13/2018 01:25:00 0.0405
2018_02_13_S10 02/13/2018 01:30:00 0.0287
2018_02_13_S10 02/13/2018 01:35:00 0.035
2018_02_13_S10 02/13/2018 01:40:00 0.0086
2018_02_13_S10 02/13/2018 01:45:00 0.0089
2018_02_13_S10 02/13/2018 01:50:00 0.0076
2018_02_13_S10 02/13/2018 01:55:00 0.0126
2018_02_13_S10 02/13/2018 02:00:00 0.0086
2018_02_13_S10 02/13/2018 02:05:00 0.0633
2018_02_13_S10 02/13/2018 02:10:00 0.0146
2018_02_13_S10 02/13/2018 02:15:00 0.009
2018_02_13_S10 02/13/2018 02:20:00 0.0149
2018_02_13_S10 02/13/2018 02:25:00 0.0137
2018_02_13_S10 02/13/2018 02:30:00 0.0072
2018_02_13_S10 02/13/2018 02:35:00 0.0165
2018_02_13_S10 02/13/2018 02:40:00 0.0438
2018_02_13_S10 02/13/2018 02:45:00 0.1283
2018_02_13_S10 02/13/2018 02:50:00 0.0585
2018_02_13_S10 02/13/2018 02:55:00 0.0919
2018_02_13_S10 02/13/2018 03:00:00 0.0841
2018_02_13_S10 02/13/2018 03:05:00 0.0846
2018_02_13_S10 02/13/2018 03:10:00 0.0518
2018_02_13_S10 02/13/2018 03:15:00 0.0181
2018_02_13_S10 02/13/2018 03:20:00 0.0515
2018_02_13_S10 02/13/2018 03:25:00 0.0647
2018_02_13_S10 02/13/2018 03:30:00 0.0813
2018_02_13_S10 02/13/2018 03:35:00 0.3627
2018_02_13_S10 02/13/2018 03:40:00 0.2327
2018_02_13_S10 02/13/2018 03:45:00 0.5083
2018_02_13_S10 02/13/2018 03:50:00 0.3129
2018_02_13_S10 02/13/2018 03:55:00 0.7182
2018_02_13_S10 02/13/2018 04:00:00 0.0728
2018_02_13_S10 02/13/2018 04:05:00 0.246
2018_02_13_S10 02/13/2018 04:10:00 0.113
2018_02_13_S10 02/13/2018 04:15:00 0.1713
2018_02_13_S10 02/13/2018 04:20:00 0.2577
2018_02_13_S10 02/13/2018 04:25:00 0.4836
2018_02_13_S10 02/13/2018 04:30:00 0.4287
2018_02_13_S10 02/13/2018 04:35:00 0.4588
2018_02_13_S10 02/13/2018 04:40:00 0.7292
2018_02_13_S10 02/13/2018 04:45:00 0.8867
2018_02_13_S10 02/13/2018 04:50:00 0.5207
2018_02_13_S10 02/13/2018 04:55:00 0.509
2018_02_13_S10 02/13/2018 05:00:00 1.3343
2018_02_13_S10 02/13/2018 05:05:00 1.3553
2018_02_13_S10 02/13/2018 05:10:00 0.7447
2018_02_13_S10 02/13/2018 05:15:00 0.2339
2018_02_13_S10 02/13/2018 05:20:00 0.1634
2018_02_13_S10 02/13/2018 05:25:00 1.0963
2018_02_13_S10 02/13/2018 05:30:00 0.3832
2018_02_13_S10 02/13/2018 05:35:00 0.336
2018_02_13_S10 02/13/2018 05:40:00 0.8029
2018_02_13_S10 02/13/2018 05:45:00 0.3683
2018_02_13_S10 02/13/2018 05:50:00 0.2804
2018_02_13_S10 02/13/2018 05:55:00 0.1757
2018_02_13_S10 02/13/2018 06:00:00 0.2186
2018_02_13_S10 02/13/2018 06:05:00 0.2748
2018_02_13_S10 02/13/2018 06:10:00 0.5068
2018_02_13_S10 02/13/2018 06:15:00 0.5482
2018_02_13_S10 02/13/2018 06:20:00 0.9767
2018_02_13_S10 02/13/2018 06:25:00 0.3306
2018_02_13_S10 02/13/2018 06:30:00 0.1911
2018_02_13_S10 02/13/2018 06:35:00 0.1829
2018_02_13_S10 02/13/2018 06:40:00 0.2712
2018_02_13_S10 02/13/2018 06:45:00 0.0716
2018_02_13_S10 02/13/2018 06:50:00 0.0176
2018_02_13_S10 02/13/2018 06:55:00 0.0039
2018_02_13_S10 02/13/2018 07:00:00 0.7249
2018_02_13_S10 02/13/2018 07:05:00 0.0423
2018_02_13_S10 02/13/2018 07:10:00 0.0588
2018_02_13_S10 02/13/2018 07:15:00 0.0727
2018_02_13_S10 02/13/2018 07:20:00 0.0001
2018_02_13_S10 02/13/2018 07:25:00 0.0065
2018_02_13_S10 02/13/2018 07:30:00 0.4748
2018_02_13_S10 02/13/2018 07:35:00 0.0191
2018_02_13_S10 02/13/2018 07:40:00 0.0014
2018_02_13_S10 02/13/2018 07:45:00 0.0
2018_02_13_S10 02/13/2018 07:50:00 0.0
2018_02_13_S10 02/13/2018 07:55:00 0.0
2018_02_13_S10 02/13/2018 08:00:00 0.0

2018_02_13_S11 02/12/2018 19:55:00 0.0452
2018_02_13_S11 02/12/2018 20:00:00 0.0665
2018_02_13_S11 02/12/2018 20:05:00 0.0675
2018_02_13_S11 02/12/2018 20:10:00 0.0801
2018_02_13_S11 02/12/2018 20:15:00 0.0913
2018_02_13_S11 02/12/2018 20:20:00 0.1098
2018_02_13_S11 02/12/2018 20:25:00 0.1539
2018_02_13_S11 02/12/2018 20:30:00 0.1417
2018_02_13_S11 02/12/2018 20:35:00 0.0835
2018_02_13_S11 02/12/2018 20:40:00 0.1048
2018_02_13_S11 02/12/2018 20:45:00 0.0508
2018_02_13_S11 02/12/2018 20:50:00 0.0376
2018_02_13_S11 02/12/2018 20:55:00 0.0499
2018_02_13_S11 02/12/2018 21:00:00 0.0512
2018_02_13_S11 02/12/2018 21:05:00 0.026
2018_02_13_S11 02/12/2018 21:10:00 0.0238
2018_02_13_S11 02/12/2018 21:15:00 0.0476
2018_02_13_S11 02/12/2018 21:20:00 0.0493
2018_02_13_S11 02/12/2018 21:25:00 0.0764
2018_02_13_S11 02/12/2018 21:30:00 0.047
2018_02_13_S11 02/12/2018 21:35:00 0.0307
2018_02_13_S11 02/12/2018 21:40:00 0.0374
2018_02_13_S11 02/12/2018 21:45:00 0.062
2018_02_13_S11 02/12/2018 21:50:00 0.055
2018_02_13_S11 02/12/2018 21:55:00 0.068
2018_02_13_S11 02/12/2018 22:00:00 0.0523
2018_02_13_S11 02/12/2018 22:05:00 0.0401
2018_02_13_S11 02/12/2018 22:10:00 0.0491
2018_02_13_S11 02/12/2018 22:15:00 0.0427
2018_02_13_S11 02/12/2018 22:20:00 0.0368
2018_02_13_S11 02/12/2018 22:25:00 0.0479
2018_02_13_S11 02/12/2018 22:30:00 0.039
2018_02_13_S11 02/12/2018 22:35:00 0.0605
2018_02_13_S11 02/12/2018 22:40:00 0.0437
2018_02_13_S11 02/12/2018 22:45:00 0.0567
2018_02_13_S11 02/12/2018 22:50:00 0.041
2018_02_13_S11 02/12/2018 22:55:00 0.0733
2018_02_13_S11 02/12/2018 23:00:00 0.0795
2018_02_13_S11 02/12/2018 23:05:00 0.077
2018_02_13_S11 02/12/2018 23:10:00 0.085
2018_02_13_S11 02/12/2018 23:15:00 0.0983
2018_02_13_S11 02/12/2018 23:20:00 0.1339
2018_02_13_S11 02/12/2018 23:25:00 0.0962
2018_02_13_S11 02/12/2018 23:30:00 0.1118
2018_02_13_S11 02/12/2018 23:35:00 0.098
2018_02_13_S11 02/12/2018 23:40:00 0.0752
2018_02_13_S11 02/12/2018 23:45:00 0.0828
2018_02_13_S11 02/12/2018 23:50:00 0.0777
2018_02_13_S11 02/12/2018 23:55:00 0.0585
2018_02_13_S11 02/13/2018 00:00:00 0.0843
2018_02_13_S11 02/13/2018 00:05:00 0.0554
2018_02_13_S11 02/13/2018 00:10:00 0.1153
2018_02_13_S11 02/13/2018 00:15:00 0.0361
2018_02_13_S11 02/13/2018 00:20:00 0.0091
2018_02_13_S11 02/13/2018 00:25:00 0.0554
2018_02_13_S11 02/13/2018 00:30:00 0.0575
2018_02_13_S11 02/13/2018 00:35:00 0.085
2018_02_13_S11 02/13/2018 00:40:00 0.0283
2018_02_13_S11 02/13/2018 00:45:00 0.0118
2018_02_13_S11 02/13/2018 00:50:00 0.0319
2018_02_13_S11 02/13/2018 00:55:00 0.0579
2018_02_13_S11 02/13/2018 01:00:00 0.0403
2018_02_13_S11 02/13/2018 01:05:00 0.0387
2018_02_13_S11 02/13/2018 01:10:00 0.0394
2018_02_13_S11 02/13/2018 01:15:00 0.074
2018_02_13_S11 02/13/2018 01:20:00 0.0608
2018_02_13_S11 02/13/2018 01:25:00 0.0322
2018_02_13_S11 02/13/2018 01:30:00 0.0262
2018_02_13_S11 02/13/2018 01:35:00 0.0347
2018_02_13_S11 02/13/2018 01:40:00 0.0083
2018_02_13_S11 02/13/2018 01:45:00 0.0124
2018_02_13_S11 02/13/2018 01:50:00 0.0085
2018_02_13_S11 02/13/2018 01:55:00 0.0214
2018_02_13_S11 02/13/2018 02:00:00 0.0113
2018_02_13_S11 02/13/2018 02:05:00 0.0578
2018_02_13_S11 02/13/2018 02:10:00 0.015
2018_02_13_S11 02/13/2018 02:15:00 0.0102
2018_02_13_S11 02/13/2018 02:20:00 0.0094
2018_02_13_S11 02/13/2018 02:25:00 0.012
2018_02_13_S11 02/13/2018 02:30:00 0.0073
2018_02_13_S11 02/13/2018 02:35:00 0.0167
2018_02_13_S11 02/13/2018 02:40:00 0.0659
2018_02_13_S11 02/13/2018 02:45:00 0.163
2018_02_13_S11 02/13/2018 02:50:00 0.0933
2018_02_13_S11 02/13/2018 02:55:00 0.0785
2018_02_13_S11 02/13/2018 03:00:00 0.0746
2018_02_13_S11 02/13/2018 03:05:00 0.0517
2018_02_13_S11 02/13/2018 03:10:00 0.0666
2018_02_13_S11 02/13/2018 03:15:00 0.0255
2018_02_13_S11 02/13/2018 03:20:00 0.0375
2018_02_13_S11 02/13/2018 03:25:00 0.0482
2018_02_13_S11 02/13/2018 03:30:00 0.1074
2018_02_13_S11 02/13/2018 03:35:00 0.3821
2018_02_13_S11 02/13/2018 03:40:00 0.3138
2018_02_13_S11 02/13/2018 03:45:00 0.7587
2018_02_13_S11 02/13/2018 03:50:00 0.328
2018_02_13_S11 02/13/2018 03:55:00 0.8263
2018_02_13_S11 02/13/2018 04:00:00 0.0778
2018_02_13_S11 02/13/2018 04:05:00 0.2034
2018_02_13_S11 02/13/2018 04:10:00 0.1385
2018_02_13_S11 02/13/2018 04:15:00 0.2146
2018_02_13_S11 02/13/2018 04:20:00 0.2575
2018_02_13_S11 02/13/2018 04:25:00 0.3839
2018_02_13_S11 02/13/2018 04:30:00 0.2304
2018_02_13_S11 02/13/2018 04:35:00 0.3359
2018_02_13_S11 02/13/2018 04:40:00 0.5852
2018_02_13_S11 02/13/2018 04:45:00 0.8671
2018_02_13_S11 02/13/2018 04:50:00 0.6127
2018_02_13_S11 02/13/2018 04:55:00 0.4566
2018_02_13_S11 02/13/2018 05:00:00 1.2249
2018_02_13_S11 02/13/2018 05:05:00 1.338
2018_02_13_S11 02/13/2018 05:10:00 0.6642
2018_02_13_S11 02/13/2018 05:15:00 0.2309
2018_02_13_S11 02/13/2018 05:20:00 0.198
2018_02_13_S11 02/13/2018 05:25:00 1.4353
2018_02_13_S11 02/13/2018 05:30:00 0.7296
2018_02_13_S11 02/13/2018 05:35:00 0.4102
2018_02_13_S11 02/13/2018 05:40:00 0.4043
2018_02_13_S11 02/13/2018 05:45:00 0.5595
2018_02_13_S11 02/13/2018 05:50:00 0.2911
2018_02_13_S11 02/13/2018 05:55:00 0.1871
2018_02_13_S11 02/13/2018 06:00:00 0.1568
2018_02_13_S11 02/13/2018 06:05:00 0.2284
2018_02_13_S11 02/13/2018 06:10:00 0.4289
2018_02_13_S11 02/13/2018 06:15:00 0.7462
2018_02_13_S11 02/13/2018 06:20:00 0.7943
2018_02_13_S11 02/13/2018 06:25:00 0.4374
2018_02_13_S11 02/13/2018 06:30:00 0.2187
2018_02_13_S11 02/13/2018 06:35:00 0.2106
2018_02_13_S11 02/13/2018 06:40:00 0.3622
2018_02_13_S11 02/13/2018 06:45:00 0.0665
2018_02_13_S11 02/13/2018 06:50:00 0.0162
2018_02_13_S11 02/13/2018 06:55:00 0.0
2018_02_13_S11 02/13/2018 07:00:00 0.0857
2018_02_13_S11 02/13/2018 07:05:00 0.0039
2018_02_13_S11 02/13/2018 07:10:00 0.0256
2018_02_13_S11 02/13/2018 07:15:00 0.445
2018_02_13_S11 02/13/2018 07:20:00 0.0
2018_02_13_S11 02/13/2018 07:25:00 0.0018
2018_02_13_S11 02/13/2018 07:30:00 1.0301
2018_02_13_S11 02/13/2018 07:35:00 0.0525
2018_02_13_S11 02/13/2018 07:40:00 0.0045
2018_02_13_S11 02/13/2018 07:45:00 0.0
2018_02_13_S11 02/13/2018 07:50:00 0.0
2018_02_13_S11 02/13/2018 07:55:00 0.0
2018_02_13_S11 02/13/2018 08:00:00 0.0

2018_02_13_S12 02/12/2018 19:55:00 0.0327
2018_02_13_S12 02/12/2018 20:00:00 0.0529
2018_02_13_S12 02/12/2018 20:05:00 0.0504
2018_02_13_S12 02/12/2018 20:10:00 0.0669
2018_02_13_S12 02/12/2018 20:15:00 0.0713
2018_02_13_S12 02/12/2018 20:20:00 0.0966
2018_02_13_S12 02/12/2018 20:25:00 0.1256
2018_02_13_S12 02/12/2018 20:30:00 0.1301
2018_02_13_S12 02/12/2018 20:35:00 0.0816
2018_02_13_S12 02/12/2018 20:40:00 0.1079
2018_02_13_S12 02/12/2018 20:45:00 0.0446
2018_02_13_S12 02/12/2018 20:50:00 0.0343
2018_02_13_S12 02/12/2018 20:55:00 0.0496
2018_02_13_S12 02/12/2018 21:00:00 0.0517
2018_02_13_S12 02/12/2018 21:05:00 0.0222
2018_02_13_S12 02/12/2018 21:10:00 0.0229
2018_02_13_S12 02/12/2018 21:15:00 0.049
2018_02_13_S12 02/12/2018 21:20:00 0.0432
2018_02_13_S12 02/12/2018 21:25:00 0.0727
2018_02_13_S12 02/12/2018 21:30:00 0.0431
2018_02_13_S12 02/12/2018 21:35:00 0.0323
2018_02_13_S12 02/12/2018 21:40:00 0.0334
2018_02_13_S12 02/12/2018 21:45:00 0.0558
2018_02_13_S12 02/12/2018 21:50:00 0.0515
2018_02_13_S12 02/12/2018 21:55:00 0.0662
2018_02_13_S12 02/12/2018 22:00:00 0.0573
2018_02_13_S12 02/12/2018 22:05:00 0.0422
2018_02_13_S12 02/12/2018 22:10:00 0.0509
2018_02_13_S12 02/12/2018 22:15:00 0.0376
2018_02_13_S12 02/12/2018 22:20:00 0.0343
2018_02_13_S12 02/12/2018 22:25:00 0.0422
2018_02_13_S12 02/12/2018 22:30:00 0.0373
2018_02_13_S12 02/12/2018 22:35:00 0.0565
2018_02_13_S12 02/12/2018 22:40:00 0.0424
2018_02_13_S12 02/12/2018 22:45:00 0.0474
2018_02_13_S12 02/12/2018 22:50:00 0.0399
2018_02_13_S12 02/12/2018 22:55:00 0.0755
2018_02_13_S12 02/12/2018 23:00:00 0.0766
2018_02_13_S12 02/12/2018 23:05:00 0.0882
2018_02_13_S12 02/12/2018 23:10:00 0.0899
2018_02_13_S12 02/12/2018 23:15:00 0.0945
2018_02_13_S12 02/12/2018 23:20:00 0.1484
2018_02_13_S12 02/12/2018 23:25:00 0.106
2018_02_13_S12 02/12/2018 23:30:00 0.0977
2018_02_13_S12 02/12/2018 23:35:00 0.1008
2018_02_13_S12 02/12/2018 23:40:00 0.0798
2018_02_13_S12 02/12/2018 23:45:00 0.0731
2018_02_13_S12 02/12/2018 23:50:00 0.0819
2018_02_13_S12 02/12/2018 23:55:00 0.0614
2018_02_13_S12 02/13/2018 00:00:00 0.0948
2018_02_13_S12 02/13/2018 00:05:00 0.057
2018_02_13_S12 02/13/2018 00:10:00 0.0895
2018_02_13_S12 02/13/2018 00:15:00 0.041
2018_02_13_S12 02/13/2018 00:20:00 0.0092
2018_02_13_S12 02/13/2018 00:25:00 0.0331
2018_02_13_S12 02/13/2018 00:30:00 0.0575
2018_02_13_S12 02/13/2018 00:35:00 0.0969
2018_02_13_S12 02/13/2018 00:40:00 0.0351
2018_02_13_S12 02/13/2018 00:45:00 0.0094
2018_02_13_S12 02/13/2018 00:50:00 0.0265
2018_02_13_S12 02/13/2018 00:55:00 0.0658
2018_02_13_S12 02/13/2018 01:00:00 0.0373
2018_02_13_S12 02/13/2018 01:05:00 0.03
2018_02_13_S12 02/13/2018 01:10:00 0.0491
2018_02_13_S12 02/13/2018 01:15:00 0.0811
2018_02_13_S12 02/13/2018 01:20:00 0.0499
2018_02_13_S12 02/13/2018 01:25:00 0.0307
2018_02_13_S12 02/13/2018 01:30:00 0.0258
2018_02_13_S12 02/13/2018 01:35:00 0.0301
2018_02_13_S12 02/13/2018 01:40:00 0.0076
2018_02_13_S12 02/13/2018 01:45:00 0.0136
2018_02_13_S12 02/13/2018 01:50:00 0.0098
2018_02_13_S12 02/13/2018 01:55:00 0.0295
2018_02_13_S12 02/13/2018 02:00:00 0.0115
2018_02_13_S12 02/13/2018 02:05:00 0.057
2018_02_13_S12 02/13/2018 02:10:00 0.0113
2018_02_13_S12 02/13/2018 02:15:00 0.0155
2018_02_13_S12 02/13/2018 02:20:00 0.0099
2018_02_13_S12 02/13/2018 02:25:00 0.0095
2018_02_13_S12 02/13/2018 02:30:00 0.0077
2018_02_13_S12 02/13/2018 02:35:00 0.0243
2018_02_13_S12 02/13/2018 02:40:00 0.1181
2018_02_13_S12 02/13/2018 02:45:00 0.127
2018_02_13_S12 02/13/2018 02:50:00 0.1104
2018_02_13_S12 02/13/2018 02:55:00 0.0574
2018_02_13_S12 02/13/2018 03:00:00 0.0464
2018_02_13_S12 02/13/2018 03:05:00 0.0569
2018_02_13_S12 02/13/2018 03:10:00 0.0605
2018_02_13_S12 02/13/2018 03:15:00 0.0289
2018_02_13_S12 02/13/2018 03:20:00 0.0308
2018_02_13_S12 02/13/2018 03:25:00 0.0616
2018_02_13_S12 02/13/2018 03:30:00 0.1125
2018_02_13_S12 02/13/2018 03:35:00 0.3548
2018_02_13_S12 02/13/2018 03:40:00 0.3939
2018_02_13_S12 02/13/2018 03:45:00 0.4777
2018_02_13_S12 02/13/2018 03:50:00 0.4208
2018_02_13_S12 02/13/2018 03:55:00 0.7036
2018_02_13_S12 02/13/2018 04:00:00 0.0581
2018_02_13_S12 02/13/2018 04:05:00 0.1256
2018_02_13_S12 02/13/2018 04:10:00 0.2305
2018_02_13_S12 02/13/2018 04:15:00 0.1879
2018_02_13_S12 02/13/2018 04:20:00 0.1943
2018_02_13_S12 02/13/2018 04:25:00 0.2549
2018_02_13_S12 02/13/2018 04:30:00 0.1729
2018_02_13_S12 02/13/2018 04:35:00 0.3546
2018_02_13_S12 02/13/2018 04:40:00 0.5478
2018_02_13_S12 02/13/2018 04:45:00 0.717
2018_02_13_S12 02/13/2018 04:50:00 0.729
2018_02_13_S12 02/13/2018 04:55:00 0.2852
2018_02_13_S12 02/13/2018 05:00:00 1.478
2018_02_13_S12 02/13/2018 05:05:00 1.1131
2018_02_13_S12 02/13/2018 05:10:00 0.8541
2018_02_13_S12 02/13/2018 05:15:00 0.2239
2018_02_13_S12 02/13/2018 05:20:00 0.1994
2018_02_13_S12 02/13/2018 05:25:00 1.6294
2018_02_13_S12 02/13/2018 05:30:00 0.6648
2018_02_13_S12 02/13/2018 05:35:00 0.6466
2018_02_13_S12 02/13/2018 05:40:00 0.4484
2018_02_13_S12 02/13/2018 05:45:00 0.9324
2018_02_13_S12 02/13/2018 05:50:00 0.2307
2018_02_13_S12 02/13/2018 05:55:00 0.133
2018_02_13_S12 02/13/2018 06:00:00 0.0822
2018_02_13_S12 02/13/2018 06:05:00 0.2046
2018_02_13_S12 02/13/2018 06:10:00 0.4691
2018_02_13_S12 02/13/2018 06:15:00 0.5849
2018_02_13_S12 02/13/2018 06:20:00 0.8032
2018_02_13_S12 02/13/2018 06:25:00 0.412
2018_02_13_S12 02/13/2018 06:30:00 0.2112
2018_02_13_S12 02/13/2018 06:35:00 0.2272
2018_02_13_S12 02/13/2018 06:40:00 0.2848
2018_02_13_S12 02/13/2018 06:45:00 0.0641
2018_02_13_S12 02/13/2018 06:50:00 0.0094
2018_02_13_S12 02/13/2018 06:55:00 0.0
2018_02_13_S12 02/13/2018 07:00:00 0.0213
2018_02_13_S12 02/13/2018 07:05:00 0.0
2018_02_13_S12 02/13/2018 07:10:00 0.0983
2018_02_13_S12 02/13/2018 07:15:00 0.9364
2018_02_13_S12 02/13/2018 07:20:00 0.0
2018_02_13_S12 02/13/2018 07:25:00 0.0441
2018_02_13_S12 02/13/2018 07:30:00 1.107
2018_02_13_S12 02/13/2018 07:35:00 0.1044
2018_02_13_S12 02/13/2018 07:40:00 0.0
2018_02_13_S12 02/13/2018 07:45:00 0.0
2018_02_13_S12 02/13/2018 07:50:00 0.0
2018_02_13_S12 02/13/2018 07:55:00 0.0
2018_02_13_S12 02/13/2018 08:00:00 0.0

2018_02_13_S13 02/12/2018 19:55:00 0.0436
2018_02_13_S13 02/12/2018 20:00:00 0.0635
2018_02_13_S13 02/12/2018 20:05:00 0.0697
2018_02_13_S13 02/12/2018 20:10:00 0.0884
2018_02_13_S13 02/12/2018 20:15:00 0.1043
2018_02_13_S13 02/12/2018 20:20:00 0.1096
2018_02_13_S13 02/12/2018 20:25:00 0.1382
2018_02_13_S13 02/12/2018 20:30:00 0.1494
2018_02_13_S13 02/12/2018 20:35:00 0.0937
2018_02_13_S13 02/12/2018 20:40:00 0.1155
2018_02_13_S13 02/12/2018 20:45:00 0.0575
2018_02_13_S13 02/12/2018 20:50:00 0.0384
2018_02_13_S13 02/12/2018 20:55:00 0.0453
2018_02_13_S13 02/12/2018 21:00:00 0.0565
2018_02_13_S13 02/12/2018 21:05:00 0.0285
2018_02_13_S13 02/12/2018 21:10:00 0.0266
2018_02_13_S13 02/12/2018 21:15:00 0.0553
2018_02_13_S13 02/12/2018 21:20:00 0.047
2018_02_13_S13 02/12/2018 21:25:00 0.0807
2018_02_13_S13 02/12/2018 21:30:00 0.0529
2018_02_13_S13 02/12/2018 21:35:00 0.0345
2018_02_13_S13 02/12/2018 21:40:00 0.0399
2018_02_13_S13 02/12/2018 21:45:00 0.0552
2018_02_13_S13 02/12/2018 21:50:00 0.051
2018_02_13_S13 02/12/2018 21:55:00 0.0682
2018_02_13_S13 02/12/2018 22:00:00 0.0515
2018_02_13_S13 02/12/2018 22:05:00 0.0438
2018_02_13_S13 02/12/2018 22:10:00 0.0472
2018_02_13_S13 02/12/2018 22:15:00 0.0422
2018_02_13_S13 02/12/2018 22:20:00 0.037
2018_02_13_S13 02/12/2018 22:25:00 0.0469
2018_02_13_S13 02/12/2018 22:30:00 0.0378
2018_02_13_S13 02/12/2018 22:35:00 0.0535
2018_02_13_S13 02/12/2018 22:40:00 0.0482
2018_02_13_S13 02/12/2018 22:45:00 0.0512
2018_02_13_S13 02/12/2018 22:50:00 0.0411
2018_02_13_S13 02/12/2018 22:55:00 0.0726
2018_02_13_S13 02/12/2018 23:00:00 0.085
2018_02_13_S13 02/12/2018 23:05:00 0.0799
2018_02_13_S13 02/12/2018 23:10:00 0.0923
2018_02_13_S13 02/12/2018 23:15:00 0.1001
2018_02_13_S13 02/12/2018 23:20:00 0.133
2018_02_13_S13 02/12/2018 23:25:00 0.1023
2018_02_13_S13 02/12/2018 23:30:00 0.1285
2018_02_13_S13 02/12/2018 23:35:00 0.1013
2018_02_13_S13 02/12/2018 23:40:00 0.0764
2018_02_13_S13 02/12/2018 23:45:00 0.083
2018_02_13_S13 02/12/2018 23:50:00 0.082
2018_02_13_S13 02/12/2018 23:55:00 0.0575
2018_02_13_S13 02/13/2018 00:00:00 0.0839
2018_02_13_S13 02/13/2018 00:05:00 0.063
2018_02_13_S13 02/13/2018 00:10:00 0.1055
2018_02_13_S13 02/13/2018 00:15:00 0.0482
2018_02_13_S13 02/13/2018 00:20:00 0.0094
2018_02_13_S13 02/13/2018 00:25:00 0.031
2018_02_13_S13 02/13/2018 00:30:00 0.0594
2018_02_13_S13 02/13/2018 00:35:00 0.0775
2018_02_13_S13 02/13/2018 00:40:00 0.0356
2018_02_13_S13 02/13/2018 00:45:00 0.0149
2018_02_13_S13 02/13/2018 00:50:00 0.029
2018_02_13_S13 02/13/2018 00:55:00 0.0662
2018_02_13_S13 02/13/2018 01:00:00 0.0401
2018_02_13_S13 02/13/2018 01:05:00 0.0318
2018_02_13_S13 02/13/2018 01:10:00 0.0396
2018_02_13_S13 02/13/2018 01:15:00 0.0692
2018_02_13_S13 02/13/2018 01:20:00 0.0655
2018_02_13_S13 02/13/2018 01:25:00 0.0326
2018_02_13_S13 02/13/2018 01:30:00 0.0257
2018_02_13_S13 02/13/2018 01:35:00 0.034
2018_02_13_S13 02/13/2018 01:40:00 0.0088
2018_02_13_S13 02/13/2018 01:45:00 0.0138
2018_02_13_S13 02/13/2018 01:50:00 0.0094
2018_02_13_S13 02/13/2018 01:55:00 0.0199
2018_02_13_S13 02/13/2018 02:00:00 0.014
2018_02_13_S13 02/13/2018 02:05:00 0.045
2018_02_13_S13 02/13/2018 02:10:00 0.0215
2018_02_13_S13 02/13/2018 02:15:00 0.011
2018_02_13_S13 02/13/2018 02:20:00 0.0105
2018_02_13_S13 02/13/2018 02:25:00 0.012
2018_02_13_S13 02/13/2018 02:30:00 0.0067
2018_02_13_S13 02/13/2018 02:35:00 0.0191
2018_02_13_S13 02/13/2018 02:40:00 0.064
2018_02_13_S13 02/13/2018 02:45:00 0.1412
2018_02_13_S13 02/13/2018 02:50:00 0.0922
2018_02_13_S13 02/13/2018 02:55:00 0.0742
2018_02_13_S13 02/13/2018 03:00:00 0.0661
2018_02_13_S13 02/13/2018 03:05:00 0.0613
2018_02_13_S13 02/13/2018 03:10:00 0.0525
2018_02_13_S13 02/13/2018 03:15:00 0.0317
2018_02_13_S13 02/13/2018 03:20:00 0.0352
2018_02_13_S13 02/13/2018 03:25:00 0.053
2018_02_13_S13 02/13/2018 03:30:00 0.104
2018_02_13_S13 02/13/2018 03:35:00 0.447
2018_02_13_S13 02/13/2018 03:40:00 0.3211
2018_02_13_S13 02/13/2018 03:45:00 0.6481
2018_02_13_S13 02/13/2018 03:50:00 0.2703
2018_02_13_S13 02/13/2018 03:55:00 1.1167
2018_02_13_S13 02/13/2018 04:00:00 0.12
2018_02_13_S13 02/13/2018 04:05:00 0.2817
2018_02_13_S13 02/13/2018 04:10:00 0.1342
2018_02_13_S13 02/13/2018 04:15:00 0.3034
2018_02_13_S13 02/13/2018 04:20:00 0.3233
2018_02_13_S13 02/13/2018 04:25:00 0.4177
2018_02_13_S13 02/13/2018 04:30:00 0.168
2018_02_13_S13 02/13/2018 04:35:00 0.2384
2018_02_13_S13 02/13/2018 04:40:00 0.5705
2018_02_13_S13 02/13/2018 04:45:00 1.0051
2018_02_13_S13 02/13/2018 04:50:00 0.531
2018_02_13_S13 02/13/2018 04:55:00 0.3925
2018_02_13_S13 02/13/2018 05:00:00 1.0187
2018_02_13_S13 02/13/2018 05:05:00 1.6552
2018_02_13_S13 02/13/2018 05:10:00 0.9588
2018_02_13_S13 02/13/2018 05:15:00 0.296
2018_02_13_S13 02/13/2018 05:20:00 0.201
2018_02_13_S13 02/13/2018 05:25:00 0.7996
2018_02_13_S13 02/13/2018 05:30:00 0.7342
2018_02_13_S13 02/13/2018 05:35:00 0.465
2018_02_13_S13 02/13/2018 05:40:00 0.4083
2018_02_13_S13 02/13/2018 05:45:00 0.7528
2018_02_13_S13 02/13/2018 05:50:00 0.3105
2018_02_13_S13 02/13/2018 05:55:00 0.284
2018_02_13_S13 02/13/2018 06:00:00 0.1412
2018_02_13_S13 02/13/2018 06:05:00 0.1893
2018_02_13_S13 02/13/2018 06:10:00 0.4181
2018_02_13_S13 02/13/2018 06:15:00 0.7203
2018_02_13_S13 02/13/2018 06:20:00 0.765
2018_02_13_S13 02/13/2018 06:25:00 0.6256
2018_02_13_S13 02/13/2018 06:30:00 0.2653
2018_02_13_S13 02/13/2018 06:35:00 0.1968
2018_02_13_S13 02/13/2018 06:40:00 0.4458
2018_02_13_S13 02/13/2018 06:45:00 0.0784
2018_02_13_S13 02/13/2018 06:50:00 0.0206
2018_02_13_S13 02/13/2018 06:55:00 0.0004
2018_02_13_S13 02/13/2018 07:00:00 0.2135
2018_02_13_S13 02/13/2018 07:05:00 0.0673
2018_02_13_S13 02/13/2018 07:10:00 0.0825
2018_02_13_S13 02/13/2018 07:15:00 0.2225
2018_02_13_S13 02/13/2018 07:20:00 0.0
2018_02_13_S13 02/13/2018 07:25:00 0.0015
2018_02_13_S13 02/13/2018 07:30:00 0.5637
2018_02_13_S13 02/13/2018 07:35:00 0.0304
2018_02_13_S13 02/13/2018 07:40:00 0.0161
2018_02_13_S13 02/13/2018 07:45:00 0.0
2018_02_13_S13 02/13/2018 07:50:00 0.0
2018_02_13_S13 02/13/2018 07:55:00 0.0
2018_02_13_S13 02/13/2018 08:00:00 0.0

2018_02_13_S14 02/12/2018 19:55:00 0.0557
2018_02_13_S14 02/12/2018 20:00:00 0.0727
2018_02_13_S14 02/12/2018 20:05:00 0.0782
2018_02_13_S14 02/12/2018 20:10:00 0.1007
2018_02_13_S14 02/12/2018 20:15:00 0.1127
2018_02_13_S14 02/12/2018 20:20:00 0.12
2018_02_13_S14 02/12/2018 20:25:00 0.1581
2018_02_13_S14 02/12/2018 20:30:00 0.1538
2018_02_13_S14 02/12/2018 20:35:00 0.095
2018_02_13_S14 02/12/2018 20:40:00 0.1249
2018_02_13_S14 02/12/2018 20:45:00 0.0533
2018_02_13_S14 02/12/2018 20:50:00 0.0401
2018_02_13_S14 02/12/2018 20:55:00 0.0327
2018_02_13_S14 02/12/2018 21:00:00 0.0667
2018_02_13_S14 02/12/2018 21:05:00 0.029
2018_02_13_S14 02/12/2018 21:10:00 0.0235
2018_02_13_S14 02/12/2018 21:15:00 0.0561
2018_02_13_S14 02/12/2018 21:20:00 0.0468
2018_02_13_S14 02/12/2018 21:25:00 0.0783
2018_02_13_S14 02/12/2018 21:30:00 0.0629
2018_02_13_S14 02/12/2018 21:35:00 0.0311
2018_02_13_S14 02/12/2018 21:40:00 0.0458
2018_02_13_S14 02/12/2018 21:45:00 0.052
2018_02_13_S14 02/12/2018 21:50:00 0.0544
2018_02_13_S14 02/12/2018 21:55:00 0.0749
2018_02_13_S14 02/12/2018 22:00:00 0.0504
2018_02_13_S14 02/12/2018 22:05:00 0.043
2018_02_13_S14 02/12/2018 22:10:00 0.051
2018_02_13_S14 02/12/2018 22:15:00 0.0436
2018_02_13_S14 02/12/2018 22:20:00 0.0382
2018_02_13_S14 02/12/2018 22:25:00 0.0464
2018_02_13_S14 02/12/2018 22:30:00 0.0368
2018_02_13_S14 02/12/2018 22:35:00 0.0496
2018_02_13_S14 02/12/2018 22:40:00 0.0556
2018_02_13_S14 02/12/2018 22:45:00 0.0582
2018_02_13_S14 02/12/2018 22:50:00 0.0414
2018_02_13_S14 02/12/2018 22:55:00 0.0798
2018_02_13_S14 02/12/2018 23:00:00 0.0784
2018_02_13_S14 02/12/2018 23:05:00 0.0723
2018_02_13_S14 02/12/2018 23:10:00 0.0826
2018_02_13_S14 02/12/2018 23:15:00 0.1093
2018_02_13_S14 02/12/2018 23:20:00 0.1132
2018_02_13_S14 02/12/2018 23:25:00 0.0946
2018_02_13_S14 02/12/2018 23:30:00 0.1098
2018_02_13_S14 02/12/2018 23:35:00 0.0945
2018_02_13_S14 02/12/2018 23:40:00 0.0608
2018_02_13_S14 02/12/2018 23:45:00 0.0814
2018_02_13_S14 02/12/2018 23:50:00 0.0863
2018_02_13_S14 02/12/2018 23:55:00 0.0667
2018_02_13_S14 02/13/2018 00:00:00 0.072
2018_02_13_S14 02/13/2018 00:05:00 0.0723
2018_02_13_S14 02/13/2018 00:10:00 0.1379
2018_02_13_S14 02/13/2018 00:15:00 0.071
2018_02_13_S14 02/13/2018 00:20:00 0.0097
2018_02_13_S14 02/13/2018 00:25:00 0.0131
2018_02_13_S14 02/13/2018 00:30:00 0.0593
2018_02_13_S14 02/13/2018 00:35:00 0.0635
2018_02_13_S14 02/13/2018 00:40:00 0.0339
2018_02_13_S14 02/13/2018 00:45:00 0.0182
2018_02_13_S14 02/13/2018 00:50:00 0.0328
2018_02_13_S14 02/13/2018 00:55:00 0.0815
2018_02_13_S14 02/13/2018 01:00:00 0.038
2018_02_13_S14 02/13/2018 01:05:00 0.0372
2018_02_13_S14 02/13/2018 01:10:00 0.0371
2018_02_13_S14 02/13/2018 01:15:00 0.0574
2018_02_13_S14 02/13/2018 01:20:00 0.0764
2018_02_13_S14 02/13/2018 01:25:00 0.0406
2018_02_13_S14 02/13/2018 01:30:00 0.0269
2018_02_13_S14 02/13/2018 01:35:00 0.0346
2018_02_13_S14 02/13/2018 01:40:00 0.0091
2018_02_13_S14 02/13/2018 01:45:00 0.0108
2018_02_13_S14 02/13/2018 01:50:00 0.0085
2018_02_13_S14 02/13/2018 01:55:00 0.0146
2018_02_13_S14 02/13/2018 02:00:00 0.0125
2018_02_13_S14 02/13/2018 02:05:00 0.0221
2018_02_13_S14 02/13/2018 02:10:00 0.0316
2018_02_13_S14 02/13/2018 02:15:00 0.0073
2018_02_13_S14 02/13/2018 02:20:00 0.0137
2018_02_13_S14 02/13/2018 02:25:00 0.0173
2018_02_13_S14 02/13/2018 02:30:00 0.0005
2018_02_13_S14 02/13/2018 02:35:00 0.0159
2018_02_13_S14 02/13/2018 02:40:00 0.0494
2018_02_13_S14 02/13/2018 02:45:00 0.1489
2018_02_13_S14 02/13/2018 02:50:00 0.0511
2018_02_13_S14 02/13/2018 02:55:00 0.0769
2018_02_13_S14 02/13/2018 03:00:00 0.0795
2018_02_13_S14 02/13/2018 03:05:00 0.0664
2018_02_13_S14 02/13/2018 03:10:00 0.0515
2018_02_13_S14 02/13/2018 03:15:00 0.0217
2018_02_13_S14 02/13/2018 03:20:00 0.0392
2018_02_13_S14 02/13/2018 03:25:00 0.0552
2018_02_13_S14 02/13/2018 03:30:00 0.0815
2018_02_13_S14 02/13/2018 03:35:00 0.346
2018_02_13_S14 02/13/2018 03:40:00 0.2871
2018_02_13_S14 02/13/2018 03:45:00 0.3977
2018_02_13_S14 02/13/2018 03:50:00 0.3028
2018_02_13_S14 02/13/2018 03:55:00 0.701
2018_02_13_S14 02/13/2018 04:00:00 0.1854
2018_02_13_S14 02/13/2018 04:05:00 0.2972
2018_02_13_S14 02/13/2018 04:10:00 0.1725
2018_02_13_S14 02/13/2018 04:15:00 0.3961
2018_02_13_S14 02/13/2018 04:20:00 0.2984
2018_02_13_S14 02/13/2018 04:25:00 0.3584
2018_02_13_S14 02/13/2018 04:30:00 0.2181
2018_02_13_S14 02/13/2018 04:35:00 0.257
2018_02_13_S14 02/13/2018 04:40:00 0.5238
2018_02_13_S14 02/13/2018 04:45:00 1.0605
2018_02_13_S14 02/13/2018 04:50:00 0.4096
2018_02_13_S14 02/13/2018 04:55:00 0.4182
2018_02_13_S14 02/13/2018 05:00:00 0.9219
2018_02_13_S14 02/13/2018 05:05:00 1.6673
2018_02_13_S14 02/13/2018 05:10:00 1.0483
2018_02_13_S14 02/13/2018 05:15:00 0.4244
2018_02_13_S14 02/13/2018 05:20:00 0.2281
2018_02_13_S14 02/13/2018 05:25:00 0.4817
2018_02_13_S14 02/13/2018 05:30:00 0.7468
2018_02_13_S14 02/13/2018 05:35:00 0.3229
2018_02_13_S14 02/13/2018 05:40:00 0.3065
2018_02_13_S14 02/13/2018 05:45:00 0.8824
2018_02_13_S14 02/13/2018 05:50:00 0.3035
2018_02_13_S14 02/13/2018 05:55:00 0.349
2018_02_13_S14 02/13/2018 06:00:00 0.1882
2018_02_13_S14 02/13/2018 06:05:00 0.1894
2018_02_13_S14 02/13/2018 06:10:00 0.4687
2018_02_13_S14 02/13/2018 06:15:00 0.5666
2018_02_13_S14 02/13/2018 06:20:00 1.0547
2018_02_13_S14 02/13/2018 06:25:00 0.6912
2018_02_13_S14 02/13/2018 06:30:00 0.3041
2018_02_13_S14 02/13/2018 06:35:00 0.2
2018_02_13_S14 02/13/2018 06:40:00 0.4671
2018_02_13_S14 02/13/2018 06:45:00 0.0763
2018_02_13_S14 02/13/2018 06:50:00 0.0275
2018_02_13_S14 02/13/2018 06:55:00 0.0
2018_02_13_S14 02/13/2018 07:00:00 0.4373
2018_02_13_S14 02/13/2018 07:05:00 0.5846
2018_02_13_S14 02/13/2018 07:10:00 0.2951
2018_02_13_S14 02/13/2018 07:15:00 0.0039
2018_02_13_S14 02/13/2018 07:20:00 0.0
2018_02_13_S14 02/13/2018 07:25:00 0.0013
2018_02_13_S14 02/13/2018 07:30:00 0.2612
2018_02_13_S14 02/13/2018 07:35:00 0.0097
2018_02_13_S14 02/13/2018 07:40:00 0.058
2018_02_13_S14 02/13/2018 07:45:00 0.0
2018_02_13_S14 02/13/2018 07:50:00 0.0
2018_02_13_S14 02/13/2018 07:55:00 0.0
2018_02_13_S14 02/13/2018 08:00:00 0.0

2018_02_13_S15 02/12/2018 19:55:00 0.039
2018_02_13_S15 02/12/2018 20:00:00 0.066
2018_02_13_S15 02/12/2018 20:05:00 0.0616
2018_02_13_S15 02/12/2018 20:10:00 0.0902
2018_02_13_S15 02/12/2018 20:15:00 0.1176
2018_02_13_S15 02/12/2018 20:20:00 0.1063
2018_02_13_S15 02/12/2018 20:25:00 0.1381
2018_02_13_S15 02/12/2018 20:30:00 0.1674
2018_02_13_S15 02/12/2018 20:35:00 0.0944
2018_02_13_S15 02/12/2018 20:40:00 0.1244
2018_02_13_S15 02/12/2018 20:45:00 0.0608
2018_02_13_S15 02/12/2018 20:50:00 0.0435
2018_02_13_S15 02/12/2018 20:55:00 0.0375
2018_02_13_S15 02/12/2018 21:00:00 0.0652
2018_02_13_S15 02/12/2018 21:05:00 0.0316
2018_02_13_S15 02/12/2018 21:10:00 0.0302
2018_02_13_S15 02/12/2018 21:15:00 0.0557
2018_02_13_S15 02/12/2018 21:20:00 0.0433
2018_02_13_S15 02/12/2018 21:25:00 0.0869
2018_02_13_S15 02/12/2018 21:30:00 0.059
2018_02_13_S15 02/12/2018 21:35:00 0.039
2018_02_13_S15 02/12/2018 21:40:00 0.0413
2018_02_13_S15 02/12/2018 21:45:00 0.0601
2018_02_13_S15 02/12/2018 21:50:00 0.0586
2018_02_13_S15 02/12/2018 21:55:00 0.0736
2018_02_13_S15 02/12/2018 22:00:00 0.0582
2018_02_13_S15 02/12/2018 22:05:00 0.0472
2018_02_13_S15 02/12/2018 22:10:00 0.0429
2018_02_13_S15 02/12/2018 22:15:00 0.0459
2018_02_13_S15 02/12/2018 22:20:00 0.0382
2018_02_13_S15 02/12/2018 22:25:00 0.0452
2018_02_13_S15 02/12/2018 22:30:00 0.0378
2018_02_13_S15 02/12/2018 22:35:00 0.0502
2018_02_13_S15 02/12/2018 22:40:00 0.0547
2018_02_13_S15 02/12/2018 22:45:00 0.0507
2018_02_13_S15 02/12/2018 22:50:00 0.0424
2018_02_13_S15 02/12/2018 22:55:00 0.063
2018_02_13_S15 02/12/2018 23:00:00 0.0791
2018_02_13_S15 02/12/2018 23:05:00 0.0805
2018_02_13_S15 02/12/2018 23:10:00 0.0878
2018_02_13_S15 02/12/2018 23:15:00 0.0943
2018_02_13_S15 02/12/2018 23:20:00 0.1175
2018_02_13_S15 02/12/2018 23:25:00 0.1007
2018_02_13_S15 02/12/2018 23:30:00 0.1337
2018_02_13_S15 02/12/2018 23:35:00 0.1053
2018_02_13_S15 02/12/2018 23:40:00 0.0824
2018_02_13_S15 02/12/2018 23:45:00 0.0778
2018_02_13_S15 02/12/2018 23:50:00 0.0842
2018_02_13_S15 02/12/2018 23:55:00 0.052
2018_02_13_S15 02/13/2018 00:00:00 0.078
2018_02_13_S15 02/13/2018 00:05:00 0.0677
2018_02_13_S15 02/13/2018 00:10:00 0.0956
2018_02_13_S15 02/13/2018 00:15:00 0.0636
2018_02_13_S15 02/13/2018 00:20:00 0.0143
2018_02_13_S15 02/13/2018 00:25:00 0.0121
2018_02_13_S15 02/13/2018 00:30:00 0.0581
2018_02_13_S15 02/13/2018 00:35:00 0.0763
2018_02_13_S15 02/13/2018 00:40:00 0.0519
2018_02_13_S15 02/13/2018 00:45:00 0.0169
2018_02_13_S15 02/13/2018 00:50:00 0.0257
2018_02_13_S15 02/13/2018 00:55:00 0.0734
2018_02_13_S15 02/13/2018 01:00:00 0.0406
2018_02_13_S15 02/13/2018 01:05:00 0.0261
2018_02_13_S15 02/13/2018 01:10:00 0.036
2018_02_13_S15 02/13/2018 01:15:00 0.0651
2018_02_13_S15 02/13/2018 01:20:00 0.0734
2018_02_13_S15 02/13/2018 01:25:00 0.0304
2018_02_13_S15 02/13/2018 01:30:00 0.02
2018_02_13_S15 02/13/2018 01:35:00 0.0387
2018_02_13_S15 02/13/2018 01:40:00 0.0092
2018_02_13_S15 02/13/2018 01:45:00 0.0211
2018_02_13_S15 02/13/2018 01:50:00 0.0145
2018_02_13_S15 02/13/2018 01:55:00 0.0203
2018_02_13_S15 02/13/2018 02:00:00 0.0163
2018_02_13_S15 02/13/2018 02:05:00 0.0209
2018_02_13_S15 02/13/2018 02:10:00 0.0315
2018_02_13_S15 02/13/2018 02:15:00 0.01
2018_02_13_S15 02/13/2018 02:20:00 0.0099
2018_02_13_S15 02/13/2018 02:25:00 0.012
2018_02_13_S15 02/13/2018 02:30:00 0.0057
2018_02_13_S15 02/13/2018 02:35:00 0.0189
2018_02_13_S15 02/13/2018 02:40:00 0.0344
2018_02_13_S15 02/13/2018 02:45:00 0.1207
2018_02_13_S15 02/13/2018 02:50:00 0.1213
2018_02_13_S15 02/13/2018 02:55:00 0.065
2018_02_13_S15 02/13/2018 03:00:00 0.0572
2018_02_13_S15 02/13/2018 03:05:00 0.0641
2018_02_13_S15 02/13/2018 03:10:00 0.0378
2018_02_13_S15 02/13/2018 03:15:00 0.0415
2018_02_13_S15 02/13/2018 03:20:00 0.0248
2018_02_13_S15 02/13/2018 03:25:00 0.0383
2018_02_13_S15 02/13/2018 03:30:00 0.0884
2018_02_13_S15 02/13/2018 03:35:00 0.4997
2018_02_13_S15 02/13/2018 03:40:00 0.3056
2018_02_13_S15 02/13/2018 03:45:00 0.6419
2018_02_13_S15 02/13/2018 03:50:00 0.2387
2018_02_13_S15 02/13/2018 03:55:00 0.9244
2018_02_13_S15 02/13/2018 04:00:00 0.169
2018_02_13_S15 02/13/2018 04:05:00 0.2718
2018_02_13_S15 02/13/2018 04:10:00 0.1488
2018_02_13_S15 02/13/2018 04:15:00 0.4183
2018_02_13_S15 02/13/2018 04:20:00 0.3774
2018_02_13_S15 02/13/2018 04:25:00 0.3105
2018_02_13_S15 02/13/2018 04:30:00 0.096
2018_02_13_S15 02/13/2018 04:35:00 0.1998
2018_02_13_S15 02/13/2018 04:40:00 0.4751
2018_02_13_S15 02/13/2018 04:45:00 1.0605
2018_02_13_S15 02/13/2018 04:50:00 0.6219
2018_02_13_S15 02/13/2018 04:55:00 0.4305
2018_02_13_S15 02/13/2018 05:00:00 0.4967
2018_02_13_S15 02/13/2018 05:05:00 1.3235
2018_02_13_S15 02/13/2018 05:10:00 1.4986
2018_02_13_S15 02/13/2018 05:15:00 0.4459
2018_02_13_S15 02/13/2018 05:20:00 0.1751
2018_02_13_S15 02/13/2018 05:25:00 0.2874
2018_02_13_S15 02/13/2018 05:30:00 0.8073
2018_02_13_S15 02/13/2018 05:35:00 0.3868
2018_02_13_S15 02/13/2018 05:40:00 0.4208
2018_02_13_S15 02/13/2018 05:45:00 0.8659
2018_02_13_S15 02/13/2018 05:50:00 0.5928
2018_02_13_S15 02/13/2018 05:55:00 0.358
2018_02_13_S15 02/13/2018 06:00:00 0.1033
2018_02_13_S15 02/13/2018 06:05:00 0.1351
2018_02_13_S15 02/13/2018 06:10:00 0.3962
2018_02_13_S15 02/13/2018 06:15:00 0.5537
2018_02_13_S15 02/13/2018 06:20:00 1.0611
2018_02_13_S15 02/13/2018 06:25:00 0.5176
2018_02_13_S15 02/13/2018 06:30:00 0.296
2018_02_13_S15 02/13/2018 06:35:00 0.1991
2018_02_13_S15 02/13/2018 06:40:00 0.3562
2018_02_13_S15 02/13/2018 06:45:00 0.1093
2018_02_13_S15 02/13/2018 06:50:00 0.0221
2018_02_13_S15 02/13/2018 06:55:00 0.0
2018_02_13_S15 02/13/2018 07:00:00 0.0334
2018_02_13_S15 02/13/2018 07:05:00 0.0246
2018_02_13_S15 02/13/2018 07:10:00 0.0283
2018_02_13_S15 02/13/2018 07:15:00 0.0556
2018_02_13_S15 02/13/2018 07:20:00 0.0117
2018_02_13_S15 02/13/2018 07:25:00 0.0023
2018_02_13_S15 02/13/2018 07:30:00 0.289
2018_02_13_S15 02/13/2018 07:35:00 0.0825
2018_02_13_S15 02/13/2018 07:40:00 0.0526
2018_02_13_S15 02/13/2018 07:45:00 0.0
2018_02_13_S15 02/13/2018 07:50:00 0.0
2018_02_13_S15 02/13/2018 07:55:00 0.0
2018_02_13_S15 02/13/2018 08:00:00 0.0

2018_02_13_S16 02/12/2018 19:55:00 0.0394
2018_02_13_S16 02/12/2018 20:00:00 0.0638
2018_02_13_S16 02/12/2018 20:05:00 0.0623
2018_02_13_S16 02/12/2018 20:10:00 0.0887
2018_02_13_S16 02/12/2018 20:15:00 0.1364
2018_02_13_S16 02/12/2018 20:20:00 0.1015
2018_02_13_S16 02/12/2018 20:25:00 0.115
2018_02_13_S16 02/12/2018 20:30:00 0.1838
2018_02_13_S16 02/12/2018 20:35:00 0.1094
2018_02_13_S16 02/12/2018 20:40:00 0.1227
2018_02_13_S16 02/12/2018 20:45:00 0.0626
2018_02_13_S16 02/12/2018 20:50:00 0.0435
2018_02_13_S16 02/12/2018 20:55:00 0.0349
2018_02_13_S16 02/12/2018 21:00:00 0.064
2018_02_13_S16 02/12/2018 21:05:00 0.0367
2018_02_13_S16 02/12/2018 21:10:00 0.0329
2018_02_13_S16 02/12/2018 21:15:00 0.052
2018_02_13_S16 02/12/2018 21:20:00 0.0445
2018_02_13_S16 02/12/2018 21:25:00 0.0715
2018_02_13_S16 02/12/2018 21:30:00 0.0495
2018_02_13_S16 02/12/2018 21:35:00 0.0389
2018_02_13_S16 02/12/2018 21:40:00 0.0424
2018_02_13_S16 02/12/2018 21:45:00 0.0596
2018_02_13_S16 02/12/2018 21:50:00 0.0558
2018_02_13_S16 02/12/2018 21:55:00 0.0758
2018_02_13_S16 02/12/2018 22:00:00 0.0649
2018_02_13_S16 02/12/2018 22:05:00 0.0406
2018_02_13_S16 02/12/2018 22:10:00 0.0438
2018_02_13_S16 02/12/2018 22:15:00 0.0442
2018_02_13_S16 02/12/2018 22:20:00 0.035
2018_02_13_S16 02/12/2018 22:25:00 0.0466
2018_02_13_S16 02/12/2018 22:30:00 0.0392
2018_02_13_S16 02/12/2018 22:35:00 0.052
2018_02_13_S16 02/12/2018 22:40:00 0.0541
2018_02_13_S16 02/12/2018 22:45:00 0.0532
2018_02_13_S16 02/12/2018 22:50:00 0.045
2018_02_13_S16 02/12/2018 22:55:00 0.0621
2018_02_13_S16 02/12/2018 23:00:00 0.0819
2018_02_13_S16 02/12/2018 23:05:00 0.0776
2018_02_13_S16 02/12/2018 23:10:00 0.0944
2018_02_13_S16 02/12/2018 23:15:00 0.0961
2018_02_13_S16 02/12/2018 23:20:00 0.1111
2018_02_13_S16 02/12/2018 23:25:00 0.0969
2018_02_13_S16 02/12/2018 23:30:00 0.1141
2018_02_13_S16 02/12/2018 23:35:00 0.1043
2018_02_13_S16 02/12/2018 23:40:00 0.0964
2018_02_13_S16 02/12/2018 23:45:00 0.0822
2018_02_13_S16 02/12/2018 23:50:00 0.0765
2018_02_13_S16 02/12/2018 23:55:00 0.0574
2018_02_13_S16 02/13/2018 00:00:00 0.0765
2018_02_13_S16 02/13/2018 00:05:00 0.0737
2018_02_13_S16 02/13/2018 00:10:00 0.0874
2018_02_13_S16 02/13/2018 00:15:00 0.0592
2018_02_13_S16 02/13/2018 00:20:00 0.0157
2018_02_13_S16 02/13/2018 00:25:00 0.0077
2018_02_13_S16 02/13/2018 00:30:00 0.0636
2018_02_13_S16 02/13/2018 00:35:00 0.0874
2018_02_13_S16 02/13/2018 00:40:00 0.0632
2018_02_13_S16 02/13/2018 00:45:00 0.02
2018_02_13_S16 02/13/2018 00:50:00 0.0239
2018_02_13_S16 02/13/2018 00:55:00 0.0786
2018_02_13_S16 02/13/2018 01:00:00 0.0407
2018_02_13_S16 02/13/2018 01:05:00 0.0235
2018_02_13_S16 02/13/2018 01:10:00 0.0242
2018_02_13_S16 02/13/2018 01:15:00 0.0584
2018_02_13_S16 02/13/2018 01:20:00 0.0749
2018_02_13_S16 02/13/2018 01:25:00 0.0328
2018_02_13_S16 02/13/2018 01:30:00 0.0173
2018_02_13_S16 02/13/2018 01:35:00 0.0374
2018_02_13_S16 02/13/2018 01:40:00 0.0094
2018_02_13_S16 02/13/2018 01:45:00 0.0237
2018_02_13_S16 02/13/2018 01:50:00 0.0192
2018_02_13_S16 02/13/2018 01:55:00 0.0157
2018_02_13_S16 02/13/2018 02:00:00 0.0165
2018_02_13_S16 02/13/2018 02:05:00 0.0149
2018_02_13_S16 02/13/2018 02:10:00 0.0399
2018_02_13_S16 02/13/2018 02:15:00 0.0082
2018_02_13_S16 02/13/2018 02:20:00 0.0101
2018_02_13_S16 02/13/2018 02:25:00 0.0136
2018_02_13_S16 02/13/2018 02:30:00 0.0071
2018_02_13_S16 02/13/2018 02:35:00 0.0171
2018_02_13_S16 02/13/2018 02:40:00 0.0282
2018_02_13_S16 02/13/2018 02:45:00 0.0919
2018_02_13_S16 02/13/2018 02:50:00 0.1102
2018_02_13_S16 02/13/2018 02:55:00 0.0572
2018_02_13_S16 02/13/2018 03:00:00 0.0459
2018_02_13_S16 02/13/2018 03:05:00 0.0675
2018_02_13_S16 02/13/2018 03:10:00 0.0364
2018_02_13_S16 02/13/2018 03:15:00 0.0333
2018_02_13_S16 02/13/2018 03:20:00 0.0244
2018_02_13_S16 02/13/2018 03:25:00 0.0359
2018_02_13_S16 02/13/2018 03:30:00 0.0732
2018_02_13_S16 02/13/2018 03:35:00 0.5148
2018_02_13_S16 02/13/2018 03:40:00 0.3134
2018_02_13_S16 02/13/2018 03:45:00 0.4195
2018_02_13_S16 02/13/2018 03:50:00 0.2543
2018_02_13_S16 02/13/2018 03:55:00 0.6755
2018_02_13_S16 02/13/2018 04:00:00 0.2352
2018_02_13_S16 02/13/2018 04:05:00 0.2214
2018_02_13_S16 02/13/2018 04:10:00 0.1525
2018_02_13_S16 02/13/2018 04:15:00 0.3413
2018_02_13_S16 02/13/2018 04:20:00 0.312
2018_02_13_S16 02/13/2018 04:25:00 0.2672
2018_02_13_S16 02/13/2018 04:30:00 0.1431
2018_02_13_S16 02/13/2018 04:35:00 0.2345
2018_02_13_S16 02/13/2018 04:40:00 0.3966
2018_02_13_S16 02/13/2018 04:45:00 0.6317
2018_02_13_S16 02/13/2018 04:50:00 0.8572
2018_02_13_S16 02/13/2018 04:55:00 0.4694
2018_02_13_S16 02/13/2018 05:00:00 0.5416
2018_02_13_S16 02/13/2018 05:05:00 1.4565
2018_02_13_S16 02/13/2018 05:10:00 1.8963
2018_02_13_S16 02/13/2018 05:15:00 0.5132
2018_02_13_S16 02/13/2018 05:20:00 0.1664
2018_02_13_S16 02/13/2018 05:25:00 0.1768
2018_02_13_S16 02/13/2018 05:30:00 1.0696
2018_02_13_S16 02/13/2018 05:35:00 0.407
2018_02_13_S16 02/13/2018 05:40:00 0.5814
2018_02_13_S16 02/13/2018 05:45:00 0.7806
2018_02_13_S16 02/13/2018 05:50:00 0.7491
2018_02_13_S16 02/13/2018 05:55:00 0.3772
2018_02_13_S16 02/13/2018 06:00:00 0.0868
2018_02_13_S16 02/13/2018 06:05:00 0.1082
2018_02_13_S16 02/13/2018 06:10:00 0.4138
2018_02_13_S16 02/13/2018 06:15:00 0.4868
2018_02_13_S16 02/13/2018 06:20:00 1.3012
2018_02_13_S16 02/13/2018 06:25:00 0.4923
2018_02_13_S16 02/13/2018 06:30:00 0.2926
2018_02_13_S16 02/13/2018 06:35:00 0.2542
2018_02_13_S16 02/13/2018 06:40:00 0.3337
2018_02_13_S16 02/13/2018 06:45:00 0.154
2018_02_13_S16 02/13/2018 06:50:00 0.0264
2018_02_13_S16 02/13/2018 06:55:00 0.0
2018_02_13_S16 02/13/2018 07:00:00 0.0311
2018_02_13_S16 02/13/2018 07:05:00 0.0349
2018_02_13_S16 02/13/2018 07:10:00 0.0246
2018_02_13_S16 02/13/2018 07:15:00 0.1792
2018_02_13_S16 02/13/2018 07:20:00 0.1362
2018_02_13_S16 02/13/2018 07:25:00 0.0104
2018_02_13_S16 02/13/2018 07:30:00 0.187
2018_02_13_S16 02/13/2018 07:35:00 0.3159
2018_02_13_S16 02/13/2018 07:40:00 0.1021
2018_02_13_S16 02/13/2018 07:45:00 0.0022
2018_02_13_S16 02/13/2018 07:50:00 0.0
2018_02_13_S16 02/13/2018 07:55:00 0.0
2018_02_13_S16 02/13/2018 08:00:00 0.0

2018_02_13_S17 02/12/2018 19:55:00 0.0498
2018_02_13_S17 02/12/2018 20:00:00 0.0721
2018_02_13_S17 02/12/2018 20:05:00 0.0678
2018_02_13_S17 02/12/2018 20:10:00 0.0926
2018_02_13_S17 02/12/2018 20:15:00 0.142
2018_02_13_S17 02/12/2018 20:20:00 0.1312
2018_02_13_S17 02/12/2018 20:25:00 0.1265
2018_02_13_S17 02/12/2018 20:30:00 0.1661
2018_02_13_S17 02/12/2018 20:35:00 0.1071
2018_02_13_S17 02/12/2018 20:40:00 0.1282
2018_02_13_S17 02/12/2018 20:45:00 0.0632
2018_02_13_S17 02/12/2018 20:50:00 0.0394
2018_02_13_S17 02/12/2018 20:55:00 0.0323
2018_02_13_S17 02/12/2018 21:00:00 0.0642
2018_02_13_S17 02/12/2018 21:05:00 0.0319
2018_02_13_S17 02/12/2018 21:10:00 0.0284
2018_02_13_S17 02/12/2018 21:15:00 0.0596
2018_02_13_S17 02/12/2018 21:20:00 0.0523
2018_02_13_S17 02/12/2018 21:25:00 0.0832
2018_02_13_S17 02/12/2018 21:30:00 0.0587
2018_02_13_S17 02/12/2018 21:35:00 0.0365
2018_02_13_S17 02/12/2018 21:40:00 0.0457
2018_02_13_S17 02/12/2018 21:45:00 0.0614
2018_02_13_S17 02/12/2018 21:50:00 0.0634
2018_02_13_S17 02/12/2018 21:55:00 0.0716
2018_02_13_S17 02/12/2018 22:00:00 0.0596
2018_02_13_S17 02/12/2018 22:05:00 0.0449
2018_02_13_S17 02/12/2018 22:10:00 0.0511
2018_02_13_S17 02/12/2018 22:15:00 0.0433
2018_02_13_S17 02/12/2018 22:20:00 0.0399
2018_02_13_S17 02/12/2018 22:25:00 0.0446
2018_02_13_S17 02/12/2018 22:30:00 0.0401
2018_02_13_S17 02/12/2018 22:35:00 0.053
2018_02_13_S17 02/12/2018 22:40:00 0.0588
2018_02_13_S17 02/12/2018 22:45:00 0.0567
2018_02_13_S17 02/12/2018 22:50:00 0.0442
2018_02_13_S17 02/12/2018 22:55:00 0.0708
2018_02_13_S17 02/12/2018 23:00:00 0.0794
2018_02_13_S17 02/12/2018 23:05:00 0.0748
2018_02_13_S17 02/12/2018 23:10:00 0.0877
2018_02_13_S17 02/12/2018 23:15:00 0.101
2018_02_13_S17 02/12/2018 23:20:00 0.1076
2018_02_13_S17 02/12/2018 23:25:00 0.0934
2018_02_13_S17 02/12/2018 23:30:00 0.0945
2018_02_13_S17 02/12/2018 23:35:00 0.1079
2018_02_13_S17 02/12/2018 23:40:00 0.0781
2018_02_13_S17 02/12/2018 23:45:00 0.0835
2018_02_13_S17 02/12/2018 23:50:00 0.0815
2018_02_13_S17 02/12/2018 23:55:00 0.0592
2018_02_13_S17 02/13/2018 00:00:00 0.0799
2018_02_13_S17 02/13/2018 00:05:00 0.0728
2018_02_13_S17 02/13/2018 00:10:00 0.1246
2018_02_13_S17 02/13/2018 00:15:00 0.0811
2018_02_13_S17 02/13/2018 00:20:00 0.0119
2018_02_13_S17 02/13/2018 00:25:00 0.0095
2018_02_13_S17 02/13/2018 00:30:00 0.0612
2018_02_13_S17 02/13/2018 00:35:00 0.0798
2018_02_13_S17 02/13/2018 00:40:00 0.045
2018_02_13_S17 02/13/2018 00:45:00 0.0191
2018_02_13_S17 02/13/2018 00:50:00 0.0301
2018_02_13_S17 02/13/2018 00:55:00 0.0846
2018_02_13_S17 02/13/2018 01:00:00 0.0396
2018_02_13_S17 02/13/2018 01:05:00 0.0269
2018_02_13_S17 02/13/2018 01:10:00 0.0306
2018_02_13_S17 02/13/2018 01:15:00 0.058
2018_02_13_S17 02/13/2018 01:20:00 0.0775
2018_02_13_S17 02/13/2018 01:25:00 0.0361
2018_02_13_S17 02/13/2018 01:30:00 0.0204
2018_02_13_S17 02/13/2018 01:35:00 0.0339
2018_02_13_S17 02/13/2018 01:40:00 0.0094
2018_02_13_S17 02/13/2018 01:45:00 0.0134
2018_02_13_S17 02/13/2018 01:50:00 0.0124
2018_02_13_S17 02/13/2018 01:55:00 0.0137
2018_02_13_S17 02/13/2018 02:00:00 0.0148
2018_02_13_S17 02/13/2018 02:05:00 0.0139
2018_02_13_S17 02/13/2018 02:10:00 0.0404
2018_02_13_S17 02/13/2018 02:15:00 0.0075
2018_02_13_S17 02/13/2018 02:20:00 0.0108
2018_02_13_S17 02/13/2018 02:25:00 0.0128
2018_02_13_S17 02/13/2018 02:30:00 0.0025
2018_02_13_S17 02/13/2018 02:35:00 0.0155
2018_02_13_S17 02/13/2018 02:40:00 0.035
2018_02_13_S17 02/13/2018 02:45:00 0.1454
2018_02_13_S17 02/13/2018 02:50:00 0.0744
2018_02_13_S17 02/13/2018 02:55:00 0.0683
2018_02_13_S17 02/13/2018 03:00:00 0.0642
2018_02_13_S17 02/13/2018 03:05:00 0.0651
2018_02_13_S17 02/13/2018 03:10:00 0.0468
2018_02_13_S17 02/13/2018 03:15:00 0.0292
2018_02_13_S17 02/13/2018 03:20:00 0.0278
2018_02_13_S17 02/13/2018 03:25:00 0.042
2018_02_13_S17 02/13/2018 03:30:00 0.0657
2018_02_13_S17 02/13/2018 03:35:00 0.4165
2018_02_13_S17 02/13/2018 03:40:00 0.3481
2018_02_13_S17 02/13/2018 03:45:00 0.4102
2018_02_13_S17 02/13/2018 03:50:00 0.3126
2018_02_13_S17 02/13/2018 03:55:00 0.5475
2018_02_13_S17 02/13/2018 04:00:00 0.2207
2018_02_13_S17 02/13/2018 04:05:00 0.2499
2018_02_13_S17 02/13/2018 04:10:00 0.138
2018_02_13_S17 02/13/2018 04:15:00 0.3474
2018_02_13_S17 02/13/2018 04:20:00 0.3109
2018_02_13_S17 02/13/2018 04:25:00 0.2253
2018_02_13_S17 02/13/2018 04:30:00 0.1492
2018_02_13_S17 02/13/2018 04:35:00 0.2726
2018_02_13_S17 02/13/2018 04:40:00 0.4284
2018_02_13_S17 02/13/2018 04:45:00 0.8637
2018_02_13_S17 02/13/2018 04:50:00 0.7647
2018_02_13_S17 02/13/2018 04:55:00 0.5555
2018_02_13_S17 02/13/2018 05:00:00 0.5894
2018_02_13_S17 02/13/2018 05:05:00 1.4983
2018_02_13_S17 02/13/2018 05:10:00 1.7338
2018_02_13_S17 02/13/2018 05:15:00 0.5075
2018_02_13_S17 02/13/2018 05:20:00 0.168
2018_02_13_S17 02/13/2018 05:25:00 0.2557
2018_02_13_S17 02/13/2018 05:30:00 0.9044
2018_02_13_S17 02/13/2018 05:35:00 0.3209
2018_02_13_S17 02/13/2018 05:40:00 0.4355
2018_02_13_S17 02/13/2018 05:45:00 0.9106
2018_02_13_S17 02/13/2018 05:50:00 0.456
2018_02_13_S17 02/13/2018 05:55:00 0.3354
2018_02_13_S17 02/13/2018 06:00:00 0.1578
2018_02_13_S17 02/13/2018 06:05:00 0.1666
2018_02_13_S17 02/13/2018 06:10:00 0.4331
2018_02_13_S17 02/13/2018 06:15:00 0.4955
2018_02_13_S17 02/13/2018 06:20:00 1.3246
2018_02_13_S17 02/13/2018 06:25:00 0.5824
2018_02_13_S17 02/13/2018 06:30:00 0.3315
2018_02_13_S17 02/13/2018 06:35:00 0.1932
2018_02_13_S17 02/13/2018 06:40:00 0.4534
2018_02_13_S17 02/13/2018 06:45:00 0.1177
2018_02_13_S17 02/13/2018 06:50:00 0.0285
2018_02_13_S17 02/13/2018 06:55:00 0.0
2018_02_13_S17 02/13/2018 07:00:00 0.1073
2018_02_13_S17 02/13/2018 07:05:00 0.9194
2018_02_13_S17 02/13/2018 07:10:00 0.0981
2018_02_13_S17 02/13/2018 07:15:00 0.0417
2018_02_13_S17 02/13/2018 07:20:00 0.0053
2018_02_13_S17 02/13/2018 07:25:00 0.0
2018_02_13_S17 02/13/2018 07:30:00 0.216
2018_02_13_S17 02/13/2018 07:35:00 0.1427
2018_02_13_S17 02/13/2018 07:40:00 0.1145
2018_02_13_S17 02/13/2018 07:45:00 0.0
2018_02_13_S17 02/13/2018 07:50:00 0.0
2018_02_13_S17 02/13/2018 07:55:00 0.0
2018_02_13_S17 02/13/2018 08:00:00 0.0

2018_02_13_S18 02/12/2018 19:55:00 0.0618
2018_02_13_S18 02/12/2018 20:00:00 0.0754
2018_02_13_S18 02/12/2018 20:05:00 0.0848
2018_02_13_S18 02/12/2018 20:10:00 0.121
2018_02_13_S18 02/12/2018 20:15:00 0.0973
2018_02_13_S18 02/12/2018 20:20:00 0.1431
2018_02_13_S18 02/12/2018 20:25:00 0.1356
2018_02_13_S18 02/12/2018 20:30:00 0.162
2018_02_13_S18 02/12/2018 20:35:00 0.1157
2018_02_13_S18 02/12/2018 20:40:00 0.1341
2018_02_13_S18 02/12/2018 20:45:00 0.0504
2018_02_13_S18 02/12/2018 20:50:00 0.0401
2018_02_13_S18 02/12/2018 20:55:00 0.035
2018_02_13_S18 02/12/2018 21:00:00 0.0566
2018_02_13_S18 02/12/2018 21:05:00 0.0309
2018_02_13_S18 02/12/2018 21:10:00 0.0265
2018_02_13_S18 02/12/2018 21:15:00 0.0644
2018_02_13_S18 02/12/2018 21:20:00 0.0535
2018_02_13_S18 02/12/2018 21:25:00 0.0702
2018_02_13_S18 02/12/2018 21:30:00 0.0576
2018_02_13_S18 02/12/2018 21:35:00 0.031
2018_02_13_S18 02/12/2018 21:40:00 0.0474
2018_02_13_S18 02/12/2018 21:45:00 0.0595
2018_02_13_S18 02/12/2018 21:50:00 0.052
2018_02_13_S18 02/12/2018 21:55:00 0.0678
2018_02_13_S18 02/12/2018 22:00:00 0.0546
2018_02_13_S18 02/12/2018 22:05:00 0.0464
2018_02_13_S18 02/12/2018 22:10:00 0.0509
2018_02_13_S18 02/12/2018 22:15:00 0.0453
2018_02_13_S18 02/12/2018 22:20:00 0.0417
2018_02_13_S18 02/12/2018 22:25:00 0.0474
2018_02_13_S18 02/12/2018 22:30:00 0.038
2018_02_13_S18 02/12/2018 22:35:00 0.05
2018_02_13_S18 02/12/2018 22:40:00 0.0496
2018_02_13_S18 02/12/2018 22:45:00 0.0533
2018_02_13_S18 02/12/2018 22:50:00 0.0422
2018_02_13_S18 02/12/2018 22:55:00 0.078
2018_02_13_S18 02/12/2018 23:00:00 0.0867
2018_02_13_S18 02/12/2018 23:05:00 0.0724
2018_02_13_S18 02/12/2018 23:10:00 0.0736
2018_02_13_S18 02/12/2018 23:15:00 0.1019
2018_02_13_S18 02/12/2018 23:20:00 0.1236
2018_02_13_S18 02/12/2018 23:25:00 0.1123
2018_02_13_S18 02/12/2018 23:30:00 0.0963
2018_02_13_S18 02/12/2018 23:35:00 0.0947
2018_02_13_S18 02/12/2018 23:40:00 0.0633
2018_02_13_S18 02/12/2018 23:45:00 0.0901
2018_02_13_S18 02/12/2018 23:50:00 0.0837
2018_02_13_S18 02/12/2018 23:55:00 0.0697
2018_02_13_S18 02/13/2018 00:00:00 0.0699
2018_02_13_S18 02/13/2018 00:05:00 0.0699
2018_02_13_S18 02/13/2018 00:10:00 0.1465
2018_02_13_S18 02/13/2018 00:15:00 0.0872
2018_02_13_S18 02/13/2018 00:20:00 0.0097
2018_02_13_S18 02/13/2018 00:25:00 0.0096
2018_02_13_S18 02/13/2018 00:30:00 0.0533
2018_02_13_S18 02/13/2018 00:35:00 0.0573
2018_02_13_S18 02/13/2018 00:40:00 0.0349
2018_02_13_S18 02/13/2018 00:45:00 0.0215
2018_02_13_S18 02/13/2018 00:50:00 0.0316
2018_02_13_S18 02/13/2018 00:55:00 0.0857
2018_02_13_S18 02/13/2018 01:00:00 0.0428
2018_02_13_S18 02/13/2018 01:05:00 0.0373
2018_02_13_S18 02/13/2018 01:10:00 0.0413
2018_02_13_S18 02/13/2018 01:15:00 0.0578
2018_02_13_S18 02/13/2018 01:20:00 0.0705
2018_02_13_S18 02/13/2018 01:25:00 0.0388
2018_02_13_S18 02/13/2018 01:30:00 0.0266
2018_02_13_S18 02/13/2018 01:35:00 0.0329
2018_02_13_S18 02/13/2018 01:40:00 0.0092
2018_02_13_S18 02/13/2018 01:45:00 0.0099
2018_02_13_S18 02/13/2018 01:50:00 0.0089
2018_02_13_S18 02/13/2018 01:55:00 0.0162
2018_02_13_S18 02/13/2018 02:00:00 0.0121
2018_02_13_S18 02/13/2018 02:05:00 0.0161
2018_02_13_S18 02/13/2018 02:10:00 0.0375
2018_02_13_S18 02/13/2018 02:15:00 0.0079
2018_02_13_S18 02/13/2018 02:20:00 0.0206
2018_02_13_S18 02/13/2018 02:25:00 0.0171
2018_02_13_S18 02/13/2018 02:30:00 0.0049
2018_02_13_S18 02/13/2018 02:35:00 0.0182
2018_02_13_S18 02/13/2018 02:40:00 0.0627
2018_02_13_S18 02/13/2018 02:45:00 0.0666
2018_02_13_S18 02/13/2018 02:50:00 0.0396
2018_02_13_S18 02/13/2018 02:55:00 0.0733
2018_02_13_S18 02/13/2018 03:00:00 0.0682
2018_02_13_S18 02/13/2018 03:05:00 0.0562
2018_02_13_S18 02/13/2018 03:10:00 0.0549
2018_02_13_S18 02/13/2018 03:15:00 0.0233
2018_02_13_S18 02/13/2018 03:20:00 0.0427
2018_02_13_S18 02/13/2018 03:25:00 0.0571
2018_02_13_S18 02/13/2018 03:30:00 0.112
2018_02_13_S18 02/13/2018 03:35:00 0.2876
2018_02_13_S18 02/13/2018 03:40:00 0.2858
2018_02_13_S18 02/13/2018 03:45:00 0.3368
2018_02_13_S18 02/13/2018 03:50:00 0.3265
2018_02_13_S18 02/13/2018 03:55:00 0.3962
2018_02_13_S18 02/13/2018 04:00:00 0.1566
2018_02_13_S18 02/13/2018 04:05:00 0.339
2018_02_13_S18 02/13/2018 04:10:00 0.1599
2018_02_13_S18 02/13/2018 04:15:00 0.3644
2018_02_13_S18 02/13/2018 04:20:00 0.2866
2018_02_13_S18 02/13/2018 04:25:00 0.2636
2018_02_13_S18 02/13/2018 04:30:00 0.1806
2018_02_13_S18 02/13/2018 04:35:00 0.2639
2018_02_13_S18 02/13/2018 04:40:00 0.5082
2018_02_13_S18 02/13/2018 04:45:00 0.879
2018_02_13_S18 02/13/2018 04:50:00 0.5226
2018_02_13_S18 02/13/2018 04:55:00 0.5776
2018_02_13_S18 02/13/2018 05:00:00 0.6756
2018_02_13_S18 02/13/2018 05:05:00 1.7701
2018_02_13_S18 02/13/2018 05:10:00 0.9643
2018_02_13_S18 02/13/2018 05:15:00 0.3704
2018_02_13_S18 02/13/2018 05:20:00 0.2017
2018_02_13_S18 02/13/2018 05:25:00 0.3362
2018_02_13_S18 02/13/2018 05:30:00 0.7948
2018_02_13_S18 02/13/2018 05:35:00 0.3414
2018_02_13_S18 02/13/2018 05:40:00 0.3678
2018_02_13_S18 02/13/2018 05:45:00 1.1337
2018_02_13_S18 02/13/2018 05:50:00 0.4084
2018_02_13_S18 02/13/2018 05:55:00 0.311
2018_02_13_S18 02/13/2018 06:00:00 0.1742
2018_02_13_S18 02/13/2018 06:05:00 0.2125
2018_02_13_S18 02/13/2018 06:10:00 0.4745
2018_02_13_S18 02/13/2018 06:15:00 0.5289
2018_02_13_S18 02/13/2018 06:20:00 0.9218
2018_02_13_S18 02/13/2018 06:25:00 0.6848
2018_02_13_S18 02/13/2018 06:30:00 0.2586
2018_02_13_S18 02/13/2018 06:35:00 0.1719
2018_02_13_S18 02/13/2018 06:40:00 0.4807
2018_02_13_S18 02/13/2018 06:45:00 0.0765
2018_02_13_S18 02/13/2018 06:50:00 0.029
2018_02_13_S18 02/13/2018 06:55:00 0.0
2018_02_13_S18 02/13/2018 07:00:00 0.1849
2018_02_13_S18 02/13/2018 07:05:00 3.1346
2018_02_13_S18 02/13/2018 07:10:00 0.5534
2018_02_13_S18 02/13/2018 07:15:00 0.0012
2018_02_13_S18 02/13/2018 07:20:00 0.0
2018_02_13_S18 02/13/2018 07:25:00 0.0076
2018_02_13_S18 02/13/2018 07:30:00 0.2262
2018_02_13_S18 02/13/2018 07:35:00 0.0167
2018_02_13_S18 02/13/2018 07:40:00 0.1484
2018_02_13_S18 02/13/2018 07:45:00 0.0
2018_02_13_S18 02/13/2018 07:50:00 0.0
2018_02_13_S18 02/13/2018 07:55:00 0.0
2018_02_13_S18 02/13/2018 08:00:00 0.0

2018_02_13_S19 02/12/2018 19:55:00 0.0572
2018_02_13_S19 02/12/2018 20:00:00 0.0793
2018_02_13_S19 02/12/2018 20:05:00 0.0743
2018_02_13_S19 02/12/2018 20:10:00 0.1104
2018_02_13_S19 02/12/2018 20:15:00 0.1039
2018_02_13_S19 02/12/2018 20:20:00 0.1413
2018_02_13_S19 02/12/2018 20:25:00 0.1614
2018_02_13_S19 02/12/2018 20:30:00 0.1892
2018_02_13_S19 02/12/2018 20:35:00 0.1262
2018_02_13_S19 02/12/2018 20:40:00 0.1268
2018_02_13_S19 02/12/2018 20:45:00 0.0498
2018_02_13_S19 02/12/2018 20:50:00 0.0442
2018_02_13_S19 02/12/2018 20:55:00 0.0311
2018_02_13_S19 02/12/2018 21:00:00 0.0498
2018_02_13_S19 02/12/2018 21:05:00 0.0334
2018_02_13_S19 02/12/2018 21:10:00 0.0293
2018_02_13_S19 02/12/2018 21:15:00 0.0579
2018_02_13_S19 02/12/2018 21:20:00 0.0502
2018_02_13_S19 02/12/2018 21:25:00 0.0836
2018_02_13_S19 02/12/2018 21:30:00 0.0598
2018_02_13_S19 02/12/2018 21:35:00 0.0361
2018_02_13_S19 02/12/2018 21:40:00 0.0423
2018_02_13_S19 02/12/2018 21:45:00 0.0517
2018_02_13_S19 02/12/2018 21:50:00 0.056
2018_02_13_S19 02/12/2018 21:55:00 0.0663
2018_02_13_S19 02/12/2018 22:00:00 0.0552
2018_02_13_S19 02/12/2018 22:05:00 0.0443
2018_02_13_S19 02/12/2018 22:10:00 0.0504
2018_02_13_S19 02/12/2018 22:15:00 0.0476
2018_02_13_S19 02/12/2018 22:20:00 0.0365
2018_02_13_S19 02/12/2018 22:25:00 0.0419
2018_02_13_S19 02/12/2018 22:30:00 0.0433
2018_02_13_S19 02/12/2018 22:35:00 0.0573
2018_02_13_S19 02/12/2018 22:40:00 0.0551
2018_02_13_S19 02/12/2018 22:45:00 0.0557
2018_02_13_S19 02/12/2018 22:50:00 0.0396
2018_02_13_S19 02/12/2018 22:55:00 0.0733
2018_02_13_S19 02/12/2018 23:00:00 0.0785
2018_02_13_S19 02/12/2018 23:05:00 0.0659
2018_02_13_S19 02/12/2018 23:10:00 0.0753
2018_02_13_S19 02/12/2018 23:15:00 0.0962
2018_02_13_S19 02/12/2018 23:20:00 0.1149
2018_02_13_S19 02/12/2018 23:25:00 0.103
2018_02_13_S19 02/12/2018 23:30:00 0.0975
2018_02_13_S19 02/12/2018 23:35:00 0.0975
2018_02_13_S19 02/12/2018 23:40:00 0.0642
2018_02_13_S19 02/12/2018 23:45:00 0.0871
2018_02_13_S19 02/12/2018 23:50:00 0.0877
2018_02_13_S19 02/12/2018 23:55:00 0.0634
2018_02_13_S19 02/13/2018 00:00:00 0.0731
2018_02_13_S19 02/13/2018 00:05:00 0.0706
2018_02_13_S19 02/13/2018 00:10:00 0.1536
2018_02_13_S19 02/13/2018 00:15:00 0.0885
2018_02_13_S19 02/13/2018 00:20:00 0.0099
2018_02_13_S19 02/13/2018 00:25:00 0.0083
2018_02_13_S19 02/13/2018 00:30:00 0.0575
2018_02_13_S19 02/13/2018 00:35:00 0.0489
2018_02_13_S19 02/13/2018 00:40:00 0.0381
2018_02_13_S19 02/13/2018 00:45:00 0.0208
2018_02_13_S19 02/13/2018 00:50:00 0.0331
2018_02_13_S19 02/13/2018 00:55:00 0.0888
2018_02_13_S19 02/13/2018 01:00:00 0.0376
2018_02_13_S19 02/13/2018 01:05:00 0.0417
2018_02_13_S19 02/13/2018 01:10:00 0.047
2018_02_13_S19 02/13/2018 01:15:00 0.0538
2018_02_13_S19 02/13/2018 01:20:00 0.073
2018_02_13_S19 02/13/2018 01:25:00 0.0398
2018_02_13_S19 02/13/2018 01:30:00 0.0252
2018_02_13_S19 02/13/2018 01:35:00 0.0341
2018_02_13_S19 02/13/2018 01:40:00 0.0096
2018_02_13_S19 02/13/2018 01:45:00 0.0105
2018_02_13_S19 02/13/2018 01:50:00 0.0084
2018_02_13_S19 02/13/2018 01:55:00 0.0131
2018_02_13_S19 02/13/2018 02:00:00 0.0107
2018_02_13_S19 02/13/2018 02:05:00 0.0112
2018_02_13_S19 02/13/2018 02:10:00 0.0417
2018_02_13_S19 02/13/2018 02:15:00 0.0085
2018_02_13_S19 02/13/2018 02:20:00 0.026
2018_02_13_S19 02/13/2018 02:25:00 0.0216
2018_02_13_S19 02/13/2018 02:30:00 0.0061
2018_02_13_S19 02/13/2018 02:35:00 0.0205
2018_02_13_S19 02/13/2018 02:40:00 0.0722
2018_02_13_S19 02/13/2018 02:45:00 0.0599
2018_02_13_S19 02/13/2018 02:50:00 0.0416
2018_02_13_S19 02/13/2018 02:55:00 0.0659
2018_02_13_S19 02/13/2018 03:00:00 0.0533
2018_02_13_S19 02/13/2018 03:05:00 0.0582
2018_02_13_S19 02/13/2018 03:10:00 0.046
2018_02_13_S19 02/13/2018 03:15:00 0.0335
2018_02_13_S19 02/13/2018 03:20:00 0.0669
2018_02_13_S19 02/13/2018 03:25:00 0.0597
2018_02_13_S19 02/13/2018 03:30:00 0.0977
2018_02_13_S19 02/13/2018 03:35:00 0.248
2018_02_13_S19 02/13/2018 03:40:00 0.2814
2018_02_13_S19 02/13/2018 03:45:00 0.2594
2018_02_13_S19 02/13/2018 03:50:00 0.2742
2018_02_13_S19 02/13/2018 03:55:00 0.2954
2018_02_13_S19 02/13/2018 04:00:00 0.168
2018_02_13_S19 02/13/2018 04:05:00 0.2496
2018_02_13_S19 02/13/2018 04:10:00 0.1835
2018_02_13_S19 02/13/2018 04:15:00 0.4612
2018_02_13_S19 02/13/2018 04:20:00 0.3918
2018_02_13_S19 02/13/2018 04:25:00 0.201
2018_02_13_S19 02/13/2018 04:30:00 0.1926
2018_02_13_S19 02/13/2018 04:35:00 0.3546
2018_02_13_S19 02/13/2018 04:40:00 0.5069
2018_02_13_S19 02/13/2018 04:45:00 0.9779
2018_02_13_S19 02/13/2018 04:50:00 0.6445
2018_02_13_S19 02/13/2018 04:55:00 0.7611
2018_02_13_S19 02/13/2018 05:00:00 0.5987
2018_02_13_S19 02/13/2018 05:05:00 1.4634
2018_02_13_S19 02/13/2018 05:10:00 0.9913
2018_02_13_S19 02/13/2018 05:15:00 0.278
2018_02_13_S19 02/13/2018 05:20:00 0.1923
2018_02_13_S19 02/13/2018 05:25:00 0.2789
2018_02_13_S19 02/13/2018 05:30:00 0.7404
2018_02_13_S19 02/13/2018 05:35:00 0.3597
2018_02_13_S19 02/13/2018 05:40:00 0.3705
2018_02_13_S19 02/13/2018 05:45:00 1.2193
2018_02_13_S19 02/13/2018 05:50:00 0.6164
2018_02_13_S19 02/13/2018 05:55:00 0.3212
2018_02_13_S19 02/13/2018 06:00:00 0.1792
2018_02_13_S19 02/13/2018 06:05:00 0.2279
2018_02_13_S19 02/13/2018 06:10:00 0.4639
2018_02_13_S19 02/13/2018 06:15:00 0.6454
2018_02_13_S19 02/13/2018 06:20:00 1.1371
2018_02_13_S19 02/13/2018 06:25:00 0.7283
2018_02_13_S19 02/13/2018 06:30:00 0.2816
2018_02_13_S19 02/13/2018 06:35:00 0.1674
2018_02_13_S19 02/13/2018 06:40:00 0.5188
2018_02_13_S19 02/13/2018 06:45:00 0.0781
2018_02_13_S19 02/13/2018 06:50:00 0.0344
2018_02_13_S19 02/13/2018 06:55:00 0.0002
2018_02_13_S19 02/13/2018 07:00:00 0.2196
2018_02_13_S19 02/13/2018 07:05:00 3.5395
2018_02_13_S19 02/13/2018 07:10:00 0.5665
2018_02_13_S19 02/13/2018 07:15:00 0.0279
2018_02_13_S19 02/13/2018 07:20:00 0.0
2018_02_13_S19 02/13/2018 07:25:00 0.0118
2018_02_13_S19 02/13/2018 07:30:00 0.1761
2018_02_13_S19 02/13/2018 07:35:00 0.0208
2018_02_13_S19 02/13/2018 07:40:00 0.2032
2018_02_13_S19 02/13/2018 07:45:00 0.0
2018_02_13_S19 02/13/2018 07:50:00 0.0
2018_02_13_S19 02/13/2018 07:55:00 0.0
2018_02_13_S19 02/13/2018 08:00:00 0.0

2018_02_13_S20 02/12/2018 19:55:00 0.0566
2018_02_13_S20 02/12/2018 20:00:00 0.0842
2018_02_13_S20 02/12/2018 20:05:00 0.081
2018_02_13_S20 02/12/2018 20:10:00 0.1149
2018_02_13_S20 02/12/2018 20:15:00 0.1139
2018_02_13_S20 02/12/2018 20:20:00 0.1593
2018_02_13_S20 02/12/2018 20:25:00 0.163
2018_02_13_S20 02/12/2018 20:30:00 0.2111
2018_02_13_S20 02/12/2018 20:35:00 0.1321
2018_02_13_S20 02/12/2018 20:40:00 0.1261
2018_02_13_S20 02/12/2018 20:45:00 0.0566
2018_02_13_S20 02/12/2018 20:50:00 0.0467
2018_02_13_S20 02/12/2018 20:55:00 0.0356
2018_02_13_S20 02/12/2018 21:00:00 0.048
2018_02_13_S20 02/12/2018 21:05:00 0.0327
2018_02_13_S20 02/12/2018 21:10:00 0.0311
2018_02_13_S20 02/12/2018 21:15:00 0.0561
2018_02_13_S20 02/12/2018 21:20:00 0.0501
2018_02_13_S20 02/12/2018 21:25:00 0.087
2018_02_13_S20 02/12/2018 21:30:00 0.0587
2018_02_13_S20 02/12/2018 21:35:00 0.0352
2018_02_13_S20 02/12/2018 21:40:00 0.0434
2018_02_13_S20 02/12/2018 21:45:00 0.0505
2018_02_13_S20 02/12/2018 21:50:00 0.0568
2018_02_13_S20 02/12/2018 21:55:00 0.067
2018_02_13_S20 02/12/2018 22:00:00 0.0585
2018_02_13_S20 02/12/2018 22:05:00 0.0418
2018_02_13_S20 02/12/2018 22:10:00 0.044
2018_02_13_S20 02/12/2018 22:15:00 0.052
2018_02_13_S20 02/12/2018 22:20:00 0.0363
2018_02_13_S20 02/12/2018 22:25:00 0.0416
2018_02_13_S20 02/12/2018 22:30:00 0.0454
2018_02_13_S20 02/12/2018 22:35:00 0.0685
2018_02_13_S20 02/12/2018 22:40:00 0.0595
2018_02_13_S20 02/12/2018 22:45:00 0.0599
2018_02_13_S20 02/12/2018 22:50:00 0.0409
2018_02_13_S20 02/12/2018 22:55:00 0.0732
2018_02_13_S20 02/12/2018 23:00:00 0.077
2018_02_13_S20 02/12/2018 23:05:00 0.0727
2018_02_13_S20 02/12/2018 23:10:00 0.0825
2018_02_13_S20 02/12/2018 23:15:00 0.1009
2018_02_13_S20 02/12/2018 23:20:00 0.1089
2018_02_13_S20 02/12/2018 23:25:00 0.0993
2018_02_13_S20 02/12/2018 23:30:00 0.1041
2018_02_13_S20 02/12/2018 23:35:00 0.0919
2018_02_13_S20 02/12/2018 23:40:00 0.0663
2018_02_13_S20 02/12/2018 23:45:00 0.085
2018_02_13_S20 02/12/2018 23:50:00 0.0898
2018_02_13_S20 02/12/2018 23:55:00 0.0676
2018_02_13_S20 02/13/2018 00:00:00 0.0724
2018_02_13_S20 02/13/2018 00:05:00 0.0721
2018_02_13_S20 02/13/2018 00:10:00 0.1595
2018_02_13_S20 02/13/2018 00:15:00 0.0799
2018_02_13_S20 02/13/2018 00:20:00 0.0096
2018_02_13_S20 02/13/2018 00:25:00 0.0076
2018_02_13_S20 02/13/2018 00:30:00 0.06
2018_02_13_S20 02/13/2018 00:35:00 0.0481
2018_02_13_S20 02/13/2018 00:40:00 0.0334
2018_02_13_S20 02/13/2018 00:45:00 0.0215
2018_02_13_S20 02/13/2018 00:50:00 0.0353
2018_02_13_S20 02/13/2018 00:55:00 0.0873
2018_02_13_S20 02/13/2018 01:00:00 0.0353
2018_02_13_S20 02/13/2018 01:05:00 0.0435
2018_02_13_S20 02/13/2018 01:10:00 0.054
2018_02_13_S20 02/13/2018 01:15:00 0.058
2018_02_13_S20 02/13/2018 01:20:00 0.0661
2018_02_13_S20 02/13/2018 01:25:00 0.0462
2018_02_13_S20 02/13/2018 01:30:00 0.0238
2018_02_13_S20 02/13/2018 01:35:00 0.0342
2018_02_13_S20 02/13/2018 01:40:00 0.0099
2018_02_13_S20 02/13/2018 01:45:00 0.0104
2018_02_13_S20 02/13/2018 01:50:00 0.0085
2018_02_13_S20 02/13/2018 01:55:00 0.012
2018_02_13_S20 02/13/2018 02:00:00 0.01
2018_02_13_S20 02/13/2018 02:05:00 0.0096
2018_02_13_S20 02/13/2018 02:10:00 0.0395
2018_02_13_S20 02/13/2018 02:15:00 0.0084
2018_02_13_S20 02/13/2018 02:20:00 0.0324
2018_02_13_S20 02/13/2018 02:25:00 0.0257
2018_02_13_S20 02/13/2018 02:30:00 0.0075
2018_02_13_S20 02/13/2018 02:35:00 0.024
2018_02_13_S20 02/13/2018 02:40:00 0.079
2018_02_13_S20 02/13/2018 02:45:00 0.0498
2018_02_13_S20 02/13/2018 02:50:00 0.0445
2018_02_13_S20 02/13/2018 02:55:00 0.0616
2018_02_13_S20 02/13/2018 03:00:00 0.043
2018_02_13_S20 02/13/2018 03:05:00 0.0615
2018_02_13_S20 02/13/2018 03:10:00 0.042
2018_02_13_S20 02/13/2018 03:15:00 0.041
2018_02_13_S20 02/13/2018 03:20:00 0.0895
2018_02_13_S20 02/13/2018 03:25:00 0.0592
2018_02_13_S20 02/13/2018 03:30:00 0.0898
2018_02_13_S20 02/13/2018 03:35:00 0.2295
2018_02_13_S20 02/13/2018 03:40:00 0.2599
2018_02_13_S20 02/13/2018 03:45:00 0.2143
2018_02_13_S20 02/13/2018 03:50:00 0.2628
2018_02_13_S20 02/13/2018 03:55:00 0.2624
2018_02_13_S20 02/13/2018 04:00:00 0.1682
2018_02_13_S20 02/13/2018 04:05:00 0.2281
2018_02_13_S20 02/13/2018 04:10:00 0.1993
2018_02_13_S20 02/13/2018 04:15:00 0.5041
2018_02_13_S20 02/13/2018 04:20:00 0.3756
2018_02_13_S20 02/13/2018 04:25:00 0.1993
2018_02_13_S20 02/13/2018 04:30:00 0.2053
2018_02_13_S20 02/13/2018 04:35:00 0.394
2018_02_13_S20 02/13/2018 04:40:00 0.5325
2018_02_13_S20 02/13/2018 04:45:00 1.1909
2018_02_13_S20 02/13/2018 04:50:00 0.5421
2018_02_13_S20 02/13/2018 04:55:00 0.8308
2018_02_13_S20 02/13/2018 05:00:00 0.6065
2018_02_13_S20 02/13/2018 05:05:00 1.5584
2018_02_13_S20 02/13/2018 05:10:00 1.0429
2018_02_13_S20 02/13/2018 05:15:00 0.2514
2018_02_13_S20 02/13/2018 05:20:00 0.197
2018_02_13_S20 02/13/2018 05:25:00 0.2462
2018_02_13_S20 02/13/2018 05:30:00 0.64
2018_02_13_S20 02/13/2018 05:35:00 0.3724
2018_02_13_S20 02/13/2018 05:40:00 0.3666
2018_02_13_S20 02/13/2018 05:45:00 1.2138
2018_02_13_S20 02/13/2018 05:50:00 0.8215
2018_02_13_S20 02/13/2018 05:55:00 0.3152
2018_02_13_S20 02/13/2018 06:00:00 0.1557
2018_02_13_S20 02/13/2018 06:05:00 0.2271
2018_02_13_S20 02/13/2018 06:10:00 0.4931
2018_02_13_S20 02/13/2018 06:15:00 0.635
2018_02_13_S20 02/13/2018 06:20:00 1.4395
2018_02_13_S20 02/13/2018 06:25:00 0.7463
2018_02_13_S20 02/13/2018 06:30:00 0.2581
2018_02_13_S20 02/13/2018 06:35:00 0.1555
2018_02_13_S20 02/13/2018 06:40:00 0.6122
2018_02_13_S20 02/13/2018 06:45:00 0.0793
2018_02_13_S20 02/13/2018 06:50:00 0.0383
2018_02_13_S20 02/13/2018 06:55:00 0.0038
2018_02_13_S20 02/13/2018 07:00:00 0.5615
2018_02_13_S20 02/13/2018 07:05:00 3.5048
2018_02_13_S20 02/13/2018 07:10:00 0.7974
2018_02_13_S20 02/13/2018 07:15:00 0.036
2018_02_13_S20 02/13/2018 07:20:00 0.0
2018_02_13_S20 02/13/2018 07:25:00 0.0155
2018_02_13_S20 02/13/2018 07:30:00 0.1645
2018_02_13_S20 02/13/2018 07:35:00 0.0313
2018_02_13_S20 02/13/2018 07:40:00 0.1791
2018_02_13_S20 02/13/2018 07:45:00 0.0
2018_02_13_S20 02/13/2018 07:50:00 0.0
2018_02_13_S20 02/13/2018 07:55:00 0.0
2018_02_13_S20 02/13/2018 08:00:00 0.0

2018_02_13_S21 02/12/2018 19:55:00 0.054
2018_02_13_S21 02/12/2018 20:00:00 0.0828
2018_02_13_S21 02/12/2018 20:05:00 0.0717
2018_02_13_S21 02/12/2018 20:10:00 0.1032
2018_02_13_S21 02/12/2018 20:15:00 0.1645
2018_02_13_S21 02/12/2018 20:20:00 0.1501
2018_02_13_S21 02/12/2018 20:25:00 0.1293
2018_02_13_S21 02/12/2018 20:30:00 0.1892
2018_02_13_S21 02/12/2018 20:35:00 0.1328
2018_02_13_S21 02/12/2018 20:40:00 0.128
2018_02_13_S21 02/12/2018 20:45:00 0.0594
2018_02_13_S21 02/12/2018 20:50:00 0.0414
2018_02_13_S21 02/12/2018 20:55:00 0.0287
2018_02_13_S21 02/12/2018 21:00:00 0.0574
2018_02_13_S21 02/12/2018 21:05:00 0.0307
2018_02_13_S21 02/12/2018 21:10:00 0.0295
2018_02_13_S21 02/12/2018 21:15:00 0.0584
2018_02_13_S21 02/12/2018 21:20:00 0.0531
2018_02_13_S21 02/12/2018 21:25:00 0.0813
2018_02_13_S21 02/12/2018 21:30:00 0.0595
2018_02_13_S21 02/12/2018 21:35:00 0.037
2018_02_13_S21 02/12/2018 21:40:00 0.0402
2018_02_13_S21 02/12/2018 21:45:00 0.0602
2018_02_13_S21 02/12/2018 21:50:00 0.0664
2018_02_13_S21 02/12/2018 21:55:00 0.0707
2018_02_13_S21 02/12/2018 22:00:00 0.0625
2018_02_13_S21 02/12/2018 22:05:00 0.0485
2018_02_13_S21 02/12/2018 22:10:00 0.0452
2018_02_13_S21 02/12/2018 22:15:00 0.0472
2018_02_13_S21 02/12/2018 22:20:00 0.0397
2018_02_13_S21 02/12/2018 22:25:00 0.0423
2018_02_13_S21 02/12/2018 22:30:00 0.0517
2018_02_13_S21 02/12/2018 22:35:00 0.0574
2018_02_13_S21 02/12/2018 22:40:00 0.0537
2018_02_13_S21 02/12/2018 22:45:00 0.0552
2018_02_13_S21 02/12/2018 22:50:00 0.0403
2018_02_13_S21 02/12/2018 22:55:00 0.0717
2018_02_13_S21 02/12/2018 23:00:00 0.075
2018_02_13_S21 02/12/2018 23:05:00 0.0717
2018_02_13_S21 02/12/2018 23:10:00 0.0803
2018_02_13_S21 02/12/2018 23:15:00 0.0963
2018_02_13_S21 02/12/2018 23:20:00 0.103
2018_02_13_S21 02/12/2018 23:25:00 0.0923
2018_02_13_S21 02/12/2018 23:30:00 0.1006
2018_02_13_S21 02/12/2018 23:35:00 0.1067
2018_02_13_S21 02/12/2018 23:40:00 0.075
2018_02_13_S21 02/12/2018 23:45:00 0.0898
2018_02_13_S21 02/12/2018 23:50:00 0.0803
2018_02_13_S21 02/12/2018 23:55:00 0.0647
2018_02_13_S21 02/13/2018 00:00:00 0.0772
2018_02_13_S21 02/13/2018 00:05:00 0.0806
2018_02_13_S21 02/13/2018 00:10:00 0.134
2018_02_13_S21 02/13/2018 00:15:00 0.1057
2018_02_13_S21 02/13/2018 00:20:00 0.0141
2018_02_13_S21 02/13/2018 00:25:00 0.0077
2018_02_13_S21 02/13/2018 00:30:00 0.0585
2018_02_13_S21 02/13/2018 00:35:00 0.0677
2018_02_13_S21 02/13/2018 00:40:00 0.0419
2018_02_13_S21 02/13/2018 00:45:00 0.0231
2018_02_13_S21 02/13/2018 00:50:00 0.0328
2018_02_13_S21 02/13/2018 00:55:00 0.0838
2018_02_13_S21 02/13/2018 01:00:00 0.0374
2018_02_13_S21 02/13/2018 01:05:00 0.0307
2018_02_13_S21 02/13/2018 01:10:00 0.0383
2018_02_13_S21 02/13/2018 01:15:00 0.055
2018_02_13_S21 02/13/2018 01:20:00 0.1583
2018_02_13_S21 02/13/2018 01:25:00 0.0366
2018_02_13_S21 02/13/2018 01:30:00 0.0207
2018_02_13_S21 02/13/2018 01:35:00 0.0361
2018_02_13_S21 02/13/2018 01:40:00 0.0098
2018_02_13_S21 02/13/2018 01:45:00 0.0111
2018_02_13_S21 02/13/2018 01:50:00 0.0111
2018_02_13_S21 02/13/2018 01:55:00 0.0108
2018_02_13_S21 02/13/2018 02:00:00 0.0172
2018_02_13_S21 02/13/2018 02:05:00 0.0091
2018_02_13_S21 02/13/2018 02:10:00 0.0461
2018_02_13_S21 02/13/2018 02:15:00 0.0082
2018_02_13_S21 02/13/2018 02:20:00 0.0146
2018_02_13_S21 02/13/2018 02:25:00 0.0204
2018_02_13_S21 02/13/2018 02:30:00 0.0047
2018_02_13_S21 02/13/2018 02:35:00 0.0176
2018_02_13_S21 02/13/2018 02:40:00 0.0441
2018_02_13_S21 02/13/2018 02:45:00 0.097
2018_02_13_S21 02/13/2018 02:50:00 0.047
2018_02_13_S21 02/13/2018 02:55:00 0.0541
2018_02_13_S21 02/13/2018 03:00:00 0.0484
2018_02_13_S21 02/13/2018 03:05:00 0.0578
2018_02_13_S21 02/13/2018 03:10:00 0.0464
2018_02_13_S21 02/13/2018 03:15:00 0.047
2018_02_13_S21 02/13/2018 03:20:00 0.032
2018_02_13_S21 02/13/2018 03:25:00 0.0431
2018_02_13_S21 02/13/2018 03:30:00 0.0673
2018_02_13_S21 02/13/2018 03:35:00 0.2939
2018_02_13_S21 02/13/2018 03:40:00 0.3203
2018_02_13_S21 02/13/2018 03:45:00 0.2613
2018_02_13_S21 02/13/2018 03:50:00 0.3283
2018_02_13_S21 02/13/2018 03:55:00 0.3341
2018_02_13_S21 02/13/2018 04:00:00 0.2
2018_02_13_S21 02/13/2018 04:05:00 0.2126
2018_02_13_S21 02/13/2018 04:10:00 0.1814
2018_02_13_S21 02/13/2018 04:15:00 0.3313
2018_02_13_S21 02/13/2018 04:20:00 0.3055
2018_02_13_S21 02/13/2018 04:25:00 0.1689
2018_02_13_S21 02/13/2018 04:30:00 0.2073
2018_02_13_S21 02/13/2018 04:35:00 0.3728
2018_02_13_S21 02/13/2018 04:40:00 0.3592
2018_02_13_S21 02/13/2018 04:45:00 0.7636
2018_02_13_S21 02/13/2018 04:50:00 0.7744
2018_02_13_S21 02/13/2018 04:55:00 0.5561
2018_02_13_S21 02/13/2018 05:00:00 0.7502
2018_02_13_S21 02/13/2018 05:05:00 1.4758
2018_02_13_S21 02/13/2018 05:10:00 1.3389
2018_02_13_S21 02/13/2018 05:15:00 0.3739
2018_02_13_S21 02/13/2018 05:20:00 0.148
2018_02_13_S21 02/13/2018 05:25:00 0.2079
2018_02_13_S21 02/13/2018 05:30:00 0.9191
2018_02_13_S21 02/13/2018 05:35:00 0.3788
2018_02_13_S21 02/13/2018 05:40:00 0.5514
2018_02_13_S21 02/13/2018 05:45:00 1.0119
2018_02_13_S21 02/13/2018 05:50:00 0.5607
2018_02_13_S21 02/13/2018 05:55:00 0.2967
2018_02_13_S21 02/13/2018 06:00:00 0.141
2018_02_13_S21 02/13/2018 06:05:00 0.2266
2018_02_13_S21 02/13/2018 06:10:00 0.5058
2018_02_13_S21 02/13/2018 06:15:00 0.4273
2018_02_13_S21 02/13/2018 06:20:00 1.5302
2018_02_13_S21 02/13/2018 06:25:00 0.7284
2018_02_13_S21 02/13/2018 06:30:00 0.3322
2018_02_13_S21 02/13/2018 06:35:00 0.2113
2018_02_13_S21 02/13/2018 06:40:00 0.6007
2018_02_13_S21 02/13/2018 06:45:00 0.1641
2018_02_13_S21 02/13/2018 06:50:00 0.0331
2018_02_13_S21 02/13/2018 06:55:00 0.0
2018_02_13_S21 02/13/2018 07:00:00 0.0779
2018_02_13_S21 02/13/2018 07:05:00 4.6732
2018_02_13_S21 02/13/2018 07:10:00 0.1979
2018_02_13_S21 02/13/2018 07:15:00 0.2148
2018_02_13_S21 02/13/2018 07:20:00 0.0091
2018_02_13_S21 02/13/2018 07:25:00 0.0015
2018_02_13_S21 02/13/2018 07:30:00 0.1524
2018_02_13_S21 02/13/2018 07:35:00 0.1956
2018_02_13_S21 02/13/2018 07:40:00 0.107
2018_02_13_S21 02/13/2018 07:45:00 0.0
2018_02_13_S21 02/13/2018 07:50:00 0.0
2018_02_13_S21 02/13/2018 07:55:00 0.0
2018_02_13_S21 02/13/2018 08:00:00 0.0

2018_02_13_S22 02/12/2018 19:55:00 0.0439
2018_02_13_S22 02/12/2018 20:00:00 0.0679
2018_02_13_S22 02/12/2018 20:05:00 0.0638
2018_02_13_S22 02/12/2018 20:10:00 0.0879
2018_02_13_S22 02/12/2018 20:15:00 0.1453
2018_02_13_S22 02/12/2018 20:20:00 0.1298
2018_02_13_S22 02/12/2018 20:25:00 0.121
2018_02_13_S22 02/12/2018 20:30:00 0.2013
2018_02_13_S22 02/12/2018 20:35:00 0.1319
2018_02_13_S22 02/12/2018 20:40:00 0.1246
2018_02_13_S22 02/12/2018 20:45:00 0.0701
2018_02_13_S22 02/12/2018 20:50:00 0.0454
2018_02_13_S22 02/12/2018 20:55:00 0.0275
2018_02_13_S22 02/12/2018 21:00:00 0.0647
2018_02_13_S22 02/12/2018 21:05:00 0.034
2018_02_13_S22 02/12/2018 21:10:00 0.0402
2018_02_13_S22 02/12/2018 21:15:00 0.0562
2018_02_13_S22 02/12/2018 21:20:00 0.0488
2018_02_13_S22 02/12/2018 21:25:00 0.0761
2018_02_13_S22 02/12/2018 21:30:00 0.0551
2018_02_13_S22 02/12/2018 21:35:00 0.0362
2018_02_13_S22 02/12/2018 21:40:00 0.0416
2018_02_13_S22 02/12/2018 21:45:00 0.0562
2018_02_13_S22 02/12/2018 21:50:00 0.0553
2018_02_13_S22 02/12/2018 21:55:00 0.0701
2018_02_13_S22 02/12/2018 22:00:00 0.0751
2018_02_13_S22 02/12/2018 22:05:00 0.0454
2018_02_13_S22 02/12/2018 22:10:00 0.0408
2018_02_13_S22 02/12/2018 22:15:00 0.0475
2018_02_13_S22 02/12/2018 22:20:00 0.0378
2018_02_13_S22 02/12/2018 22:25:00 0.0459
2018_02_13_S22 02/12/2018 22:30:00 0.0443
2018_02_13_S22 02/12/2018 22:35:00 0.0547
2018_02_13_S22 02/12/2018 22:40:00 0.0526
2018_02_13_S22 02/12/2018 22:45:00 0.0528
2018_02_13_S22 02/12/2018 22:50:00 0.0421
2018_02_13_S22 02/12/2018 22:55:00 0.0613
2018_02_13_S22 02/12/2018 23:00:00 0.0794
2018_02_13_S22 02/12/2018 23:05:00 0.0781
2018_02_13_S22 02/12/2018 23:10:00 0.0886
2018_02_13_S22 02/12/2018 23:15:00 0.1
2018_02_13_S22 02/12/2018 23:20:00 0.0987
2018_02_13_S22 02/12/2018 23:25:00 0.0956
2018_02_13_S22 02/12/2018 23:30:00 0.1038
2018_02_13_S22 02/12/2018 23:35:00 0.108
2018_02_13_S22 02/12/2018 23:40:00 0.0914
2018_02_13_S22 02/12/2018 23:45:00 0.0857
2018_02_13_S22 02/12/2018 23:50:00 0.0726
2018_02_13_S22 02/12/2018 23:55:00 0.0633
2018_02_13_S22 02/13/2018 00:00:00 0.0858
2018_02_13_S22 02/13/2018 00:05:00 0.0721
2018_02_13_S22 02/13/2018 00:10:00 0.0923
2018_02_13_S22 02/13/2018 00:15:00 0.0801
2018_02_13_S22 02/13/2018 00:20:00 0.0155
2018_02_13_S22 02/13/2018 00:25:00 0.0083
2018_02_13_S22 02/13/2018 00:30:00 0.0685
2018_02_13_S22 02/13/2018 00:35:00 0.0876
2018_02_13_S22 02/13/2018 00:40:00 0.0608
2018_02_13_S22 02/13/2018 00:45:00 0.0235
2018_02_13_S22 02/13/2018 00:50:00 0.0258
2018_02_13_S22 02/13/2018 00:55:00 0.0693
2018_02_13_S22 02/13/2018 01:00:00 0.0408
2018_02_13_S22 02/13/2018 01:05:00 0.0241
2018_02_13_S22 02/13/2018 01:10:00 0.0262
2018_02_13_S22 02/13/2018 01:15:00 0.0515
2018_02_13_S22 02/13/2018 01:20:00 0.1012
2018_02_13_S22 02/13/2018 01:25:00 0.0373
2018_02_13_S22 02/13/2018 01:30:00 0.0174
2018_02_13_S22 02/13/2018 01:35:00 0.0394
2018_02_13_S22 02/13/2018 01:40:00 0.0105
2018_02_13_S22 02/13/2018 01:45:00 0.0204
2018_02_13_S22 02/13/2018 01:50:00 0.0195
2018_02_13_S22 02/13/2018 01:55:00 0.0094
2018_02_13_S22 02/13/2018 02:00:00 0.0153
2018_02_13_S22 02/13/2018 02:05:00 0.01
2018_02_13_S22 02/13/2018 02:10:00 0.0497
2018_02_13_S22 02/13/2018 02:15:00 0.0074
2018_02_13_S22 02/13/2018 02:20:00 0.0095
2018_02_13_S22 02/13/2018 02:25:00 0.0139
2018_02_13_S22 02/13/2018 02:30:00 0.0019
2018_02_13_S22 02/13/2018 02:35:00 0.0178
2018_02_13_S22 02/13/2018 02:40:00 0.0196
2018_02_13_S22 02/13/2018 02:45:00 0.0912
2018_02_13_S22 02/13/2018 02:50:00 0.0874
2018_02_13_S22 02/13/2018 02:55:00 0.0508
2018_02_13_S22 02/13/2018 03:00:00 0.0414
2018_02_13_S22 02/13/2018 03:05:00 0.0694
2018_02_13_S22 02/13/2018 03:10:00 0.0392
2018_02_13_S22 02/13/2018 03:15:00 0.037
2018_02_13_S22 02/13/2018 03:20:00 0.0193
2018_02_13_S22 02/13/2018 03:25:00 0.0338
2018_02_13_S22 02/13/2018 03:30:00 0.0555
2018_02_13_S22 02/13/2018 03:35:00 0.3516
2018_02_13_S22 02/13/2018 03:40:00 0.301
2018_02_13_S22 02/13/2018 03:45:00 0.3174
2018_02_13_S22 02/13/2018 03:50:00 0.3736
2018_02_13_S22 02/13/2018 03:55:00 0.4979
2018_02_13_S22 02/13/2018 04:00:00 0.2736
2018_02_13_S22 02/13/2018 04:05:00 0.1889
2018_02_13_S22 02/13/2018 04:10:00 0.1754
2018_02_13_S22 02/13/2018 04:15:00 0.2371
2018_02_13_S22 02/13/2018 04:20:00 0.3115
2018_02_13_S22 02/13/2018 04:25:00 0.2164
2018_02_13_S22 02/13/2018 04:30:00 0.224
2018_02_13_S22 02/13/2018 04:35:00 0.4126
2018_02_13_S22 02/13/2018 04:40:00 0.3214
2018_02_13_S22 02/13/2018 04:45:00 0.4919
2018_02_13_S22 02/13/2018 04:50:00 0.8932
2018_02_13_S22 02/13/2018 04:55:00 0.3644
2018_02_13_S22 02/13/2018 05:00:00 0.574
2018_02_13_S22 02/13/2018 05:05:00 1.4364
2018_02_13_S22 02/13/2018 05:10:00 1.748
2018_02_13_S22 02/13/2018 05:15:00 0.6363
2018_02_13_S22 02/13/2018 05:20:00 0.1954
2018_02_13_S22 02/13/2018 05:25:00 0.1733
2018_02_13_S22 02/13/2018 05:30:00 0.9397
2018_02_13_S22 02/13/2018 05:35:00 0.471
2018_02_13_S22 02/13/2018 05:40:00 0.75
2018_02_13_S22 02/13/2018 05:45:00 0.6709
2018_02_13_S22 02/13/2018 05:50:00 0.6928
2018_02_13_S22 02/13/2018 05:55:00 0.3565
2018_02_13_S22 02/13/2018 06:00:00 0.1202
2018_02_13_S22 02/13/2018 06:05:00 0.1493
2018_02_13_S22 02/13/2018 06:10:00 0.4151
2018_02_13_S22 02/13/2018 06:15:00 0.4126
2018_02_13_S22 02/13/2018 06:20:00 1.0794
2018_02_13_S22 02/13/2018 06:25:00 0.7129
2018_02_13_S22 02/13/2018 06:30:00 0.3705
2018_02_13_S22 02/13/2018 06:35:00 0.3245
2018_02_13_S22 02/13/2018 06:40:00 0.3664
2018_02_13_S22 02/13/2018 06:45:00 0.1817
2018_02_13_S22 02/13/2018 06:50:00 0.0301
2018_02_13_S22 02/13/2018 06:55:00 0.0
2018_02_13_S22 02/13/2018 07:00:00 0.0455
2018_02_13_S22 02/13/2018 07:05:00 0.7853
2018_02_13_S22 02/13/2018 07:10:00 0.0757
2018_02_13_S22 02/13/2018 07:15:00 0.1933
2018_02_13_S22 02/13/2018 07:20:00 0.1788
2018_02_13_S22 02/13/2018 07:25:00 0.0079
2018_02_13_S22 02/13/2018 07:30:00 0.1089
2018_02_13_S22 02/13/2018 07:35:00 0.6069
2018_02_13_S22 02/13/2018 07:40:00 0.2399
2018_02_13_S22 02/13/2018 07:45:00 0.0
2018_02_13_S22 02/13/2018 07:50:00 0.0
2018_02_13_S22 02/13/2018 07:55:00 0.0
2018_02_13_S22 02/13/2018 08:00:00 0.0

2018_02_13_S23 02/12/2018 19:55:00 0.0626
2018_02_13_S23 02/12/2018 20:00:00 0.0848
2018_02_13_S23 02/12/2018 20:05:00 0.0909
2018_02_13_S23 02/12/2018 20:10:00 0.1335
2018_02_13_S23 02/12/2018 20:15:00 0.1565
2018_02_13_S23 02/12/2018 20:20:00 0.182
2018_02_13_S23 02/12/2018 20:25:00 0.1184
2018_02_13_S23 02/12/2018 20:30:00 0.2464
2018_02_13_S23 02/12/2018 20:35:00 0.1601
2018_02_13_S23 02/12/2018 20:40:00 0.1171
2018_02_13_S23 02/12/2018 20:45:00 0.0565
2018_02_13_S23 02/12/2018 20:50:00 0.042
2018_02_13_S23 02/12/2018 20:55:00 0.0348
2018_02_13_S23 02/12/2018 21:00:00 0.0545
2018_02_13_S23 02/12/2018 21:05:00 0.0319
2018_02_13_S23 02/12/2018 21:10:00 0.0296
2018_02_13_S23 02/12/2018 21:15:00 0.0531
2018_02_13_S23 02/12/2018 21:20:00 0.0587
2018_02_13_S23 02/12/2018 21:25:00 0.0767
2018_02_13_S23 02/12/2018 21:30:00 0.057
2018_02_13_S23 02/12/2018 21:35:00 0.0356
2018_02_13_S23 02/12/2018 21:40:00 0.0461
2018_02_13_S23 02/12/2018 21:45:00 0.0606
2018_02_13_S23 02/12/2018 21:50:00 0.0689
2018_02_13_S23 02/12/2018 21:55:00 0.0712
2018_02_13_S23 02/12/2018 22:00:00 0.063
2018_02_13_S23 02/12/2018 22:05:00 0.0503
2018_02_13_S23 02/12/2018 22:10:00 0.0428
2018_02_13_S23 02/12/2018 22:15:00 0.0453
2018_02_13_S23 02/12/2018 22:20:00 0.0404
2018_02_13_S23 02/12/2018 22:25:00 0.0447
2018_02_13_S23 02/12/2018 22:30:00 0.0449
2018_02_13_S23 02/12/2018 22:35:00 0.0671
2018_02_13_S23 02/12/2018 22:40:00 0.0521
2018_02_13_S23 02/12/2018 22:45:00 0.0717
2018_02_13_S23 02/12/2018 22:50:00 0.0429
2018_02_13_S23 02/12/2018 22:55:00 0.0776
2018_02_13_S23 02/12/2018 23:00:00 0.0787
2018_02_13_S23 02/12/2018 23:05:00 0.0777
2018_02_13_S23 02/12/2018 23:10:00 0.0848
2018_02_13_S23 02/12/2018 23:15:00 0.1011
2018_02_13_S23 02/12/2018 23:20:00 0.1122
2018_02_13_S23 02/12/2018 23:25:00 0.098
2018_02_13_S23 02/12/2018 23:30:00 0.099
2018_02_13_S23 02/12/2018 23:35:00 0.0939
2018_02_13_S23 02/12/2018 23:40:00 0.073
2018_02_13_S23 02/12/2018 23:45:00 0.0819
2018_02_13_S23 02/12/2018 23:50:00 0.0832
2018_02_13_S23 02/12/2018 23:55:00 0.0713
2018_02_13_S23 02/13/2018 00:00:00 0.0739
2018_02_13_S23 02/13/2018 00:05:00 0.0766
2018_02_13_S23 02/13/2018 00:10:00 0.1507
2018_02_13_S23 02/13/2018 00:15:00 0.1019
2018_02_13_S23 02/13/2018 00:20:00 0.0137
2018_02_13_S23 02/13/2018 00:25:00 0.0081
2018_02_13_S23 02/13/2018 00:30:00 0.0534
2018_02_13_S23 02/13/2018 00:35:00 0.0543
2018_02_13_S23 02/13/2018 00:40:00 0.0307
2018_02_13_S23 02/13/2018 00:45:00 0.0255
2018_02_13_S23 02/13/2018 00:50:00 0.0329
2018_02_13_S23 02/13/2018 00:55:00 0.0832
2018_02_13_S23 02/13/2018 01:00:00 0.0376
2018_02_13_S23 02/13/2018 01:05:00 0.0391
2018_02_13_S23 02/13/2018 01:10:00 0.047
2018_02_13_S23 02/13/2018 01:15:00 0.0571
2018_02_13_S23 02/13/2018 01:20:00 0.1113
2018_02_13_S23 02/13/2018 01:25:00 0.0476
2018_02_13_S23 02/13/2018 01:30:00 0.024
2018_02_13_S23 02/13/2018 01:35:00 0.0357
2018_02_13_S23 02/13/2018 01:40:00 0.01
2018_02_13_S23 02/13/2018 01:45:00 0.0119
2018_02_13_S23 02/13/2018 01:50:00 0.0095
2018_02_13_S23 02/13/2018 01:55:00 0.0123
2018_02_13_S23 02/13/2018 02:00:00 0.0149
2018_02_13_S23 02/13/2018 02:05:00 0.0047
2018_02_13_S23 02/13/2018 02:10:00 0.0402
2018_02_13_S23 02/13/2018 02:15:00 0.0084
2018_02_13_S23 02/13/2018 02:20:00 0.026
2018_02_13_S23 02/13/2018 02:25:00 0.0238
2018_02_13_S23 02/13/2018 02:30:00 0.0067
2018_02_13_S23 02/13/2018 02:35:00 0.0213
2018_02_13_S23 02/13/2018 02:40:00 0.0594
2018_02_13_S23 02/13/2018 02:45:00 0.0462
2018_02_13_S23 02/13/2018 02:50:00 0.0352
2018_02_13_S23 02/13/2018 02:55:00 0.0502
2018_02_13_S23 02/13/2018 03:00:00 0.0358
2018_02_13_S23 02/13/2018 03:05:00 0.0587
2018_02_13_S23 02/13/2018 03:10:00 0.036
2018_02_13_S23 02/13/2018 03:15:00 0.0371
2018_02_13_S23 02/13/2018 03:20:00 0.057
2018_02_13_S23 02/13/2018 03:25:00 0.06
2018_02_13_S23 02/13/2018 03:30:00 0.0747
2018_02_13_S23 02/13/2018 03:35:00 0.1663
2018_02_13_S23 02/13/2018 03:40:00 0.2487
2018_02_13_S23 02/13/2018 03:45:00 0.2174
2018_02_13_S23 02/13/2018 03:50:00 0.2722
2018_02_13_S23 02/13/2018 03:55:00 0.2334
2018_02_13_S23 02/13/2018 04:00:00 0.1735
2018_02_13_S23 02/13/2018 04:05:00 0.1807
2018_02_13_S23 02/13/2018 04:10:00 0.2209
2018_02_13_S23 02/13/2018 04:15:00 0.3275
2018_02_13_S23 02/13/2018 04:20:00 0.3011
2018_02_13_S23 02/13/2018 04:25:00 0.2414
2018_02_13_S23 02/13/2018 04:30:00 0.2704
2018_02_13_S23 02/13/2018 04:35:00 0.4286
2018_02_13_S23 02/13/2018 04:40:00 0.4
2018_02_13_S23 02/13/2018 04:45:00 0.8955
2018_02_13_S23 02/13/2018 04:50:00 0.5864
2018_02_13_S23 02/13/2018 04:55:00 0.8928
2018_02_13_S23 02/13/2018 05:00:00 0.7748
2018_02_13_S23 02/13/2018 05:05:00 1.5974
2018_02_13_S23 02/13/2018 05:10:00 1.5633
2018_02_13_S23 02/13/2018 05:15:00 0.2865
2018_02_13_S23 02/13/2018 05:20:00 0.1599
2018_02_13_S23 02/13/2018 05:25:00 0.1967
2018_02_13_S23 02/13/2018 05:30:00 0.7706
2018_02_13_S23 02/13/2018 05:35:00 0.3463
2018_02_13_S23 02/13/2018 05:40:00 0.4989
2018_02_13_S23 02/13/2018 05:45:00 0.9461
2018_02_13_S23 02/13/2018 05:50:00 0.6549
2018_02_13_S23 02/13/2018 05:55:00 0.2568
2018_02_13_S23 02/13/2018 06:00:00 0.1325
2018_02_13_S23 02/13/2018 06:05:00 0.2042
2018_02_13_S23 02/13/2018 06:10:00 0.5531
2018_02_13_S23 02/13/2018 06:15:00 0.4138
2018_02_13_S23 02/13/2018 06:20:00 1.9211
2018_02_13_S23 02/13/2018 06:25:00 1.0687
2018_02_13_S23 02/13/2018 06:30:00 0.3144
2018_02_13_S23 02/13/2018 06:35:00 0.2447
2018_02_13_S23 02/13/2018 06:40:00 0.5512
2018_02_13_S23 02/13/2018 06:45:00 0.1648
2018_02_13_S23 02/13/2018 06:50:00 0.0447
2018_02_13_S23 02/13/2018 06:55:00 0.0019
2018_02_13_S23 02/13/2018 07:00:00 0.2603
2018_02_13_S23 02/13/2018 07:05:00 5.0845
2018_02_13_S23 02/13/2018 07:10:00 0.3623
2018_02_13_S23 02/13/2018 07:15:00 0.7607
2018_02_13_S23 02/13/2018 07:20:00 0.0009
2018_02_13_S23 02/13/2018 07:25:00 0.0071
2018_02_13_S23 02/13/2018 07:30:00 0.1
2018_02_13_S23 02/13/2018 07:35:00 0.2324
2018_02_13_S23 02/13/2018 07:40:00 0.0452
2018_02_13_S23 02/13/2018 07:45:00 0.0
2018_02_13_S23 02/13/2018 07:50:00 0.0
2018_02_13_S23 02/13/2018 07:55:00 0.0
2018_02_13_S23 02/13/2018 08:00:00 0.0

2018_02_13_S24 02/12/2018 19:55:00 0.0625
2018_02_13_S24 02/12/2018 20:00:00 0.0849
2018_02_13_S24 02/12/2018 20:05:00 0.086
2018_02_13_S24 02/12/2018 20:10:00 0.121
2018_02_13_S24 02/12/2018 20:15:00 0.1246
2018_02_13_S24 02/12/2018 20:20:00 0.178
2018_02_13_S24 02/12/2018 20:25:00 0.1618
2018_02_13_S24 02/12/2018 20:30:00 0.2635
2018_02_13_S24 02/12/2018 20:35:00 0.1406
2018_02_13_S24 02/12/2018 20:40:00 0.1243
2018_02_13_S24 02/12/2018 20:45:00 0.058
2018_02_13_S24 02/12/2018 20:50:00 0.0481
2018_02_13_S24 02/12/2018 20:55:00 0.0411
2018_02_13_S24 02/12/2018 21:00:00 0.0499
2018_02_13_S24 02/12/2018 21:05:00 0.0337
2018_02_13_S24 02/12/2018 21:10:00 0.033
2018_02_13_S24 02/12/2018 21:15:00 0.0603
2018_02_13_S24 02/12/2018 21:20:00 0.0519
2018_02_13_S24 02/12/2018 21:25:00 0.0884
2018_02_13_S24 02/12/2018 21:30:00 0.0549
2018_02_13_S24 02/12/2018 21:35:00 0.0368
2018_02_13_S24 02/12/2018 21:40:00 0.0493
2018_02_13_S24 02/12/2018 21:45:00 0.0591
2018_02_13_S24 02/12/2018 21:50:00 0.0643
2018_02_13_S24 02/12/2018 21:55:00 0.0685
2018_02_13_S24 02/12/2018 22:00:00 0.065
2018_02_13_S24 02/12/2018 22:05:00 0.0419
2018_02_13_S24 02/12/2018 22:10:00 0.0378
2018_02_13_S24 02/12/2018 22:15:00 0.0486
2018_02_13_S24 02/12/2018 22:20:00 0.04
2018_02_13_S24 02/12/2018 22:25:00 0.0386
2018_02_13_S24 02/12/2018 22:30:00 0.0467
2018_02_13_S24 02/12/2018 22:35:00 0.0781
2018_02_13_S24 02/12/2018 22:40:00 0.0586
2018_02_13_S24 02/12/2018 22:45:00 0.0681
2018_02_13_S24 02/12/2018 22:50:00 0.0435
2018_02_13_S24 02/12/2018 22:55:00 0.08
2018_02_13_S24 02/12/2018 23:00:00 0.0764
2018_02_13_S24 02/12/2018 23:05:00 0.0749
2018_02_13_S24 02/12/2018 23:10:00 0.0808
2018_02_13_S24 02/12/2018 23:15:00 0.1096
2018_02_13_S24 02/12/2018 23:20:00 0.1041
2018_02_13_S24 02/12/2018 23:25:00 0.0995
2018_02_13_S24 02/12/2018 23:30:00 0.1133
2018_02_13_S24 02/12/2018 23:35:00 0.0897
2018_02_13_S24 02/12/2018 23:40:00 0.0895
2018_02_13_S24 02/12/2018 23:45:00 0.0797
2018_02_13_S24 02/12/2018 23:50:00 0.0852
2018_02_13_S24 02/12/2018 23:55:00 0.0756
2018_02_13_S24 02/13/2018 00:00:00 0.0781
2018_02_13_S24 02/13/2018 00:05:00 0.0711
2018_02_13_S24 02/13/2018 00:10:00 0.1555
2018_02_13_S24 02/13/2018 00:15:00 0.07
2018_02_13_S24 02/13/2018 00:20:00 0.0088
2018_02_13_S24 02/13/2018 00:25:00 0.0084
2018_02_13_S24 02/13/2018 00:30:00 0.0607
2018_02_13_S24 02/13/2018 00:35:00 0.051
2018_02_13_S24 02/13/2018 00:40:00 0.0339
2018_02_13_S24 02/13/2018 00:45:00 0.027
2018_02_13_S24 02/13/2018 00:50:00 0.0363
2018_02_13_S24 02/13/2018 00:55:00 0.0914
2018_02_13_S24 02/13/2018 01:00:00 0.0368
2018_02_13_S24 02/13/2018 01:05:00 0.0475
2018_02_13_S24 02/13/2018 01:10:00 0.0595
2018_02_13_S24 02/13/2018 01:15:00 0.0567
2018_02_13_S24 02/13/2018 01:20:00 0.0626
2018_02_13_S24 02/13/2018 01:25:00 0.0525
2018_02_13_S24 02/13/2018 01:30:00 0.0252
2018_02_13_S24 02/13/2018 01:35:00 0.0333
2018_02_13_S24 02/13/2018 01:40:00 0.0101
2018_02_13_S24 02/13/2018 01:45:00 0.0102
2018_02_13_S24 02/13/2018 01:50:00 0.0088
2018_02_13_S24 02/13/2018 01:55:00 0.0118
2018_02_13_S24 02/13/2018 02:00:00 0.0088
2018_02_13_S24 02/13/2018 02:05:00 0.0098
2018_02_13_S24 02/13/2018 02:10:00 0.0381
2018_02_13_S24 02/13/2018 02:15:00 0.0084
2018_02_13_S24 02/13/2018 02:20:00 0.0397
2018_02_13_S24 02/13/2018 02:25:00 0.0274
2018_02_13_S24 02/13/2018 02:30:00 0.0075
2018_02_13_S24 02/13/2018 02:35:00 0.0309
2018_02_13_S24 02/13/2018 02:40:00 0.0733
2018_02_13_S24 02/13/2018 02:45:00 0.04
2018_02_13_S24 02/13/2018 02:50:00 0.0487
2018_02_13_S24 02/13/2018 02:55:00 0.0534
2018_02_13_S24 02/13/2018 03:00:00 0.0342
2018_02_13_S24 02/13/2018 03:05:00 0.0581
2018_02_13_S24 02/13/2018 03:10:00 0.0371
2018_02_13_S24 02/13/2018 03:15:00 0.0414
2018_02_13_S24 02/13/2018 03:20:00 0.1172
2018_02_13_S24 02/13/2018 03:25:00 0.0712
2018_02_13_S24 02/13/2018 03:30:00 0.0789
2018_02_13_S24 02/13/2018 03:35:00 0.1716
2018_02_13_S24 02/13/2018 03:40:00 0.2265
2018_02_13_S24 02/13/2018 03:45:00 0.2069
2018_02_13_S24 02/13/2018 03:50:00 0.2502
2018_02_13_S24 02/13/2018 03:55:00 0.2534
2018_02_13_S24 02/13/2018 04:00:00 0.1368
2018_02_13_S24 02/13/2018 04:05:00 0.2282
2018_02_13_S24 02/13/2018 04:10:00 0.2507
2018_02_13_S24 02/13/2018 04:15:00 0.5419
2018_02_13_S24 02/13/2018 04:20:00 0.3441
2018_02_13_S24 02/13/2018 04:25:00 0.2083
2018_02_13_S24 02/13/2018 04:30:00 0.2072
2018_02_13_S24 02/13/2018 04:35:00 0.4078
2018_02_13_S24 02/13/2018 04:40:00 0.5735
2018_02_13_S24 02/13/2018 04:45:00 1.4012
2018_02_13_S24 02/13/2018 04:50:00 0.4109
2018_02_13_S24 02/13/2018 04:55:00 0.7274
2018_02_13_S24 02/13/2018 05:00:00 0.593
2018_02_13_S24 02/13/2018 05:05:00 1.7185
2018_02_13_S24 02/13/2018 05:10:00 1.1448
2018_02_13_S24 02/13/2018 05:15:00 0.2493
2018_02_13_S24 02/13/2018 05:20:00 0.173
2018_02_13_S24 02/13/2018 05:25:00 0.2004
2018_02_13_S24 02/13/2018 05:30:00 0.5888
2018_02_13_S24 02/13/2018 05:35:00 0.3836
2018_02_13_S24 02/13/2018 05:40:00 0.4878
2018_02_13_S24 02/13/2018 05:45:00 0.9121
2018_02_13_S24 02/13/2018 05:50:00 0.9886
2018_02_13_S24 02/13/2018 05:55:00 0.2513
2018_02_13_S24 02/13/2018 06:00:00 0.1745
2018_02_13_S24 02/13/2018 06:05:00 0.2226
2018_02_13_S24 02/13/2018 06:10:00 0.5571
2018_02_13_S24 02/13/2018 06:15:00 0.613
2018_02_13_S24 02/13/2018 06:20:00 1.7994
2018_02_13_S24 02/13/2018 06:25:00 0.8503
2018_02_13_S24 02/13/2018 06:30:00 0.3051
2018_02_13_S24 02/13/2018 06:35:00 0.1719
2018_02_13_S24 02/13/2018 06:40:00 0.6604
2018_02_13_S24 02/13/2018 06:45:00 0.0997
2018_02_13_S24 02/13/2018 06:50:00 0.0567
2018_02_13_S24 02/13/2018 06:55:00 0.0162
2018_02_13_S24 02/13/2018 07:00:00 1.2066
2018_02_13_S24 02/13/2018 07:05:00 2.4259
2018_02_13_S24 02/13/2018 07:10:00 0.8244
2018_02_13_S24 02/13/2018 07:15:00 0.0237
2018_02_13_S24 02/13/2018 07:20:00 0.0
2018_02_13_S24 02/13/2018 07:25:00 0.0212
2018_02_13_S24 02/13/2018 07:30:00 0.1548
2018_02_13_S24 02/13/2018 07:35:00 0.0801
2018_02_13_S24 02/13/2018 07:40:00 0.1184
2018_02_13_S24 02/13/2018 07:45:00 0.0
2018_02_13_S24 02/13/2018 07:50:00 0.0
2018_02_13_S24 02/13/2018 07:55:00 0.0
2018_02_13_S24 02/13/2018 08:00:00 0.0

2018_02_13_S25 02/12/2018 19:55:00 0.0577
2018_02_13_S25 02/12/2018 20:00:00 0.0863
2018_02_13_S25 02/12/2018 20:05:00 0.0874
2018_02_13_S25 02/12/2018 20:10:00 0.1228
2018_02_13_S25 02/12/2018 20:15:00 0.1137
2018_02_13_S25 02/12/2018 20:20:00 0.1771
2018_02_13_S25 02/12/2018 20:25:00 0.1668
2018_02_13_S25 02/12/2018 20:30:00 0.2348
2018_02_13_S25 02/12/2018 20:35:00 0.1361
2018_02_13_S25 02/12/2018 20:40:00 0.1233
2018_02_13_S25 02/12/2018 20:45:00 0.0621
2018_02_13_S25 02/12/2018 20:50:00 0.0462
2018_02_13_S25 02/12/2018 20:55:00 0.041
2018_02_13_S25 02/12/2018 21:00:00 0.0487
2018_02_13_S25 02/12/2018 21:05:00 0.0329
2018_02_13_S25 02/12/2018 21:10:00 0.0342
2018_02_13_S25 02/12/2018 21:15:00 0.0553
2018_02_13_S25 02/12/2018 21:20:00 0.0507
2018_02_13_S25 02/12/2018 21:25:00 0.0841
2018_02_13_S25 02/12/2018 21:30:00 0.0548
2018_02_13_S25 02/12/2018 21:35:00 0.0338
2018_02_13_S25 02/12/2018 21:40:00 0.0469
2018_02_13_S25 02/12/2018 21:45:00 0.0531
2018_02_13_S25 02/12/2018 21:50:00 0.0572
2018_02_13_S25 02/12/2018 21:55:00 0.0689
2018_02_13_S25 02/12/2018 22:00:00 0.0628
2018_02_13_S25 02/12/2018 22:05:00 0.0406
2018_02_13_S25 02/12/2018 22:10:00 0.0395
2018_02_13_S25 02/12/2018 22:15:00 0.0537
2018_02_13_S25 02/12/2018 22:20:00 0.0373
2018_02_13_S25 02/12/2018 22:25:00 0.043
2018_02_13_S25 02/12/2018 22:30:00 0.0456
2018_02_13_S25 02/12/2018 22:35:00 0.0775
2018_02_13_S25 02/12/2018 22:40:00 0.0622
2018_02_13_S25 02/12/2018 22:45:00 0.0653
2018_02_13_S25 02/12/2018 22:50:00 0.0429
2018_02_13_S25 02/12/2018 22:55:00 0.0746
2018_02_13_S25 02/12/2018 23:00:00 0.0781
2018_02_13_S25 02/12/2018 23:05:00 0.0798
2018_02_13_S25 02/12/2018 23:10:00 0.0878
2018_02_13_S25 02/12/2018 23:15:00 0.1069
2018_02_13_S25 02/12/2018 23:20:00 0.1041
2018_02_13_S25 02/12/2018 23:25:00 0.1006
2018_02_13_S25 02/12/2018 23:30:00 0.1107
2018_02_13_S25 02/12/2018 23:35:00 0.0895
2018_02_13_S25 02/12/2018 23:40:00 0.0696
2018_02_13_S25 02/12/2018 23:45:00 0.083
2018_02_13_S25 02/12/2018 23:50:00 0.0889
2018_02_13_S25 02/12/2018 23:55:00 0.0726
2018_02_13_S25 02/13/2018 00:00:00 0.0743
2018_02_13_S25 02/13/2018 00:05:00 0.0723
2018_02_13_S25 02/13/2018 00:10:00 0.1573
2018_02_13_S25 02/13/2018 00:15:00 0.072
2018_02_13_S25 02/13/2018 00:20:00 0.0092
2018_02_13_S25 02/13/2018 00:25:00 0.0075
2018_02_13_S25 02/13/2018 00:30:00 0.0603
2018_02_13_S25 02/13/2018 00:35:00 0.0507
2018_02_13_S25 02/13/2018 00:40:00 0.028
2018_02_13_S25 02/13/2018 00:45:00 0.0222
2018_02_13_S25 02/13/2018 00:50:00 0.0376
2018_02_13_S25 02/13/2018 00:55:00 0.0859
2018_02_13_S25 02/13/2018 01:00:00 0.0352
2018_02_13_S25 02/13/2018 01:05:00 0.0447
2018_02_13_S25 02/13/2018 01:10:00 0.0549
2018_02_13_S25 02/13/2018 01:15:00 0.0617
2018_02_13_S25 02/13/2018 01:20:00 0.0567
2018_02_13_S25 02/13/2018 01:25:00 0.0511
2018_02_13_S25 02/13/2018 01:30:00 0.024
2018_02_13_S25 02/13/2018 01:35:00 0.0339
2018_02_13_S25 02/13/2018 01:40:00 0.01
2018_02_13_S25 02/13/2018 01:45:00 0.0101
2018_02_13_S25 02/13/2018 01:50:00 0.0089
2018_02_13_S25 02/13/2018 01:55:00 0.0119
2018_02_13_S25 02/13/2018 02:00:00 0.0095
2018_02_13_S25 02/13/2018 02:05:00 0.0092
2018_02_13_S25 02/13/2018 02:10:00 0.0361
2018_02_13_S25 02/13/2018 02:15:00 0.0083
2018_02_13_S25 02/13/2018 02:20:00 0.0379
2018_02_13_S25 02/13/2018 02:25:00 0.0286
2018_02_13_S25 02/13/2018 02:30:00 0.0082
2018_02_13_S25 02/13/2018 02:35:00 0.0278
2018_02_13_S25 02/13/2018 02:40:00 0.0824
2018_02_13_S25 02/13/2018 02:45:00 0.046
2018_02_13_S25 02/13/2018 02:50:00 0.048
2018_02_13_S25 02/13/2018 02:55:00 0.0593
2018_02_13_S25 02/13/2018 03:00:00 0.0367
2018_02_13_S25 02/13/2018 03:05:00 0.0651
2018_02_13_S25 02/13/2018 03:10:00 0.04
2018_02_13_S25 02/13/2018 03:15:00 0.0415
2018_02_13_S25 02/13/2018 03:20:00 0.1085
2018_02_13_S25 02/13/2018 03:25:00 0.058
2018_02_13_S25 02/13/2018 03:30:00 0.0841
2018_02_13_S25 02/13/2018 03:35:00 0.2213
2018_02_13_S25 02/13/2018 03:40:00 0.2348
2018_02_13_S25 02/13/2018 03:45:00 0.185
2018_02_13_S25 02/13/2018 03:50:00 0.2595
2018_02_13_S25 02/13/2018 03:55:00 0.2455
2018_02_13_S25 02/13/2018 04:00:00 0.1648
2018_02_13_S25 02/13/2018 04:05:00 0.2303
2018_02_13_S25 02/13/2018 04:10:00 0.2146
2018_02_13_S25 02/13/2018 04:15:00 0.5312
2018_02_13_S25 02/13/2018 04:20:00 0.3463
2018_02_13_S25 02/13/2018 04:25:00 0.2146
2018_02_13_S25 02/13/2018 04:30:00 0.2039
2018_02_13_S25 02/13/2018 04:35:00 0.4139
2018_02_13_S25 02/13/2018 04:40:00 0.5826
2018_02_13_S25 02/13/2018 04:45:00 1.3884
2018_02_13_S25 02/13/2018 04:50:00 0.4034
2018_02_13_S25 02/13/2018 04:55:00 0.8189
2018_02_13_S25 02/13/2018 05:00:00 0.5932
2018_02_13_S25 02/13/2018 05:05:00 1.7501
2018_02_13_S25 02/13/2018 05:10:00 1.1134
2018_02_13_S25 02/13/2018 05:15:00 0.2602
2018_02_13_S25 02/13/2018 05:20:00 0.2052
2018_02_13_S25 02/13/2018 05:25:00 0.2237
2018_02_13_S25 02/13/2018 05:30:00 0.5739
2018_02_13_S25 02/13/2018 05:35:00 0.3725
2018_02_13_S25 02/13/2018 05:40:00 0.3657
2018_02_13_S25 02/13/2018 05:45:00 1.1301
2018_02_13_S25 02/13/2018 05:50:00 0.9734
2018_02_13_S25 02/13/2018 05:55:00 0.2973
2018_02_13_S25 02/13/2018 06:00:00 0.146
2018_02_13_S25 02/13/2018 06:05:00 0.2229
2018_02_13_S25 02/13/2018 06:10:00 0.4986
2018_02_13_S25 02/13/2018 06:15:00 0.6177
2018_02_13_S25 02/13/2018 06:20:00 1.647
2018_02_13_S25 02/13/2018 06:25:00 0.7718
2018_02_13_S25 02/13/2018 06:30:00 0.251
2018_02_13_S25 02/13/2018 06:35:00 0.1528
2018_02_13_S25 02/13/2018 06:40:00 0.6661
2018_02_13_S25 02/13/2018 06:45:00 0.0814
2018_02_13_S25 02/13/2018 06:50:00 0.0417
2018_02_13_S25 02/13/2018 06:55:00 0.0082
2018_02_13_S25 02/13/2018 07:00:00 0.9354
2018_02_13_S25 02/13/2018 07:05:00 2.6872
2018_02_13_S25 02/13/2018 07:10:00 1.0148
2018_02_13_S25 02/13/2018 07:15:00 0.0176
2018_02_13_S25 02/13/2018 07:20:00 0.0
2018_02_13_S25 02/13/2018 07:25:00 0.0193
2018_02_13_S25 02/13/2018 07:30:00 0.1701
2018_02_13_S25 02/13/2018 07:35:00 0.0452
2018_02_13_S25 02/13/2018 07:40:00 0.1402
2018_02_13_S25 02/13/2018 07:45:00 0.0
2018_02_13_S25 02/13/2018 07:50:00 0.0
2018_02_13_S25 02/13/2018 07:55:00 0.0
2018_02_13_S25 02/13/2018 08:00:00 0.0

2018_02_13_S26 02/12/2018 19:55:00 0.0674
2018_02_13_S26 02/12/2018 20:00:00 0.0897
2018_02_13_S26 02/12/2018 20:05:00 0.0933
2018_02_13_S26 02/12/2018 20:10:00 0.1324
2018_02_13_S26 02/12/2018 20:15:00 0.1465
2018_02_13_S26 02/12/2018 20:20:00 0.1857
2018_02_13_S26 02/12/2018 20:25:00 0.118
2018_02_13_S26 02/12/2018 20:30:00 0.2559
2018_02_13_S26 02/12/2018 20:35:00 0.1604
2018_02_13_S26 02/12/2018 20:40:00 0.1222
2018_02_13_S26 02/12/2018 20:45:00 0.0592
2018_02_13_S26 02/12/2018 20:50:00 0.0468
2018_02_13_S26 02/12/2018 20:55:00 0.0383
2018_02_13_S26 02/12/2018 21:00:00 0.0551
2018_02_13_S26 02/12/2018 21:05:00 0.0321
2018_02_13_S26 02/12/2018 21:10:00 0.0292
2018_02_13_S26 02/12/2018 21:15:00 0.0637
2018_02_13_S26 02/12/2018 21:20:00 0.0704
2018_02_13_S26 02/12/2018 21:25:00 0.0808
2018_02_13_S26 02/12/2018 21:30:00 0.052
2018_02_13_S26 02/12/2018 21:35:00 0.0386
2018_02_13_S26 02/12/2018 21:40:00 0.0495
2018_02_13_S26 02/12/2018 21:45:00 0.0589
2018_02_13_S26 02/12/2018 21:50:00 0.0623
2018_02_13_S26 02/12/2018 21:55:00 0.0779
2018_02_13_S26 02/12/2018 22:00:00 0.0599
2018_02_13_S26 02/12/2018 22:05:00 0.0427
2018_02_13_S26 02/12/2018 22:10:00 0.0443
2018_02_13_S26 02/12/2018 22:15:00 0.0471
2018_02_13_S26 02/12/2018 22:20:00 0.0396
2018_02_13_S26 02/12/2018 22:25:00 0.0433
2018_02_13_S26 02/12/2018 22:30:00 0.0434
2018_02_13_S26 02/12/2018 22:35:00 0.072
2018_02_13_S26 02/12/2018 22:40:00 0.0568
2018_02_13_S26 02/12/2018 22:45:00 0.0654
2018_02_13_S26 02/12/2018 22:50:00 0.0459
2018_02_13_S26 02/12/2018 22:55:00 0.0796
2018_02_13_S26 02/12/2018 23:00:00 0.0756
2018_02_13_S26 02/12/2018 23:05:00 0.0661
2018_02_13_S26 02/12/2018 23:10:00 0.0644
2018_02_13_S26 02/12/2018 23:15:00 0.1052
2018_02_13_S26 02/12/2018 23:20:00 0.1142
2018_02_13_S26 02/12/2018 23:25:00 0.0907
2018_02_13_S26 02/12/2018 23:30:00 0.0964
2018_02_13_S26 02/12/2018 23:35:00 0.0877
2018_02_13_S26 02/12/2018 23:40:00 0.0805
2018_02_13_S26 02/12/2018 23:45:00 0.0847
2018_02_13_S26 02/12/2018 23:50:00 0.0868
2018_02_13_S26 02/12/2018 23:55:00 0.0836
2018_02_13_S26 02/13/2018 00:00:00 0.0831
2018_02_13_S26 02/13/2018 00:05:00 0.0749
2018_02_13_S26 02/13/2018 00:10:00 0.1784
2018_02_13_S26 02/13/2018 00:15:00 0.0752
2018_02_13_S26 02/13/2018 00:20:00 0.0139
2018_02_13_S26 02/13/2018 00:25:00 0.0082
2018_02_13_S26 02/13/2018 00:30:00 0.0637
2018_02_13_S26 02/13/2018 00:35:00 0.0516
2018_02_13_S26 02/13/2018 00:40:00 0.0299
2018_02_13_S26 02/13/2018 00:45:00 0.0308
2018_02_13_S26 02/13/2018 00:50:00 0.0335
2018_02_13_S26 02/13/2018 00:55:00 0.0854
2018_02_13_S26 02/13/2018 01:00:00 0.0379
2018_02_13_S26 02/13/2018 01:05:00 0.0492
2018_02_13_S26 02/13/2018 01:10:00 0.0522
2018_02_13_S26 02/13/2018 01:15:00 0.051
2018_02_13_S26 02/13/2018 01:20:00 0.0583
2018_02_13_S26 02/13/2018 01:25:00 0.0522
2018_02_13_S26 02/13/2018 01:30:00 0.0253
2018_02_13_S26 02/13/2018 01:35:00 0.0384
2018_02_13_S26 02/13/2018 01:40:00 0.0105
2018_02_13_S26 02/13/2018 01:45:00 0.0115
2018_02_13_S26 02/13/2018 01:50:00 0.0079
2018_02_13_S26 02/13/2018 01:55:00 0.0123
2018_02_13_S26 02/13/2018 02:00:00 0.0088
2018_02_13_S26 02/13/2018 02:05:00 0.0086
2018_02_13_S26 02/13/2018 02:10:00 0.0369
2018_02_13_S26 02/13/2018 02:15:00 0.0086
2018_02_13_S26 02/13/2018 02:20:00 0.0436
2018_02_13_S26 02/13/2018 02:25:00 0.029
2018_02_13_S26 02/13/2018 02:30:00 0.0081
2018_02_13_S26 02/13/2018 02:35:00 0.0243
2018_02_13_S26 02/13/2018 02:40:00 0.0632
2018_02_13_S26 02/13/2018 02:45:00 0.0328
2018_02_13_S26 02/13/2018 02:50:00 0.0459
2018_02_13_S26 02/13/2018 02:55:00 0.0567
2018_02_13_S26 02/13/2018 03:00:00 0.0328
2018_02_13_S26 02/13/2018 03:05:00 0.0504
2018_02_13_S26 02/13/2018 03:10:00 0.0377
2018_02_13_S26 02/13/2018 03:15:00 0.037
2018_02_13_S26 02/13/2018 03:20:00 0.1098
2018_02_13_S26 02/13/2018 03:25:00 0.079
2018_02_13_S26 02/13/2018 03:30:00 0.0679
2018_02_13_S26 02/13/2018 03:35:00 0.1225
2018_02_13_S26 02/13/2018 03:40:00 0.1946
2018_02_13_S26 02/13/2018 03:45:00 0.1951
2018_02_13_S26 02/13/2018 03:50:00 0.2356
2018_02_13_S26 02/13/2018 03:55:00 0.2059
2018_02_13_S26 02/13/2018 04:00:00 0.1372
2018_02_13_S26 02/13/2018 04:05:00 0.1742
2018_02_13_S26 02/13/2018 04:10:00 0.2373
2018_02_13_S26 02/13/2018 04:15:00 0.4212
2018_02_13_S26 02/13/2018 04:20:00 0.3035
2018_02_13_S26 02/13/2018 04:25:00 0.3369
2018_02_13_S26 02/13/2018 04:30:00 0.3083
2018_02_13_S26 02/13/2018 04:35:00 0.5421
2018_02_13_S26 02/13/2018 04:40:00 0.5174
2018_02_13_S26 02/13/2018 04:45:00 1.1609
2018_02_13_S26 02/13/2018 04:50:00 0.4181
2018_02_13_S26 02/13/2018 04:55:00 0.9365
2018_02_13_S26 02/13/2018 05:00:00 0.6232
2018_02_13_S26 02/13/2018 05:05:00 1.2712
2018_02_13_S26 02/13/2018 05:10:00 1.8195
2018_02_13_S26 02/13/2018 05:15:00 0.2768
2018_02_13_S26 02/13/2018 05:20:00 0.1592
2018_02_13_S26 02/13/2018 05:25:00 0.2283
2018_02_13_S26 02/13/2018 05:30:00 0.5419
2018_02_13_S26 02/13/2018 05:35:00 0.3479
2018_02_13_S26 02/13/2018 05:40:00 0.6269
2018_02_13_S26 02/13/2018 05:45:00 0.8793
2018_02_13_S26 02/13/2018 05:50:00 0.7677
2018_02_13_S26 02/13/2018 05:55:00 0.2931
2018_02_13_S26 02/13/2018 06:00:00 0.1884
2018_02_13_S26 02/13/2018 06:05:00 0.2049
2018_02_13_S26 02/13/2018 06:10:00 0.6569
2018_02_13_S26 02/13/2018 06:15:00 0.4596
2018_02_13_S26 02/13/2018 06:20:00 1.5583
2018_02_13_S26 02/13/2018 06:25:00 0.8567
2018_02_13_S26 02/13/2018 06:30:00 0.2945
2018_02_13_S26 02/13/2018 06:35:00 0.2236
2018_02_13_S26 02/13/2018 06:40:00 0.6089
2018_02_13_S26 02/13/2018 06:45:00 0.1661
2018_02_13_S26 02/13/2018 06:50:00 0.0718
2018_02_13_S26 02/13/2018 06:55:00 0.0127
2018_02_13_S26 02/13/2018 07:00:00 0.6985
2018_02_13_S26 02/13/2018 07:05:00 3.1155
2018_02_13_S26 02/13/2018 07:10:00 0.2615
2018_02_13_S26 02/13/2018 07:15:00 0.2267
2018_02_13_S26 02/13/2018 07:20:00 0.0
2018_02_13_S26 02/13/2018 07:25:00 0.0151
2018_02_13_S26 02/13/2018 07:30:00 0.0901
2018_02_13_S26 02/13/2018 07:35:00 0.1342
2018_02_13_S26 02/13/2018 07:40:00 0.0547
2018_02_13_S26 02/13/2018 07:45:00 0.0
2018_02_13_S26 02/13/2018 07:50:00 0.0
2018_02_13_S26 02/13/2018 07:55:00 0.0
2018_02_13_S26 02/13/2018 08:00:00 0.0

2018_02_13_S27 02/12/2018 19:55:00 0.0719
2018_02_13_S27 02/12/2018 20:00:00 0.1062
2018_02_13_S27 02/12/2018 20:05:00 0.1183
2018_02_13_S27 02/12/2018 20:10:00 0.1381
2018_02_13_S27 02/12/2018 20:15:00 0.1308
2018_02_13_S27 02/12/2018 20:20:00 0.2046
2018_02_13_S27 02/12/2018 20:25:00 0.1076
2018_02_13_S27 02/12/2018 20:30:00 0.2308
2018_02_13_S27 02/12/2018 20:35:00 0.1607
2018_02_13_S27 02/12/2018 20:40:00 0.1052
2018_02_13_S27 02/12/2018 20:45:00 0.0608
2018_02_13_S27 02/12/2018 20:50:00 0.0473
2018_02_13_S27 02/12/2018 20:55:00 0.0386
2018_02_13_S27 02/12/2018 21:00:00 0.0442
2018_02_13_S27 02/12/2018 21:05:00 0.0358
2018_02_13_S27 02/12/2018 21:10:00 0.0369
2018_02_13_S27 02/12/2018 21:15:00 0.059
2018_02_13_S27 02/12/2018 21:20:00 0.0585
2018_02_13_S27 02/12/2018 21:25:00 0.0815
2018_02_13_S27 02/12/2018 21:30:00 0.0639
2018_02_13_S27 02/12/2018 21:35:00 0.0447
2018_02_13_S27 02/12/2018 21:40:00 0.0517
2018_02_13_S27 02/12/2018 21:45:00 0.0645
2018_02_13_S27 02/12/2018 21:50:00 0.0587
2018_02_13_S27 02/12/2018 21:55:00 0.0849
2018_02_13_S27 02/12/2018 22:00:00 0.0613
2018_02_13_S27 02/12/2018 22:05:00 0.0445
2018_02_13_S27 02/12/2018 22:10:00 0.0489
2018_02_13_S27 02/12/2018 22:15:00 0.0524
2018_02_13_S27 02/12/2018 22:20:00 0.0384
2018_02_13_S27 02/12/2018 22:25:00 0.0421
2018_02_13_S27 02/12/2018 22:30:00 0.042
2018_02_13_S27 02/12/2018 22:35:00 0.0727
2018_02_13_S27 02/12/2018 22:40:00 0.0604
2018_02_13_S27 02/12/2018 22:45:00 0.0635
2018_02_13_S27 02/12/2018 22:50:00 0.0459
2018_02_13_S27 02/12/2018 22:55:00 0.0835
2018_02_13_S27 02/12/2018 23:00:00 0.0764
2018_02_13_S27 02/12/2018 23:05:00 0.0686
2018_02_13_S27 02/12/2018 23:10:00 0.0661
2018_02_13_S27 02/12/2018 23:15:00 0.0948
2018_02_13_S27 02/12/2018 23:20:00 0.1059
2018_02_13_S27 02/12/2018 23:25:00 0.0934
2018_02_13_S27 02/12/2018 23:30:00 0.0993
2018_02_13_S27 02/12/2018 23:35:00 0.0864
2018_02_13_S27 02/12/2018 23:40:00 0.0881
2018_02_13_S27 02/12/2018 23:45:00 0.0825
2018_02_13_S27 02/12/2018 23:50:00 0.0811
2018_02_13_S27 02/12/2018 23:55:00 0.0671
2018_02_13_S27 02/13/2018 00:00:00 0.0778
2018_02_13_S27 02/13/2018 00:05:00 0.0782
2018_02_13_S27 02/13/2018 00:10:00 0.1432
2018_02_13_S27 02/13/2018 00:15:00 0.0653
2018_02_13_S27 02/13/2018 00:20:00 0.0109
2018_02_13_S27 02/13/2018 00:25:00 0.0085
2018_02_13_S27 02/13/2018 00:30:00 0.0612
2018_02_13_S27 02/13/2018 00:35:00 0.0467
2018_02_13_S27 02/13/2018 00:40:00 0.0306
2018_02_13_S27 02/13/2018 00:45:00 0.0329
2018_02_13_S27 02/13/2018 00:50:00 0.0368
2018_02_13_S27 02/13/2018 00:55:00 0.0871
2018_02_13_S27 02/13/2018 01:00:00 0.0388
2018_02_13_S27 02/13/2018 01:05:00 0.0513
2018_02_13_S27 02/13/2018 01:10:00 0.05
2018_02_13_S27 02/13/2018 01:15:00 0.0544
2018_02_13_S27 02/13/2018 01:20:00 0.0577
2018_02_13_S27 02/13/2018 01:25:00 0.0609
2018_02_13_S27 02/13/2018 01:30:00 0.0262
2018_02_13_S27 02/13/2018 01:35:00 0.0339
2018_02_13_S27 02/13/2018 01:40:00 0.0127
2018_02_13_S27 02/13/2018 01:45:00 0.0104
2018_02_13_S27 02/13/2018 01:50:00 0.0082
2018_02_13_S27 02/13/2018 01:55:00 0.0157
2018_02_13_S27 02/13/2018 02:00:00 0.008
2018_02_13_S27 02/13/2018 02:05:00 0.0114
2018_02_13_S27 02/13/2018 02:10:00 0.0454
2018_02_13_S27 02/13/2018 02:15:00 0.0118
2018_02_13_S27 02/13/2018 02:20:00 0.047
2018_02_13_S27 02/13/2018 02:25:00 0.046
2018_02_13_S27 02/13/2018 02:30:00 0.0099
2018_02_13_S27 02/13/2018 02:35:00 0.0346
2018_02_13_S27 02/13/2018 02:40:00 0.0528
2018_02_13_S27 02/13/2018 02:45:00 0.0382
2018_02_13_S27 02/13/2018 02:50:00 0.064
2018_02_13_S27 02/13/2018 02:55:00 0.0457
2018_02_13_S27 02/13/2018 03:00:00 0.037
2018_02_13_S27 02/13/2018 03:05:00 0.048
2018_02_13_S27 02/13/2018 03:10:00 0.0371
2018_02_13_S27 02/13/2018 03:15:00 0.0455
2018_02_13_S27 02/13/2018 03:20:00 0.149
2018_02_13_S27 02/13/2018 03:25:00 0.0743
2018_02_13_S27 02/13/2018 03:30:00 0.0529
2018_02_13_S27 02/13/2018 03:35:00 0.1441
2018_02_13_S27 02/13/2018 03:40:00 0.1492
2018_02_13_S27 02/13/2018 03:45:00 0.2419
2018_02_13_S27 02/13/2018 03:50:00 0.2317
2018_02_13_S27 02/13/2018 03:55:00 0.2731
2018_02_13_S27 02/13/2018 04:00:00 0.1486
2018_02_13_S27 02/13/2018 04:05:00 0.1695
2018_02_13_S27 02/13/2018 04:10:00 0.1865
2018_02_13_S27 02/13/2018 04:15:00 0.7287
2018_02_13_S27 02/13/2018 04:20:00 0.2945
2018_02_13_S27 02/13/2018 04:25:00 0.3973
2018_02_13_S27 02/13/2018 04:30:00 0.2853
2018_02_13_S27 02/13/2018 04:35:00 0.5592
2018_02_13_S27 02/13/2018 04:40:00 0.5958
2018_02_13_S27 02/13/2018 04:45:00 1.3193
2018_02_13_S27 02/13/2018 04:50:00 0.301
2018_02_13_S27 02/13/2018 04:55:00 0.5288
2018_02_13_S27 02/13/2018 05:00:00 0.6191
2018_02_13_S27 02/13/2018 05:05:00 0.9716
2018_02_13_S27 02/13/2018 05:10:00 1.4436
2018_02_13_S27 02/13/2018 05:15:00 0.4999
2018_02_13_S27 02/13/2018 05:20:00 0.3279
2018_02_13_S27 02/13/2018 05:25:00 0.6044
2018_02_13_S27 02/13/2018 05:30:00 0.5678
2018_02_13_S27 02/13/2018 05:35:00 0.3534
2018_02_13_S27 02/13/2018 05:40:00 0.9831
2018_02_13_S27 02/13/2018 05:45:00 0.978
2018_02_13_S27 02/13/2018 05:50:00 0.8124
2018_02_13_S27 02/13/2018 05:55:00 0.3944
2018_02_13_S27 02/13/2018 06:00:00 0.3118
2018_02_13_S27 02/13/2018 06:05:00 0.3326
2018_02_13_S27 02/13/2018 06:10:00 0.6855
2018_02_13_S27 02/13/2018 06:15:00 0.6063
2018_02_13_S27 02/13/2018 06:20:00 1.208
2018_02_13_S27 02/13/2018 06:25:00 0.6742
2018_02_13_S27 02/13/2018 06:30:00 0.3127
2018_02_13_S27 02/13/2018 06:35:00 0.2316
2018_02_13_S27 02/13/2018 06:40:00 0.515
2018_02_13_S27 02/13/2018 06:45:00 0.1243
2018_02_13_S27 02/13/2018 06:50:00 0.1165
2018_02_13_S27 02/13/2018 06:55:00 0.0583
2018_02_13_S27 02/13/2018 07:00:00 2.904
2018_02_13_S27 02/13/2018 07:05:00 1.8088
2018_02_13_S27 02/13/2018 07:10:00 0.4796
2018_02_13_S27 02/13/2018 07:15:00 0.0096
2018_02_13_S27 02/13/2018 07:20:00 0.0
2018_02_13_S27 02/13/2018 07:25:00 0.0258
2018_02_13_S27 02/13/2018 07:30:00 0.1178
2018_02_13_S27 02/13/2018 07:35:00 0.4546
2018_02_13_S27 02/13/2018 07:40:00 0.0346
2018_02_13_S27 02/13/2018 07:45:00 0.0
2018_02_13_S27 02/13/2018 07:50:00 0.0
2018_02_13_S27 02/13/2018 07:55:00 0.0
2018_02_13_S27 02/13/2018 08:00:00 0.0

2018_02_13_S28 02/12/2018 19:55:00 0.0651
2018_02_13_S28 02/12/2018 20:00:00 0.1383
2018_02_13_S28 02/12/2018 20:05:00 0.1592
2018_02_13_S28 02/12/2018 20:10:00 0.1472
2018_02_13_S28 02/12/2018 20:15:00 0.1326
2018_02_13_S28 02/12/2018 20:20:00 0.198
2018_02_13_S28 02/12/2018 20:25:00 0.0895
2018_02_13_S28 02/12/2018 20:30:00 0.2468
2018_02_13_S28 02/12/2018 20:35:00 0.1583
2018_02_13_S28 02/12/2018 20:40:00 0.0974
2018_02_13_S28 02/12/2018 20:45:00 0.0557
2018_02_13_S28 02/12/2018 20:50:00 0.053
2018_02_13_S28 02/12/2018 20:55:00 0.038
2018_02_13_S28 02/12/2018 21:00:00 0.0419
2018_02_13_S28 02/12/2018 21:05:00 0.0319
2018_02_13_S28 02/12/2018 21:10:00 0.0315
2018_02_13_S28 02/12/2018 21:15:00 0.0613
2018_02_13_S28 02/12/2018 21:20:00 0.0522
2018_02_13_S28 02/12/2018 21:25:00 0.0727
2018_02_13_S28 02/12/2018 21:30:00 0.0688
2018_02_13_S28 02/12/2018 21:35:00 0.049
2018_02_13_S28 02/12/2018 21:40:00 0.0491
2018_02_13_S28 02/12/2018 21:45:00 0.0544
2018_02_13_S28 02/12/2018 21:50:00 0.0609
2018_02_13_S28 02/12/2018 21:55:00 0.0951
2018_02_13_S28 02/12/2018 22:00:00 0.0602
2018_02_13_S28 02/12/2018 22:05:00 0.0462
2018_02_13_S28 02/12/2018 22:10:00 0.0446
2018_02_13_S28 02/12/2018 22:15:00 0.0465
2018_02_13_S28 02/12/2018 22:20:00 0.0429
2018_02_13_S28 02/12/2018 22:25:00 0.05
2018_02_13_S28 02/12/2018 22:30:00 0.038
2018_02_13_S28 02/12/2018 22:35:00 0.0689
2018_02_13_S28 02/12/2018 22:40:00 0.0604
2018_02_13_S28 02/12/2018 22:45:00 0.0691
2018_02_13_S28 02/12/2018 22:50:00 0.0504
2018_02_13_S28 02/12/2018 22:55:00 0.0882
2018_02_13_S28 02/12/2018 23:00:00 0.0823
2018_02_13_S28 02/12/2018 23:05:00 0.0682
2018_02_13_S28 02/12/2018 23:10:00 0.0687
2018_02_13_S28 02/12/2018 23:15:00 0.0912
2018_02_13_S28 02/12/2018 23:20:00 0.1071
2018_02_13_S28 02/12/2018 23:25:00 0.0892
2018_02_13_S28 02/12/2018 23:30:00 0.1013
2018_02_13_S28 02/12/2018 23:35:00 0.08
2018_02_13_S28 02/12/2018 23:40:00 0.0773
2018_02_13_S28 02/12/2018 23:45:00 0.077
2018_02_13_S28 02/12/2018 23:50:00 0.0889
2018_02_13_S28 02/12/2018 23:55:00 0.0622
2018_02_13_S28 02/13/2018 00:00:00 0.0785
2018_02_13_S28 02/13/2018 00:05:00 0.0838
2018_02_13_S28 02/13/2018 00:10:00 0.1309
2018_02_13_S28 02/13/2018 00:15:00 0.0341
2018_02_13_S28 02/13/2018 00:20:00 0.0101
2018_02_13_S28 02/13/2018 00:25:00 0.0074
2018_02_13_S28 02/13/2018 00:30:00 0.0576
2018_02_13_S28 02/13/2018 00:35:00 0.0461
2018_02_13_S28 02/13/2018 00:40:00 0.0221
2018_02_13_S28 02/13/2018 00:45:00 0.0296
2018_02_13_S28 02/13/2018 00:50:00 0.0341
2018_02_13_S28 02/13/2018 00:55:00 0.091
2018_02_13_S28 02/13/2018 01:00:00 0.0409
2018_02_13_S28 02/13/2018 01:05:00 0.0463
2018_02_13_S28 02/13/2018 01:10:00 0.0365
2018_02_13_S28 02/13/2018 01:15:00 0.0555
2018_02_13_S28 02/13/2018 01:20:00 0.0607
2018_02_13_S28 02/13/2018 01:25:00 0.0739
2018_02_13_S28 02/13/2018 01:30:00 0.0215
2018_02_13_S28 02/13/2018 01:35:00 0.0325
2018_02_13_S28 02/13/2018 01:40:00 0.0131
2018_02_13_S28 02/13/2018 01:45:00 0.0107
2018_02_13_S28 02/13/2018 01:50:00 0.0077
2018_02_13_S28 02/13/2018 01:55:00 0.0155
2018_02_13_S28 02/13/2018 02:00:00 0.0078
2018_02_13_S28 02/13/2018 02:05:00 0.0158
2018_02_13_S28 02/13/2018 02:10:00 0.0419
2018_02_13_S28 02/13/2018 02:15:00 0.0125
2018_02_13_S28 02/13/2018 02:20:00 0.0542
2018_02_13_S28 02/13/2018 02:25:00 0.0784
2018_02_13_S28 02/13/2018 02:30:00 0.0111
2018_02_13_S28 02/13/2018 02:35:00 0.0337
2018_02_13_S28 02/13/2018 02:40:00 0.0582
2018_02_13_S28 02/13/2018 02:45:00 0.0597
2018_02_13_S28 02/13/2018 02:50:00 0.0827
2018_02_13_S28 02/13/2018 02:55:00 0.0419
2018_02_13_S28 02/13/2018 03:00:00 0.0502
2018_02_13_S28 02/13/2018 03:05:00 0.049
2018_02_13_S28 02/13/2018 03:10:00 0.0344
2018_02_13_S28 02/13/2018 03:15:00 0.0511
2018_02_13_S28 02/13/2018 03:20:00 0.1606
2018_02_13_S28 02/13/2018 03:25:00 0.0425
2018_02_13_S28 02/13/2018 03:30:00 0.0392
2018_02_13_S28 02/13/2018 03:35:00 0.1657
2018_02_13_S28 02/13/2018 03:40:00 0.1391
2018_02_13_S28 02/13/2018 03:45:00 0.2458
2018_02_13_S28 02/13/2018 03:50:00 0.2778
2018_02_13_S28 02/13/2018 03:55:00 0.2878
2018_02_13_S28 02/13/2018 04:00:00 0.1799
2018_02_13_S28 02/13/2018 04:05:00 0.1847
2018_02_13_S28 02/13/2018 04:10:00 0.1512
2018_02_13_S28 02/13/2018 04:15:00 0.7401
2018_02_13_S28 02/13/2018 04:20:00 0.24
2018_02_13_S28 02/13/2018 04:25:00 0.4279
2018_02_13_S28 02/13/2018 04:30:00 0.2739
2018_02_13_S28 02/13/2018 04:35:00 0.5422
2018_02_13_S28 02/13/2018 04:40:00 0.6852
2018_02_13_S28 02/13/2018 04:45:00 1.2617
2018_02_13_S28 02/13/2018 04:50:00 0.2177
2018_02_13_S28 02/13/2018 04:55:00 0.4481
2018_02_13_S28 02/13/2018 05:00:00 0.5976
2018_02_13_S28 02/13/2018 05:05:00 0.8648
2018_02_13_S28 02/13/2018 05:10:00 1.0287
2018_02_13_S28 02/13/2018 05:15:00 0.6964
2018_02_13_S28 02/13/2018 05:20:00 0.4965
2018_02_13_S28 02/13/2018 05:25:00 0.6444
2018_02_13_S28 02/13/2018 05:30:00 0.5831
2018_02_13_S28 02/13/2018 05:35:00 0.3079
2018_02_13_S28 02/13/2018 05:40:00 0.8826
2018_02_13_S28 02/13/2018 05:45:00 0.823
2018_02_13_S28 02/13/2018 05:50:00 0.6352
2018_02_13_S28 02/13/2018 05:55:00 0.4327
2018_02_13_S28 02/13/2018 06:00:00 0.3988
2018_02_13_S28 02/13/2018 06:05:00 0.3977
2018_02_13_S28 02/13/2018 06:10:00 0.4481
2018_02_13_S28 02/13/2018 06:15:00 0.5669
2018_02_13_S28 02/13/2018 06:20:00 0.8505
2018_02_13_S28 02/13/2018 06:25:00 0.6268
2018_02_13_S28 02/13/2018 06:30:00 0.324
2018_02_13_S28 02/13/2018 06:35:00 0.1816
2018_02_13_S28 02/13/2018 06:40:00 0.3398
2018_02_13_S28 02/13/2018 06:45:00 0.1081
2018_02_13_S28 02/13/2018 06:50:00 0.1864
2018_02_13_S28 02/13/2018 06:55:00 0.1036
2018_02_13_S28 02/13/2018 07:00:00 3.8499
2018_02_13_S28 02/13/2018 07:05:00 1.4402
2018_02_13_S28 02/13/2018 07:10:00 0.6104
2018_02_13_S28 02/13/2018 07:15:00 0.0
2018_02_13_S28 02/13/2018 07:20:00 0.0
2018_02_13_S28 02/13/2018 07:25:00 0.0255
2018_02_13_S28 02/13/2018 07:30:00 0.0628
2018_02_13_S28 02/13/2018 07:35:00 0.7277
2018_02_13_S28 02/13/2018 07:40:00 0.0176
2018_02_13_S28 02/13/2018 07:45:00 0.0
2018_02_13_S28 02/13/2018 07:50:00 0.0
2018_02_13_S28 02/13/2018 07:55:00 0.0
2018_02_13_S28 02/13/2018 08:00:00 0.0

;;____________________________________________________________________________________________________
[REPORT]
;;Reporting Options
SUBCATCHMENTS ALL
NODES ALL
LINKS ALL

;;____________________________________________________________________________________________________
[MAP]
DIMENSIONS 185865.396 673350.000 190772.001 679332.930
Units      Meters

;;____________________________________________________________________________________________________
[COORDINATES]
;;Node           X-Coord            Y-Coord           
;;-------------- ------------------ ------------------
J1               188416.573         678864.133        
J10              187876.949         676421.351        
J11              187771.585         676118.430        
J12              187745.244         675971.909        
J13              187705.733         675874.777        
J14              187172.330         676006.482        
J15              186808.496         675525.760        
J16              187588.852         675315.403        
J17              187325.287         674633.430        
J18              186976.064         674336.920        
J2               188485.717         678548.042        
J20              188922.377         677824.394        
J21              189159.110         677387.020        
J22              189116.281         676672.101        
J23              188928.977         676213.404        
J24              188829.655         675802.338        
J25              188998.163         675748.871        
J26              189650.485         676542.859        
J3               188483.151         678441.702        
J4               188316.513         677812.480        
J5               188232.551         677631.386        
J6               188137.065         677425.598        
J7               188104.139         677267.552        
J8               188018.531         676976.156        
J9               187918.106         676592.567        
O1               188423.158         679007.361

;;____________________________________________________________________________________________________
[VERTICES]
;;Link           X-Coord            Y-Coord           
;;-------------- ------------------ ------------------
C2               188487.548         678593.979        
C2               188403.586         678740.501        
C21              189211.773         677639.351        
C21              189047.045         677701.947        
C21              189037.161         677797.490        
C22              189218.362         677049.625        
C22              189093.169         677092.455        
C23              188968.026         676309.700        
C23              189040.506         676306.405        
C4               188383.830         677872.897        
C4               188365.721         677925.579        
C4               188360.782         678067.161        
C4               188415.110         678221.914        
C4               188480.962         678429.349        
C5               188251.288         677708.747

;;____________________________________________________________________________________________________
[POLYGONS]
;;Subcatchment   X-Coord            Y-Coord           
;;-------------- ------------------ ------------------
S01              187279.862         678858.156        
S01              187414.939         678805.443        
S01              187494.009         678798.854        
S01              187622.496         678838.389        
S01              187675.209         678818.621        
S01              187790.519         678812.032        
S01              187823.464         678848.272        
S01              187866.293         678854.861        
S01              187899.239         678868.040        
S01              187981.603         678802.148        
S01              188027.727         678798.854        
S01              188077.145         678805.443        
S01              188123.269         678821.916        
S01              188162.804         678844.978        
S01              188205.633         678861.450        
S01              188281.408         678874.629        
S01              188337.415         678910.869        
S01              188390.128         678950.403        
S01              188406.601         678999.822        
S01              188446.135         679009.705        
S01              188446.135         678980.054        
S01              188423.073         678854.861        
S01              188416.484         678756.025        
S01              188495.554         678591.297        
S01              188067.261         678535.289        
S01              187734.511         678525.406        
S01              187095.367         678528.700        
S01              187194.204         678607.770        
S01              187167.848         678634.126        
S01              187164.553         678680.250        
S01              187276.568         678841.683        
S02              188311.826         678562.991        
S02              188093.122         678531.748        
S02              187825.817         678517.862        
S02              187121.103         678531.748        
S02              187034.315         678455.375        
S02              186964.886         678427.603        
S02              187003.072         678170.712        
S02              186968.357         678125.583        
S02              186933.642         678021.438        
S02              186874.627         677899.935        
S02              186982.243         677882.578        
S02              187207.890         677858.277        
S02              187277.320         677872.163        
S02              187659.185         677872.163        
S02              188023.692         677865.220        
S02              188318.769         677851.334        
S02              188322.241         677934.650        
S02              188339.598         678087.396        
S02              188402.085         678212.370        
S02              188412.500         678292.215        
S02              188468.044         678431.074        
S02              188464.572         678583.820        
S03              186866.088         677850.375        
S03              186852.202         677826.075        
S03              186855.674         677753.174        
S03              186914.689         677610.842        
S03              186994.534         677586.542        
S03              187067.435         677558.770        
S03              187109.093         677503.226        
S03              187154.222         677492.811        
S03              187244.481         677524.055        
S03              187383.341         677562.241        
S03              187466.657         677576.127        
S03              187570.802         677534.469        
S03              187855.465         677503.226        
S03              187987.382         677548.355        
S03              188126.241         677635.143        
S03              188188.728         677697.630        
S03              188240.801         677718.459        
S03              188285.930         677774.003        
S03              188320.645         677843.432        
S03              187740.905         677857.318        
S03              187185.466         677846.904        
S03              186886.917         677878.147        
S04              187214.648         677432.470        
S04              187264.984         677411.641        
S04              187275.399         677323.118        
S04              187509.725         677234.595        
S04              187551.383         677357.833        
S04              187709.336         677323.118        
S04              187735.372         677366.512        
S04              187898.533         677333.532        
S04              187919.361         677422.056        
S04              188125.916         677369.983        
S04              188223.117         677611.252        
S04              188240.475         677727.547        
S04              188037.392         677592.159        
S04              187900.268         677515.786        
S04              187593.041         677538.351        
S04              187488.896         677571.330        
S04              187419.466         677571.330        
S04              187232.005         677514.050        
S05              187478.475         677233.098        
S05              187442.024         677106.389        
S05              187785.702         677003.980        
S05              187822.153         677102.917        
S05              187962.749         677075.145        
S05              187985.313         677113.332        
S05              188053.008         677106.389        
S05              188139.795         677359.808        
S05              187924.562         677406.673        
S05              187910.676         677325.093        
S05              187740.573         677354.601        
S05              187712.801         677323.357        
S05              187539.226         677342.450        
S05              187527.076         677264.342        
S05              187494.097         677220.948        
S06              186705.854         677552.926        
S06              186698.911         677467.875        
S06              186665.932         677434.896        
S06              186657.253         677073.860        
S06              186627.745         677021.788        
S06              186652.046         676938.472        
S06              187217.900         676783.990        
S06              187261.293         676910.700        
S06              187933.028         676740.596        
S06              188044.116         677108.575        
S06              187981.629         677118.989        
S06              187946.914         677089.482        
S06              187813.261         677125.932        
S06              187792.432         677009.637        
S06              187441.811         677108.575        
S06              187466.112         677242.228        
S06              187259.558         677320.336        
S06              187250.879         677412.331        
S06              187197.071         677408.859        
S06              187209.221         677500.854        
S06              187117.226         677493.911        
S06              187056.475         677565.077        
S06              186898.522         677613.678        
S06              186836.035         677537.305        
S06              186711.061         677559.869        
S07              186650.642         676928.193        
S07              186604.518         676855.713        
S07              186578.162         676763.466        
S07              186650.642         676608.621        
S07              186742.890         676457.072        
S07              186917.501         676407.654        
S07              186940.563         676473.545        
S07              187457.809         676331.879        
S07              187431.452         676256.104        
S07              187790.559         676147.384        
S07              187978.348         676727.226        
S07              187260.135         676921.604        
S07              187227.190         676786.528        
S07              186644.053         676931.488        
S08              186765.952         676443.894        
S08              186848.316         676364.824        
S08              186756.068         676249.515        
S08              186769.246         676239.631        
S08              187105.291         676134.205        
S08              187141.531         676018.896        
S08              187711.489         675864.052        
S08              187810.326         676144.089        
S08              187434.747         676236.337        
S08              187464.398         676331.879        
S08              186940.563         676476.839        
S08              186930.680         676407.654        
S08              186746.184         676453.777        
S09              186774.094         676232.497        
S09              187105.622         676117.938        
S09              187136.865         676013.793        
S09              187254.896         675973.871        
S09              187091.736         675496.540        
S09              186834.845         675557.291        
S09              186846.995         675678.794        
S09              186650.856         675720.452        
S09              186619.612         675847.161        
S09              186609.198         676031.151        
S09              186640.441         676112.731        
S09              186770.622         676249.855        
S10              186660.526         675669.673        
S10              186588.046         675623.549        
S10              186541.922         675534.596        
S10              186403.551         675514.829        
S10              186370.605         675465.410        
S10              186367.310         675386.341        
S10              186291.536         675359.985        
S10              186258.590         675294.094        
S10              186278.357         675261.148        
S10              186261.885         675211.730        
S10              186268.474         675089.831        
S10              186298.125         675116.188        
S10              186360.721         675053.591        
S10              186456.263         675040.413        
S10              186476.031         674967.932        
S10              186624.286         674911.925        
S10              186848.316         675053.591        
S10              186924.090         675231.497        
S10              186999.865         675521.418        
S10              186825.254         675551.069        
S10              186851.610         675676.262        
S10              186627.580         675722.386        
S11              186996.571         675488.472        
S11              186943.858         675290.799        
S11              186854.905         675066.769        
S11              186630.875         674921.809        
S11              186627.580         674625.299        
S11              186574.867         674526.462        
S11              186739.595         674302.432        
S11              186733.006         674167.355        
S11              187306.259         674061.929        
S11              187372.150         674028.984        
S11              187263.430         674529.756        
S11              187167.888         674533.051        
S11              187227.190         674895.452        
S11              187335.910         675228.202        
S11              187319.437         675310.566        
S11              187246.957         675392.930        
S11              187131.647         675491.767        
S11              186996.571         675514.829        
S12              186752.882         674155.010        
S12              187356.922         674047.394        
S12              187353.450         673849.518        
S12              187304.850         673898.119        
S12              187204.176         673918.948        
S12              187075.731         673936.306        
S12              187016.715         673842.575        
S12              186752.882         673832.161        
S12              186669.566         673905.062        
S12              186659.151         673932.834        
S12              186738.996         674016.150        
S12              186735.524         674144.595        
S13              187362.328         673864.932        
S13              187369.271         674069.750        
S13              187279.013         674527.988        
S13              187174.868         674538.402        
S13              187268.598         675059.126        
S13              187334.556         675257.002        
S13              187289.427         675357.675        
S13              187192.225         675434.048        
S13              187108.909         675472.235        
S13              187258.184         675968.659        
S13              187806.680         675833.270        
S13              187806.680         675753.426        
S13              188230.203         675645.809        
S13              188230.203         675562.493        
S13              188414.192         675562.493        
S13              188455.850         675007.054        
S13              188275.332         674850.837        
S13              188094.814         674753.635        
S13              188039.270         674538.402        
S13              187955.954         674462.029        
S13              187917.768         674267.625        
S13              187942.068         674205.138        
S13              187949.011         674062.807        
S13              187883.053         673996.849        
S13              187848.338         674000.320        
S13              187758.079         673962.134        
S13              187695.592         673812.859        
S13              187626.162         673764.258        
S13              187476.888         673788.559        
S13              187358.857         673864.932        
S14              187715.284         675871.166        
S14              187833.314         676235.673        
S14              188503.313         676062.098        
S14              188454.712         675905.881        
S14              188291.552         675912.824        
S14              188246.423         675659.404        
S14              187819.429         675756.606        
S14              187812.486         675857.280        
S14              187729.170         675874.637        
S15              188699.856         674898.747        
S15              188604.314         674846.034        
S15              188469.237         674987.700        
S15              188423.114         675570.836        
S15              188235.324         675560.953        
S15              188228.735         675643.317        
S15              188245.207         675705.913        
S15              188274.858         675722.386        
S15              188571.369         675643.317        
S15              188614.198         675794.866        
S15              189009.545         675705.913        
S15              189035.901         675788.277        
S15              189388.419         675323.745        
S15              189312.644         675336.923        
S15              189200.629         675307.272        
S15              189095.203         675191.962        
S15              189088.614         675014.056        
S15              188956.832         674974.522        
S15              188917.297         674872.390        
S15              188762.453         674859.212        
S15              188706.445         674905.336        
S16              189072.141         675738.859        
S16              189391.713         675310.566        
S16              189427.953         675336.923        
S16              189622.332         675336.923        
S16              189734.347         675373.163        
S16              189803.533         675313.861        
S16              189935.315         675458.821        
S16              189968.260         675633.433        
S16              189510.317         675653.200        
S16              189507.023         675808.044        
S16              189605.859         676018.896        
S16              189605.859         676068.314        
S16              189424.659         676078.198        
S16              189358.767         675775.099        
S16              189049.079         675775.099        
S17              188292.964         675915.061        
S17              188470.010         675880.346        
S17              188619.285         676414.957        
S17              188640.114         676418.428        
S17              189521.874         676165.009        
S17              189501.045         676078.221        
S17              189431.615         676071.278        
S17              189421.200         676046.978        
S17              189348.299         675779.673        
S17              189028.921         675793.559        
S17              189018.507         675724.129        
S17              188612.342         675803.973        
S17              188588.041         675661.642        
S17              188275.607         675734.543        
S17              188310.322         675911.590        
S18              187933.690         676600.013        
S18              187833.017         676245.920        
S18              188506.487         676075.817        
S18              188624.518         676422.967        
S18              187937.162         676596.541        
S19              188046.282         676980.558        
S19              188310.116         676883.356        
S19              188337.888         676956.257        
S19              188712.810         676865.998        
S19              188716.281         676848.641        
S19              188629.494         676588.278        
S19              188639.908         676439.004        
S19              187931.723         676602.164        
S19              188046.282         676977.086        
S20              188151.099         677391.191        
S20              188699.596         677300.932        
S20              188692.653         677186.373        
S20              188786.383         677148.186        
S20              188716.953         676839.223        
S20              188345.503         676960.726        
S20              188314.260         676898.239        
S20              188046.954         676967.669        
S20              188151.099         677384.248        
S21              188644.301         676422.695        
S21              188630.415         676474.768        
S21              188717.202         676811.503        
S21              188800.518         677141.295        
S21              189776.009         676901.762        
S21              189633.677         676290.778        
S21              189592.019         676075.545        
S21              189505.232         676072.074        
S21              189519.118         676186.633        
S21              188640.829         676433.110        
S22              189609.358         676094.851        
S22              189796.819         676879.409        
S22              189828.062         676993.969        
S22              189848.891         676948.839        
S22              189921.793         676855.109        
S22              189977.337         676827.337        
S22              190053.710         676733.606        
S22              190119.668         676695.420        
S22              190185.627         676695.420        
S22              190268.943         676636.404        
S22              190362.673         676660.705        
S22              190432.103         676594.746        
S22              190452.932         676521.845        
S22              190425.160         676476.716        
S22              190553.605         676386.457        
S22              190557.077         676303.141        
S22              190494.590         676202.467        
S22              190525.833         676060.136        
S22              190515.419         675955.991        
S22              190414.745         675865.732        
S22              190161.326         675667.857        
S22              190088.425         675695.629        
S22              189977.337         675640.085        
S22              189522.571         675647.028        
S22              189508.685         675792.831        
S22              189619.773         676063.608        
S23              188878.835         677825.274        
S23              188944.793         677832.217        
S23              189187.798         677755.844        
S23              189392.616         677717.657        
S23              189691.165         677696.828        
S23              189684.222         677578.797        
S23              189760.595         677540.611        
S23              189750.181         677429.523        
S23              189718.937         677349.679        
S23              189791.838         677269.834        
S23              189798.781         677040.716        
S23              189777.953         676922.685        
S23              188944.793         677134.446        
S23              188965.622         677262.891        
S23              188913.550         677262.891        
S23              188930.907         677495.482        
S23              188885.778         677498.953        
S23              188861.477         677825.274        
S24              188340.468         677855.197        
S24              188784.820         677851.726        
S24              188868.135         677834.368        
S24              188864.664         677511.519        
S24              188923.679         677490.690        
S24              188902.850         677261.571        
S24              188951.451         677258.100        
S24              188947.980         677140.069        
S24              188916.736         677140.069        
S24              188708.447         677209.499        
S24              188684.146         677615.664        
S24              188267.567         677671.208        
S24              188333.525         677855.197        
S25              188250.451         677657.676        
S25              188691.331         677605.603        
S25              188691.331         677588.246        
S25              188698.274         677463.272        
S25              188712.160         677400.785        
S25              188705.217         677310.526        
S25              188160.192         677386.899        
S25              188246.979         677654.204        
S26              188709.123         678042.797        
S26              188719.538         677869.222        
S26              188820.211         677876.165        
S26              188861.869         677844.922        
S26              189007.672         677820.621        
S26              189299.278         677747.720        
S26              189688.085         677681.761        
S26              189698.500         677713.005        
S26              189681.142         677855.336        
S26              189629.070         677980.310        
S26              189483.267         678126.113        
S26              189313.163         678122.641        
S26              189268.034         678146.942        
S26              189014.615         678136.527        
S26              189004.200         678098.341        
S26              188702.180         678042.797        
S27              188509.779         678591.953        
S27              188617.395         678623.196        
S27              188929.830         678640.554        
S27              188884.700         679064.076        
S27              188981.902         679039.776        
S27              189207.550         679022.419        
S27              189259.622         678970.346        
S27              189419.311         678959.932        
S27              189467.912         678932.160        
S27              189471.383         678817.600        
S27              189433.197         678758.585        
S27              189502.627         678720.398        
S27              189572.057         678682.212        
S27              189596.357         678598.896        
S27              189565.114         678581.538        
S27              189526.927         678539.881        
S27              189509.570         678456.565        
S27              189471.383         678383.663        
S27              189471.383         678144.130        
S27              189308.223         678123.301        
S27              189290.866         678161.487        
S27              189006.203         678147.601        
S27              189009.674         678105.943        
S27              188714.597         678050.400        
S27              188718.069         677883.768        
S27              188363.976         677855.996        
S27              188363.976         677883.768        
S27              188377.862         678060.814        
S27              188409.105         678137.187        
S27              188475.064         678376.720        
S27              188506.307         678598.896        
S28              188431.500         678929.384        
S28              188415.027         678744.888        
S28              188474.329         678599.928        
S28              188569.871         678616.401        
S28              188747.777         678636.168        
S28              188849.908         678639.463        
S28              188909.210         678622.990        
S28              188912.505         678688.881        
S28              188892.738         678850.314        
S28              188863.087         679061.166        
S28              188635.762         679067.755        
S28              188606.111         679051.282        
S28              188507.274         678988.686        
S28              188434.794         678988.686

;;____________________________________________________________________________________________________
[SYMBOLS]
;;Gage           X-Coord            Y-Coord           
;;-------------- ------------------ ------------------

;;____________________________________________________________________________________________________
[BACKDROP]
FILE       "raanana_24subcatchments.png"
DIMENSIONS 185865.396 673350.000 190728.391 679250.737