[TITLE]
;;Project Title/Notes

;;____________________________________________________________________________________________________
[OPTIONS]
FLOW_UNITS           CMS
INFILTRATION         CURVE_NUMBER
FLOW_ROUTING         DYNWAVE
LINK_OFFSETS         DEPTH
MIN_SLOPE            0
ALLOW_PONDING        NO
SKIP_STEADY_STATE    NO
START_DATE           11/21/2017
START_TIME           00:00:00
REPORT_START_DATE    11/21/2017
REPORT_START_TIME    00:00:00
END_DATE             11/21/2017
END_TIME             07:50:00
SWEEP_START          01/01
SWEEP_END            12/31
DRY_DAYS             0
REPORT_STEP          00:05:00
WET_STEP             00:05:00
DRY_STEP             01:00:00
ROUTING_STEP         0:00:20
RULE_STEP            00:00:00
INERTIAL_DAMPING     PARTIAL
NORMAL_FLOW_LIMITED  BOTH
FORCE_MAIN_EQUATION  H-W
VARIABLE_STEP        0.75
LENGTHENING_STEP     0
MIN_SURFAREA         1.167
MAX_TRIALS           8
HEAD_TOLERANCE       0.0015
SYS_FLOW_TOL         5
LAT_FLOW_TOL         5
MINIMUM_STEP         0.5
THREADS              1

;;____________________________________________________________________________________________________
[EVAPORATION]
CONSTANT  4
DRY_ONLY  NO

;;____________________________________________________________________________________________________
[RAINGAGES]
R01 VOLUME 0:05 0 TIMESERIES 2017_11_21_S1
R02 VOLUME 0:05 0 TIMESERIES 2017_11_21_S2
R03 VOLUME 0:05 0 TIMESERIES 2017_11_21_S3
R04 VOLUME 0:05 0 TIMESERIES 2017_11_21_S4
R05 VOLUME 0:05 0 TIMESERIES 2017_11_21_S5
R06 VOLUME 0:05 0 TIMESERIES 2017_11_21_S6
R07 VOLUME 0:05 0 TIMESERIES 2017_11_21_S7
R08 VOLUME 0:05 0 TIMESERIES 2017_11_21_S8
R09 VOLUME 0:05 0 TIMESERIES 2017_11_21_S9
R10 VOLUME 0:05 0 TIMESERIES 2017_11_21_S10
R11 VOLUME 0:05 0 TIMESERIES 2017_11_21_S11
R12 VOLUME 0:05 0 TIMESERIES 2017_11_21_S12
R13 VOLUME 0:05 0 TIMESERIES 2017_11_21_S13
R14 VOLUME 0:05 0 TIMESERIES 2017_11_21_S14
R15 VOLUME 0:05 0 TIMESERIES 2017_11_21_S15
R16 VOLUME 0:05 0 TIMESERIES 2017_11_21_S16
R17 VOLUME 0:05 0 TIMESERIES 2017_11_21_S17
R18 VOLUME 0:05 0 TIMESERIES 2017_11_21_S18
R19 VOLUME 0:05 0 TIMESERIES 2017_11_21_S19
R20 VOLUME 0:05 0 TIMESERIES 2017_11_21_S20
R21 VOLUME 0:05 0 TIMESERIES 2017_11_21_S21
R22 VOLUME 0:05 0 TIMESERIES 2017_11_21_S22
R23 VOLUME 0:05 0 TIMESERIES 2017_11_21_S23
R24 VOLUME 0:05 0 TIMESERIES 2017_11_21_S24
R25 VOLUME 0:05 0 TIMESERIES 2017_11_21_S25
R26 VOLUME 0:05 0 TIMESERIES 2017_11_21_S26
R27 VOLUME 0:05 0 TIMESERIES 2017_11_21_S27
R28 VOLUME 0:05 0 TIMESERIES 2017_11_21_S28

;;____________________________________________________________________________________________________
[SUBCATCHMENTS]
S01 R01 J1 35.9 6 3211 3 0
S02 R02 J2 92.9 54 3640 2.6 0
S03 R03 J4 40.8 64.5 3640 2.2 0
S04 R04 J6 20.1 70.5 2457 2.4 0
S05 R05 J7 17.4 67.5 1508 3.5 0
S06 R06 J8 61.1 70.5 3692 1.9 0
S07 R07 J9 60.2 70.5 3458 2 0
S08 R08 J11 29 70.5 2600 2.8 0
S09 R09 J14 31.1 19.5 1482 3 0
S10 R10 J15 35.6 70.5 1820 2.2 0
S11 R11 J17 67.4 70.5 702 3.5 0
S12 R12 J18 15.2 16.5 2860 4 0
S13 R13 J16 177.1 10.5 5408 1.3 0
S14 R14 J12 27 73.5 1391 3 0
S15 R15 J24 59.2 24 1703 2.5 0
S16 R16 J25 28.6 45 1703 2.3 0
S17 R17 J23 53.4 73.5 1560 2.4 0
S18 R18 J10 25.4 73.5 1872 2.9 0
S19 R19 J8 27.8 73.5 1820 3.2 0
S20 R20 J7 28.2 70.5 1820 3.3 0
S21 R21 J22 76.7 70.5 1976 2.8 0
S22 R22 J26 87.9 82.5 2405 2.4 0
S23 R23 J21 60.3 69 2262 2.1 0
S24 R24 J4 21.6 70.5 3255.2 2 0
S25 R25 J5 14 76.5 1274 3.6 0
S26 R26 J20 30.9 94.5 2470 2.1 0
S27 R27 J3 82 97.5 2782 1.9 0
S28 R28 J1 18.8 3 1235 2.4 0


;;____________________________________________________________________________________________________
[SUBAREAS]
S01 0.011 0.06 14.4 40 30 PERVIOUS 45
S02 0.011 0.06 14.4 40 50 PERVIOUS 45
S03 0.011 0.06 14.4 40 50 PERVIOUS 45
S04 0.011 0.06 14.4 40 50 PERVIOUS 45
S05 0.011 0.06 14.4 40 50 PERVIOUS 45
S06 0.011 0.06 14.4 40 50 PERVIOUS 45
S07 0.011 0.06 14.4 40 50 PERVIOUS 45
S08 0.011 0.06 14.4 40 50 PERVIOUS 45
S09 0.011 0.06 14.4 40 30 PERVIOUS 45
S10 0.011 0.06 14.4 40 50 PERVIOUS 45
S11 0.011 0.06 14.4 40 50 PERVIOUS 45
S12 0.011 0.06 14.4 40 30 PERVIOUS 45
S13 0.011 0.06 14.4 40 30 PERVIOUS 45
S14 0.011 0.06 14.4 40 50 PERVIOUS 45
S15 0.011 0.06 14.4 40 30 PERVIOUS 45
S16 0.011 0.06 14.4 40 50 PERVIOUS 45
S17 0.011 0.06 14.4 40 50 PERVIOUS 45
S18 0.011 0.06 14.4 40 50 PERVIOUS 45
S19 0.011 0.06 14.4 40 50 PERVIOUS 45
S20 0.011 0.06 14.4 40 50 PERVIOUS 45
S21 0.011 0.06 14.4 40 50 PERVIOUS 45
S22 0.011 0.06 14.4 40 60 PERVIOUS 45
S23 0.011 0.06 14.4 40 50 PERVIOUS 45
S24 0.011 0.06 14.4 40 50 PERVIOUS 45
S25 0.011 0.06 14.4 40 50 PERVIOUS 45
S26 0.011 0.06 14.4 40 60 PERVIOUS 45
S27 0.011 0.06 14.4 40 60 PERVIOUS 45
S28 0.011 0.06 14.4 40 30 PERVIOUS 45


;;____________________________________________________________________________________________________
[INFILTRATION]
S01 39 0.5 4
S02 39 0.5 4
S03 39 0.5 4
S04 39 0.5 4
S05 39 0.5 4
S06 39 0.5 4
S07 39 0.5 4
S08 39 0.5 4
S09 39 0.5 4
S10 39 0.5 4
S11 39 0.5 4
S12 39 0.5 4
S13 39 0.5 4
S14 39 0.5 4
S15 39 0.5 4
S16 39 0.5 4
S17 39 0.5 4
S18 39 0.5 4
S19 39 0.5 4
S20 39 0.5 4
S21 39 0.5 4
S22 39 0.5 4
S23 39 0.5 4
S24 39 0.5 4
S25 39 0.5 4
S26 39 0.5 4
S27 39 0.5 4
S28 39 0.5 4


;;____________________________________________________________________________________________________
[JUNCTIONS]
;;Name           Elevation  MaxDepth   InitDepth  SurDepth   Aponded   
;;-------------- ---------- ---------- ---------- ---------- ----------
J1               28.6       0          0          0          0         
J10              41.7       0          0          0          0         
J11              43.4       0          0          0          0         
J12              44.5       0          0          0          0         
J13              45.2       0          0          0          0         
J14              54.6       0          0          0          0         
J15              60.3       0          0          0          0         
J16              49         0          0          0          0         
J17              55.5       0          0          0          0         
J18              65.1       0          0          0          0         
J2               31.6       0          0          0          0         
J20              37.3       0          0          0          0         
J21              42.7       0          0          0          0         
J22              46.8       0          0          0          0         
J23              49.5       0          0          0          0         
J24              50.1       0          0          0          0         
J25              53.6       0          0          0          0         
J26              53.8       0          0          0          0         
J3               31.8       0          0          0          0         
J4               33.2       0          0          0          0         
J5               35.8       0          0          0          0         
J6               38         0          0          0          0         
J7               38.5       0          0          0          0         
J8               39.9       0          0          0          0         
J9               40.6       0          0          0          0

;;____________________________________________________________________________________________________
[OUTFALLS]
;;Name           Elevation  Type       Stage Data       Gated    Route To        
;;-------------- ---------- ---------- ---------------- -------- ----------------
O1               28         FREE                        NO

;;____________________________________________________________________________________________________
[CONDUITS]
;;Name           From Node        To Node          Length     Roughness  InOffset   OutOffset  InitFlow   MaxFlow   
;;-------------- ---------------- ---------------- ---------- ---------- ---------- ---------- ---------- ----------
C1               J1               O1               130        0.05       0          0          0          0         
C10              J10              J9               320        0.01       0          0          0          0         
C11              J11              J10              315        0.01       0          0          0          0         
C12              J12              J11              130        0.01       0          0          0          0         
C13              J13              J12              110        0.01       0          0          0          0         
C14              J13              J14              550        0.01       0          0          0          0         
C15              J15              J14              540        0.01       0          0          0          0         
C16              J16              J13              590        0.01       0          0          0          0         
C17              J17              J16              770        0.01       0          0          0          0         
C18              J18              J17              505        0.01       0          0          0          0         
C2               J2               J1               330        0.01       0          0          0          0         
C20              J20              J4               600        0.01       0          0          0          0         
C21              J21              J20              620        0.01       0          0          0          0         
C22              J22              J21              850        0.01       0          0          0          0         
C23              J23              J22              530        0.01       0          0          0          0         
C24              J24              J23              440        0.01       0          0          0          0         
C25              J25              J24              190        0.01       0          0          0          0         
C26              J26              J22              600        0.01       0          0          0          0         
C3               J3               J2               95         0.01       0          0          0          0         
C4               J4               J3               660        0.01       0          0          0          0         
C5               J5               J4               175        0.01       0          0          0          0         
C6               J6               J5               280        0.01       0          0          0          0         
C7               J7               J6               120        0.01       0          0          0          0         
C8               J8               J7               300        0.01       0          0          0          0         
C9               J9               J8               250        0.01       0          0          0          0

;;____________________________________________________________________________________________________
[XSECTIONS]
;;Link           Shape        Geom1            Geom2      Geom3      Geom4      Barrels    Culvert   
;;-------------- ------------ ---------------- ---------- ---------- ---------- ---------- ----------
C1               PARABOLIC    5                12         0          0          1                    
C10              RECT_CLOSED  1.5              1.7        0          0          1                    
C11              RECT_CLOSED  1.25             1.5        0          0          1                    
C12              RECT_CLOSED  1.25             1.5        0          0          1                    
C13              RECT_CLOSED  1.95             3.85       0          0          1                    
C14              CIRCULAR     0.6              0          0          0          1                    
C15              RECT_CLOSED  1.95             3.85       0          0          1                    
C16              PARABOLIC    1.95             3.85       0          0          1                    
C17              RECT_CLOSED  1.95             3.85       0          0          1                    
C18              RECT_CLOSED  1.95             3.85       0          0          1                    
C2               PARABOLIC    5                12         0          0          1                    
C20              RECT_CLOSED  1.25             4.5        0          0          1                    
C21              CIRCULAR     1.5              0          0          0          1                    
C22              CIRCULAR     1.8              0          0          0          1                    
C23              CIRCULAR     1.25             0          0          0          1                    
C24              CIRCULAR     1.5              0          0          0          1                    
C25              RECT_CLOSED  1.95             3.85       0          0          1                    
C26              CIRCULAR     1.25             0          0          0          1                    
C3               RECT_CLOSED  3.70             6          0          0          1                    
C4               RECT_CLOSED  3.60             5.85       0          0          1                    
C5               RECT_CLOSED  1.85             2.5        0          0          1                    
C6               RECT_CLOSED  1.85             2.5        0          0          1                    
C7               RECT_CLOSED  1.95             3.85       0          0          1                    
C8               RECT_CLOSED  1.85             2          0          0          1                    
C9               RECT_CLOSED  1.85             2          0          0          1

;;____________________________________________________________________________________________________
[TIMESERIES]
2017_11_21_S1 11/20/2017 22:55:00 0.1253
2017_11_21_S1 11/20/2017 23:00:00 0.8019
2017_11_21_S1 11/20/2017 23:05:00 0.2587
2017_11_21_S1 11/20/2017 23:10:00 0.0181
2017_11_21_S1 11/20/2017 23:15:00 0.0
2017_11_21_S1 11/20/2017 23:20:00 0.0
2017_11_21_S1 11/20/2017 23:25:00 0.0
2017_11_21_S1 11/20/2017 23:30:00 0.0
2017_11_21_S1 11/20/2017 23:35:00 0.0
2017_11_21_S1 11/20/2017 23:40:00 0.0
2017_11_21_S1 11/20/2017 23:45:00 0.0
2017_11_21_S1 11/20/2017 23:50:00 0.0
2017_11_21_S1 11/20/2017 23:55:00 0.0
2017_11_21_S1 11/21/2017 00:00:00 0.0
2017_11_21_S1 11/21/2017 00:05:00 0.0
2017_11_21_S1 11/21/2017 00:10:00 0.0
2017_11_21_S1 11/21/2017 00:15:00 0.0
2017_11_21_S1 11/21/2017 00:20:00 0.0
2017_11_21_S1 11/21/2017 00:25:00 0.0
2017_11_21_S1 11/21/2017 00:30:00 0.0
2017_11_21_S1 11/21/2017 00:35:00 0.0
2017_11_21_S1 11/21/2017 00:40:00 0.0
2017_11_21_S1 11/21/2017 00:45:00 0.0
2017_11_21_S1 11/21/2017 00:50:00 0.0
2017_11_21_S1 11/21/2017 00:55:00 0.0
2017_11_21_S1 11/21/2017 01:00:00 0.0
2017_11_21_S1 11/21/2017 01:05:00 0.0
2017_11_21_S1 11/21/2017 01:10:00 0.0
2017_11_21_S1 11/21/2017 01:15:00 0.1008
2017_11_21_S1 11/21/2017 01:20:00 0.6105
2017_11_21_S1 11/21/2017 01:25:00 0.0222
2017_11_21_S1 11/21/2017 01:30:00 0.0206
2017_11_21_S1 11/21/2017 01:35:00 0.0114
2017_11_21_S1 11/21/2017 01:40:00 0.001
2017_11_21_S1 11/21/2017 01:45:00 0.0
2017_11_21_S1 11/21/2017 01:50:00 0.0
2017_11_21_S1 11/21/2017 01:55:00 0.0
2017_11_21_S1 11/21/2017 02:00:00 0.0
2017_11_21_S1 11/21/2017 02:05:00 0.076
2017_11_21_S1 11/21/2017 02:10:00 0.0
2017_11_21_S1 11/21/2017 02:15:00 0.0389
2017_11_21_S1 11/21/2017 02:20:00 0.0
2017_11_21_S1 11/21/2017 02:25:00 0.0027
2017_11_21_S1 11/21/2017 02:30:00 0.0
2017_11_21_S1 11/21/2017 02:35:00 0.2414
2017_11_21_S1 11/21/2017 02:40:00 0.1047
2017_11_21_S1 11/21/2017 02:45:00 0.1394
2017_11_21_S1 11/21/2017 02:50:00 0.0012
2017_11_21_S1 11/21/2017 02:55:00 0.0
2017_11_21_S1 11/21/2017 03:00:00 0.0
2017_11_21_S1 11/21/2017 03:05:00 1.4191
2017_11_21_S1 11/21/2017 03:10:00 0.7938
2017_11_21_S1 11/21/2017 03:15:00 0.0
2017_11_21_S1 11/21/2017 03:20:00 0.2701
2017_11_21_S1 11/21/2017 03:25:00 0.5237
2017_11_21_S1 11/21/2017 03:30:00 0.0179
2017_11_21_S1 11/21/2017 03:35:00 0.1044
2017_11_21_S1 11/21/2017 03:40:00 0.1487
2017_11_21_S1 11/21/2017 03:45:00 0.0672
2017_11_21_S1 11/21/2017 03:50:00 0.0653
2017_11_21_S1 11/21/2017 03:55:00 0.1919
2017_11_21_S1 11/21/2017 04:00:00 0.032
2017_11_21_S1 11/21/2017 04:05:00 0.0065
2017_11_21_S1 11/21/2017 04:10:00 0.0165
2017_11_21_S1 11/21/2017 04:15:00 0.0188
2017_11_21_S1 11/21/2017 04:20:00 0.0081
2017_11_21_S1 11/21/2017 04:25:00 0.0635
2017_11_21_S1 11/21/2017 04:30:00 0.1188
2017_11_21_S1 11/21/2017 04:35:00 0.1222
2017_11_21_S1 11/21/2017 04:40:00 0.0292
2017_11_21_S1 11/21/2017 04:45:00 0.0
2017_11_21_S1 11/21/2017 04:50:00 0.0
2017_11_21_S1 11/21/2017 04:55:00 0.0
2017_11_21_S1 11/21/2017 05:00:00 0.0
2017_11_21_S1 11/21/2017 05:05:00 0.0
2017_11_21_S1 11/21/2017 05:10:00 0.0
2017_11_21_S1 11/21/2017 05:15:00 1.2737
2017_11_21_S1 11/21/2017 05:20:00 2.7744
2017_11_21_S1 11/21/2017 05:25:00 2.2265
2017_11_21_S1 11/21/2017 05:30:00 1.3866
2017_11_21_S1 11/21/2017 05:35:00 0.2459
2017_11_21_S1 11/21/2017 05:40:00 0.0078
2017_11_21_S1 11/21/2017 05:45:00 0.0
2017_11_21_S1 11/21/2017 05:50:00 0.0
2017_11_21_S1 11/21/2017 05:55:00 0.0
2017_11_21_S1 11/21/2017 06:00:00 0.0
2017_11_21_S1 11/21/2017 06:05:00 0.0
2017_11_21_S1 11/21/2017 06:10:00 0.0
2017_11_21_S1 11/21/2017 06:15:00 0.0
2017_11_21_S1 11/21/2017 06:20:00 0.0
2017_11_21_S1 11/21/2017 06:25:00 0.0
2017_11_21_S1 11/21/2017 06:30:00 0.0
2017_11_21_S1 11/21/2017 06:35:00 0.0
2017_11_21_S1 11/21/2017 06:40:00 0.0
2017_11_21_S1 11/21/2017 06:45:00 0.0
2017_11_21_S1 11/21/2017 06:50:00 0.0
2017_11_21_S1 11/21/2017 06:55:00 0.0
2017_11_21_S1 11/21/2017 07:00:00 0.0
2017_11_21_S1 11/21/2017 07:05:00 0.0
2017_11_21_S1 11/21/2017 07:10:00 0.0
2017_11_21_S1 11/21/2017 07:15:00 0.0
2017_11_21_S1 11/21/2017 07:20:00 0.0
2017_11_21_S1 11/21/2017 07:25:00 0.0
2017_11_21_S1 11/21/2017 07:30:00 0.0
2017_11_21_S1 11/21/2017 07:35:00 0.0
2017_11_21_S1 11/21/2017 07:40:00 0.0
2017_11_21_S1 11/21/2017 07:45:00 0.0
2017_11_21_S1 11/21/2017 07:50:00 0.0
2017_11_21_S1 11/21/2017 07:55:00 0.0191
2017_11_21_S1 11/21/2017 08:00:00 0.0964
2017_11_21_S1 11/21/2017 08:05:00 0.0524
2017_11_21_S1 11/21/2017 08:10:00 0.0037
2017_11_21_S1 11/21/2017 08:15:00 0.0023
2017_11_21_S1 11/21/2017 08:20:00 0.0021
2017_11_21_S1 11/21/2017 08:25:00 0.028
2017_11_21_S1 11/21/2017 08:30:00 2.5115
2017_11_21_S1 11/21/2017 08:35:00 1.6312
2017_11_21_S1 11/21/2017 08:40:00 0.8424
2017_11_21_S1 11/21/2017 08:45:00 0.0366
2017_11_21_S1 11/21/2017 08:50:00 0.0
2017_11_21_S1 11/21/2017 08:55:00 0.0
2017_11_21_S1 11/21/2017 09:00:00 0.0
2017_11_21_S1 11/21/2017 09:05:00 0.0
2017_11_21_S1 11/21/2017 09:10:00 0.0
2017_11_21_S1 11/21/2017 09:15:00 0.0
2017_11_21_S1 11/21/2017 09:20:00 0.0
2017_11_21_S1 11/21/2017 09:25:00 0.0
2017_11_21_S1 11/21/2017 09:30:00 0.0
2017_11_21_S1 11/21/2017 09:35:00 0.0
2017_11_21_S1 11/21/2017 09:40:00 0.0
2017_11_21_S1 11/21/2017 09:45:00 0.0024
2017_11_21_S1 11/21/2017 09:50:00 0.1306
2017_11_21_S1 11/21/2017 09:55:00 0.3214
2017_11_21_S1 11/21/2017 10:00:00 0.0204
2017_11_21_S1 11/21/2017 10:05:00 0.0043
2017_11_21_S1 11/21/2017 10:10:00 0.0473
2017_11_21_S1 11/21/2017 10:15:00 0.0166
2017_11_21_S1 11/21/2017 10:20:00 0.0
2017_11_21_S1 11/21/2017 10:25:00 0.0
2017_11_21_S1 11/21/2017 10:30:00 0.0
2017_11_21_S1 11/21/2017 10:35:00 0.0
2017_11_21_S1 11/21/2017 10:40:00 0.0
2017_11_21_S1 11/21/2017 10:45:00 0.0014
2017_11_21_S1 11/21/2017 10:50:00 0.0
2017_11_21_S1 11/21/2017 10:55:00 0.0
2017_11_21_S1 11/21/2017 11:00:00 0.0
2017_11_21_S1 11/21/2017 11:05:00 0.0
2017_11_21_S1 11/21/2017 11:10:00 0.0
2017_11_21_S1 11/21/2017 11:15:00 0.0
2017_11_21_S1 11/21/2017 11:20:00 0.0
2017_11_21_S1 11/21/2017 11:25:00 0.0
2017_11_21_S1 11/21/2017 11:30:00 0.0
2017_11_21_S1 11/21/2017 11:35:00 0.0
2017_11_21_S1 11/21/2017 11:40:00 0.0
2017_11_21_S1 11/21/2017 11:45:00 0.0
2017_11_21_S1 11/21/2017 11:50:00 0.0
2017_11_21_S1 11/21/2017 11:55:00 0.0
2017_11_21_S1 11/21/2017 12:00:00 0.0
2017_11_21_S1 11/21/2017 12:05:00 0.0
2017_11_21_S1 11/21/2017 12:10:00 0.0
2017_11_21_S1 11/21/2017 12:15:00 0.0
2017_11_21_S1 11/21/2017 12:20:00 0.0
2017_11_21_S1 11/21/2017 12:25:00 0.0
2017_11_21_S1 11/21/2017 12:30:00 0.0
2017_11_21_S1 11/21/2017 12:35:00 0.0
2017_11_21_S1 11/21/2017 12:40:00 0.0
2017_11_21_S1 11/21/2017 12:45:00 0.0
2017_11_21_S1 11/21/2017 12:50:00 0.0
2017_11_21_S1 11/21/2017 12:55:00 0.0
2017_11_21_S1 11/21/2017 13:00:00 0.0
2017_11_21_S1 11/21/2017 13:05:00 0.0
2017_11_21_S1 11/21/2017 13:10:00 0.0
2017_11_21_S1 11/21/2017 13:15:00 0.0
2017_11_21_S1 11/21/2017 13:20:00 0.0
2017_11_21_S1 11/21/2017 13:25:00 0.0
2017_11_21_S1 11/21/2017 13:30:00 0.0
2017_11_21_S1 11/21/2017 13:35:00 0.0
2017_11_21_S1 11/21/2017 13:40:00 0.0
2017_11_21_S1 11/21/2017 13:45:00 0.0
2017_11_21_S1 11/21/2017 13:50:00 0.0
2017_11_21_S1 11/21/2017 13:55:00 0.0
2017_11_21_S1 11/21/2017 14:00:00 0.0
2017_11_21_S1 11/21/2017 14:05:00 0.0
2017_11_21_S1 11/21/2017 14:10:00 0.0
2017_11_21_S1 11/21/2017 14:15:00 0.0
2017_11_21_S1 11/21/2017 14:20:00 0.0
2017_11_21_S1 11/21/2017 14:25:00 0.0
2017_11_21_S1 11/21/2017 14:30:00 0.0
2017_11_21_S1 11/21/2017 14:35:00 0.0
2017_11_21_S1 11/21/2017 14:40:00 0.0
2017_11_21_S1 11/21/2017 14:45:00 0.0
2017_11_21_S1 11/21/2017 14:50:00 0.0
2017_11_21_S1 11/21/2017 14:55:00 0.0
2017_11_21_S1 11/21/2017 15:00:00 0.0
2017_11_21_S1 11/21/2017 15:05:00 0.0
2017_11_21_S1 11/21/2017 15:10:00 0.0
2017_11_21_S1 11/21/2017 15:15:00 0.0
2017_11_21_S1 11/21/2017 15:20:00 0.0
2017_11_21_S1 11/21/2017 15:25:00 0.0
2017_11_21_S1 11/21/2017 15:30:00 0.0
2017_11_21_S1 11/21/2017 15:35:00 0.0
2017_11_21_S1 11/21/2017 15:40:00 0.0
2017_11_21_S1 11/21/2017 15:45:00 0.0
2017_11_21_S1 11/21/2017 15:50:00 0.0
2017_11_21_S1 11/21/2017 15:55:00 0.0
2017_11_21_S1 11/21/2017 16:00:00 0.0
2017_11_21_S1 11/21/2017 16:05:00 0.0
2017_11_21_S1 11/21/2017 16:10:00 0.0
2017_11_21_S1 11/21/2017 16:15:00 0.0
2017_11_21_S1 11/21/2017 16:20:00 0.0
2017_11_21_S1 11/21/2017 16:25:00 0.0
2017_11_21_S1 11/21/2017 16:30:00 0.0
2017_11_21_S1 11/21/2017 16:35:00 0.0
2017_11_21_S1 11/21/2017 16:40:00 0.0
2017_11_21_S1 11/21/2017 16:45:00 0.0
2017_11_21_S1 11/21/2017 16:50:00 0.0
2017_11_21_S1 11/21/2017 16:55:00 0.0
2017_11_21_S1 11/21/2017 17:00:00 0.0
2017_11_21_S1 11/21/2017 17:05:00 0.0
2017_11_21_S1 11/21/2017 17:10:00 0.0
2017_11_21_S1 11/21/2017 17:15:00 0.0
2017_11_21_S1 11/21/2017 17:20:00 0.0
2017_11_21_S1 11/21/2017 17:25:00 0.0
2017_11_21_S1 11/21/2017 17:30:00 0.0
2017_11_21_S1 11/21/2017 17:35:00 0.0
2017_11_21_S1 11/21/2017 17:40:00 0.0
2017_11_21_S1 11/21/2017 17:45:00 0.0
2017_11_21_S1 11/21/2017 17:50:00 0.0
2017_11_21_S1 11/21/2017 17:55:00 0.0
2017_11_21_S1 11/21/2017 18:00:00 0.0
2017_11_21_S1 11/21/2017 18:05:00 0.0
2017_11_21_S1 11/21/2017 18:10:00 0.0
2017_11_21_S1 11/21/2017 18:15:00 0.0
2017_11_21_S1 11/21/2017 18:20:00 0.0
2017_11_21_S1 11/21/2017 18:25:00 0.0
2017_11_21_S1 11/21/2017 18:30:00 0.0
2017_11_21_S1 11/21/2017 18:35:00 0.0
2017_11_21_S1 11/21/2017 18:40:00 0.0
2017_11_21_S1 11/21/2017 18:45:00 0.0
2017_11_21_S1 11/21/2017 18:50:00 0.0
2017_11_21_S1 11/21/2017 18:55:00 0.0
2017_11_21_S1 11/21/2017 19:00:00 0.0
2017_11_21_S1 11/21/2017 19:05:00 0.0
2017_11_21_S1 11/21/2017 19:10:00 0.0
2017_11_21_S1 11/21/2017 19:15:00 0.0
2017_11_21_S1 11/21/2017 19:20:00 0.0
2017_11_21_S1 11/21/2017 19:25:00 0.0
2017_11_21_S1 11/21/2017 19:30:00 0.0
2017_11_21_S1 11/21/2017 19:35:00 0.0
2017_11_21_S1 11/21/2017 19:40:00 0.0
2017_11_21_S1 11/21/2017 19:45:00 0.0
2017_11_21_S1 11/21/2017 19:50:00 0.0
2017_11_21_S1 11/21/2017 19:55:00 0.0
2017_11_21_S1 11/21/2017 20:00:00 0.0
2017_11_21_S1 11/21/2017 20:05:00 0.0
2017_11_21_S1 11/21/2017 20:10:00 0.0
2017_11_21_S1 11/21/2017 20:15:00 0.0
2017_11_21_S1 11/21/2017 20:20:00 0.0
2017_11_21_S1 11/21/2017 20:25:00 0.0
2017_11_21_S1 11/21/2017 20:30:00 0.0
2017_11_21_S1 11/21/2017 20:35:00 0.0
2017_11_21_S1 11/21/2017 20:40:00 0.0
2017_11_21_S1 11/21/2017 20:45:00 0.0
2017_11_21_S1 11/21/2017 20:50:00 0.0
2017_11_21_S1 11/21/2017 20:55:00 0.0
2017_11_21_S1 11/21/2017 21:00:00 0.0
2017_11_21_S1 11/21/2017 21:05:00 0.0
2017_11_21_S1 11/21/2017 21:10:00 0.0
2017_11_21_S1 11/21/2017 21:15:00 0.0
2017_11_21_S1 11/21/2017 21:20:00 0.0
2017_11_21_S1 11/21/2017 21:25:00 0.0
2017_11_21_S1 11/21/2017 21:30:00 0.0
2017_11_21_S1 11/21/2017 21:35:00 0.0
2017_11_21_S1 11/21/2017 21:40:00 0.0
2017_11_21_S1 11/21/2017 21:45:00 0.0
2017_11_21_S1 11/21/2017 21:50:00 0.0
2017_11_21_S1 11/21/2017 21:55:00 0.0
2017_11_21_S1 11/21/2017 22:00:00 0.0
2017_11_21_S1 11/21/2017 22:05:00 0.0
2017_11_21_S1 11/21/2017 22:10:00 0.0
2017_11_21_S1 11/21/2017 22:15:00 0.0
2017_11_21_S1 11/21/2017 22:20:00 0.0
2017_11_21_S1 11/21/2017 22:25:00 0.0
2017_11_21_S1 11/21/2017 22:30:00 0.0
2017_11_21_S1 11/21/2017 22:35:00 0.0
2017_11_21_S1 11/21/2017 22:40:00 0.0
2017_11_21_S1 11/21/2017 22:45:00 0.0
2017_11_21_S1 11/21/2017 22:50:00 0.0009
2017_11_21_S1 11/21/2017 22:55:00 0.0
2017_11_21_S1 11/21/2017 23:00:00 0.0049
2017_11_21_S1 11/21/2017 23:05:00 0.0
2017_11_21_S1 11/21/2017 23:10:00 0.0
2017_11_21_S1 11/21/2017 23:15:00 0.001
2017_11_21_S1 11/21/2017 23:20:00 0.0
2017_11_21_S1 11/21/2017 23:25:00 0.0
2017_11_21_S1 11/21/2017 23:30:00 0.0
2017_11_21_S1 11/21/2017 23:35:00 0.0
2017_11_21_S1 11/21/2017 23:40:00 0.0
2017_11_21_S1 11/21/2017 23:45:00 0.0
2017_11_21_S1 11/21/2017 23:50:00 0.0
2017_11_21_S1 11/21/2017 23:55:00 0.0
2017_11_21_S1 11/22/2017 00:00:00 0.0
2017_11_21_S1 11/22/2017 00:05:00 0.0
2017_11_21_S1 11/22/2017 00:10:00 0.0
2017_11_21_S1 11/22/2017 00:15:00 0.0
2017_11_21_S1 11/22/2017 00:20:00 0.0
2017_11_21_S1 11/22/2017 00:25:00 0.0
2017_11_21_S1 11/22/2017 00:30:00 0.0
2017_11_21_S1 11/22/2017 00:35:00 0.0
2017_11_21_S1 11/22/2017 00:40:00 0.0
2017_11_21_S1 11/22/2017 00:45:00 0.0
2017_11_21_S1 11/22/2017 00:50:00 0.0
2017_11_21_S1 11/22/2017 00:55:00 0.0
2017_11_21_S1 11/22/2017 01:00:00 0.0
2017_11_21_S1 11/22/2017 01:05:00 0.0
2017_11_21_S1 11/22/2017 01:10:00 0.0
2017_11_21_S1 11/22/2017 01:15:00 0.0074
2017_11_21_S1 11/22/2017 01:20:00 0.0
2017_11_21_S1 11/22/2017 01:25:00 0.0
2017_11_21_S1 11/22/2017 01:30:00 0.0
2017_11_21_S1 11/22/2017 01:35:00 0.0021
2017_11_21_S1 11/22/2017 01:40:00 0.0
2017_11_21_S1 11/22/2017 01:45:00 0.0602
2017_11_21_S1 11/22/2017 01:50:00 0.0
2017_11_21_S1 11/22/2017 01:55:00 0.0
2017_11_21_S1 11/22/2017 02:00:00 0.0
2017_11_21_S1 11/22/2017 02:05:00 0.0
2017_11_21_S1 11/22/2017 02:10:00 0.0
2017_11_21_S1 11/22/2017 02:15:00 0.0
2017_11_21_S1 11/22/2017 02:20:00 0.0
2017_11_21_S1 11/22/2017 02:25:00 0.0
2017_11_21_S1 11/22/2017 02:30:00 0.0
2017_11_21_S1 11/22/2017 02:35:00 0.0
2017_11_21_S1 11/22/2017 02:40:00 0.0
2017_11_21_S1 11/22/2017 02:45:00 0.0
2017_11_21_S1 11/22/2017 02:50:00 0.0
2017_11_21_S1 11/22/2017 02:55:00 0.0
2017_11_21_S1 11/22/2017 03:00:00 0.0
2017_11_21_S1 11/22/2017 03:05:00 0.0
2017_11_21_S1 11/22/2017 03:10:00 0.0
2017_11_21_S1 11/22/2017 03:15:00 0.0
2017_11_21_S1 11/22/2017 03:20:00 0.0
2017_11_21_S1 11/22/2017 03:25:00 0.0
2017_11_21_S1 11/22/2017 03:30:00 0.0
2017_11_21_S1 11/22/2017 03:35:00 0.0
2017_11_21_S1 11/22/2017 03:40:00 0.0
2017_11_21_S1 11/22/2017 03:45:00 0.0
2017_11_21_S1 11/22/2017 03:50:00 0.0
2017_11_21_S1 11/22/2017 03:55:00 0.0
2017_11_21_S1 11/22/2017 04:00:00 0.0
2017_11_21_S1 11/22/2017 04:05:00 0.0
2017_11_21_S1 11/22/2017 04:10:00 0.0
2017_11_21_S1 11/22/2017 04:15:00 0.0
2017_11_21_S1 11/22/2017 04:20:00 0.0
2017_11_21_S1 11/22/2017 04:25:00 0.0
2017_11_21_S1 11/22/2017 04:30:00 0.0
2017_11_21_S1 11/22/2017 04:35:00 0.0
2017_11_21_S1 11/22/2017 04:40:00 0.0
2017_11_21_S1 11/22/2017 04:45:00 0.0
2017_11_21_S1 11/22/2017 04:50:00 0.0
2017_11_21_S1 11/22/2017 04:55:00 0.0
2017_11_21_S1 11/22/2017 05:00:00 0.0
2017_11_21_S1 11/22/2017 05:05:00 0.0
2017_11_21_S1 11/22/2017 05:10:00 0.0
2017_11_21_S1 11/22/2017 05:15:00 0.0
2017_11_21_S1 11/22/2017 05:20:00 0.0
2017_11_21_S1 11/22/2017 05:25:00 0.0
2017_11_21_S1 11/22/2017 05:30:00 0.0
2017_11_21_S1 11/22/2017 05:35:00 0.0
2017_11_21_S1 11/22/2017 05:40:00 0.0
2017_11_21_S1 11/22/2017 05:45:00 0.0
2017_11_21_S1 11/22/2017 05:50:00 0.0
2017_11_21_S1 11/22/2017 05:55:00 0.0
2017_11_21_S1 11/22/2017 06:00:00 0.0
2017_11_21_S1 11/22/2017 06:05:00 0.0
2017_11_21_S1 11/22/2017 06:10:00 0.0
2017_11_21_S1 11/22/2017 06:15:00 0.0
2017_11_21_S1 11/22/2017 06:20:00 0.0
2017_11_21_S1 11/22/2017 06:25:00 0.0
2017_11_21_S1 11/22/2017 06:30:00 0.0
2017_11_21_S1 11/22/2017 06:35:00 0.0
2017_11_21_S1 11/22/2017 06:40:00 0.0
2017_11_21_S1 11/22/2017 06:45:00 0.0
2017_11_21_S1 11/22/2017 06:50:00 0.0
2017_11_21_S1 11/22/2017 06:55:00 0.0
2017_11_21_S1 11/22/2017 07:00:00 0.0
2017_11_21_S1 11/22/2017 07:05:00 0.0
2017_11_21_S1 11/22/2017 07:10:00 0.0
2017_11_21_S1 11/22/2017 07:15:00 0.0
2017_11_21_S1 11/22/2017 07:20:00 0.0
2017_11_21_S1 11/22/2017 07:25:00 0.0
2017_11_21_S1 11/22/2017 07:30:00 0.0
2017_11_21_S1 11/22/2017 07:35:00 0.0
2017_11_21_S1 11/22/2017 07:40:00 0.0
2017_11_21_S1 11/22/2017 07:45:00 0.0
2017_11_21_S1 11/22/2017 07:50:00 0.0
2017_11_21_S1 11/22/2017 07:55:00 0.0
2017_11_21_S1 11/22/2017 08:00:00 0.0

2017_11_21_S2 11/20/2017 22:55:00 0.3513
2017_11_21_S2 11/20/2017 23:00:00 0.9314
2017_11_21_S2 11/20/2017 23:05:00 0.2084
2017_11_21_S2 11/20/2017 23:10:00 0.0101
2017_11_21_S2 11/20/2017 23:15:00 0.0
2017_11_21_S2 11/20/2017 23:20:00 0.0
2017_11_21_S2 11/20/2017 23:25:00 0.0
2017_11_21_S2 11/20/2017 23:30:00 0.0
2017_11_21_S2 11/20/2017 23:35:00 0.0
2017_11_21_S2 11/20/2017 23:40:00 0.0
2017_11_21_S2 11/20/2017 23:45:00 0.0
2017_11_21_S2 11/20/2017 23:50:00 0.0
2017_11_21_S2 11/20/2017 23:55:00 0.0
2017_11_21_S2 11/21/2017 00:00:00 0.0
2017_11_21_S2 11/21/2017 00:05:00 0.0
2017_11_21_S2 11/21/2017 00:10:00 0.0
2017_11_21_S2 11/21/2017 00:15:00 0.0
2017_11_21_S2 11/21/2017 00:20:00 0.0
2017_11_21_S2 11/21/2017 00:25:00 0.0
2017_11_21_S2 11/21/2017 00:30:00 0.0
2017_11_21_S2 11/21/2017 00:35:00 0.0
2017_11_21_S2 11/21/2017 00:40:00 0.0
2017_11_21_S2 11/21/2017 00:45:00 0.0
2017_11_21_S2 11/21/2017 00:50:00 0.0
2017_11_21_S2 11/21/2017 00:55:00 0.0
2017_11_21_S2 11/21/2017 01:00:00 0.0
2017_11_21_S2 11/21/2017 01:05:00 0.0
2017_11_21_S2 11/21/2017 01:10:00 0.0
2017_11_21_S2 11/21/2017 01:15:00 0.1439
2017_11_21_S2 11/21/2017 01:20:00 0.3216
2017_11_21_S2 11/21/2017 01:25:00 0.0293
2017_11_21_S2 11/21/2017 01:30:00 0.0487
2017_11_21_S2 11/21/2017 01:35:00 0.0113
2017_11_21_S2 11/21/2017 01:40:00 0.0014
2017_11_21_S2 11/21/2017 01:45:00 0.0
2017_11_21_S2 11/21/2017 01:50:00 0.0
2017_11_21_S2 11/21/2017 01:55:00 0.0
2017_11_21_S2 11/21/2017 02:00:00 0.0
2017_11_21_S2 11/21/2017 02:05:00 0.0758
2017_11_21_S2 11/21/2017 02:10:00 0.0048
2017_11_21_S2 11/21/2017 02:15:00 0.0967
2017_11_21_S2 11/21/2017 02:20:00 0.0
2017_11_21_S2 11/21/2017 02:25:00 0.0102
2017_11_21_S2 11/21/2017 02:30:00 0.0
2017_11_21_S2 11/21/2017 02:35:00 0.2554
2017_11_21_S2 11/21/2017 02:40:00 0.0912
2017_11_21_S2 11/21/2017 02:45:00 0.0332
2017_11_21_S2 11/21/2017 02:50:00 0.0001
2017_11_21_S2 11/21/2017 02:55:00 0.0
2017_11_21_S2 11/21/2017 03:00:00 0.0
2017_11_21_S2 11/21/2017 03:05:00 0.9807
2017_11_21_S2 11/21/2017 03:10:00 0.2664
2017_11_21_S2 11/21/2017 03:15:00 0.0
2017_11_21_S2 11/21/2017 03:20:00 0.1178
2017_11_21_S2 11/21/2017 03:25:00 0.7811
2017_11_21_S2 11/21/2017 03:30:00 0.0821
2017_11_21_S2 11/21/2017 03:35:00 0.2313
2017_11_21_S2 11/21/2017 03:40:00 0.0079
2017_11_21_S2 11/21/2017 03:45:00 0.0481
2017_11_21_S2 11/21/2017 03:50:00 0.0127
2017_11_21_S2 11/21/2017 03:55:00 0.1965
2017_11_21_S2 11/21/2017 04:00:00 0.0357
2017_11_21_S2 11/21/2017 04:05:00 0.0097
2017_11_21_S2 11/21/2017 04:10:00 0.0326
2017_11_21_S2 11/21/2017 04:15:00 0.024
2017_11_21_S2 11/21/2017 04:20:00 0.0142
2017_11_21_S2 11/21/2017 04:25:00 0.0417
2017_11_21_S2 11/21/2017 04:30:00 0.2811
2017_11_21_S2 11/21/2017 04:35:00 0.1941
2017_11_21_S2 11/21/2017 04:40:00 0.0279
2017_11_21_S2 11/21/2017 04:45:00 0.0
2017_11_21_S2 11/21/2017 04:50:00 0.0
2017_11_21_S2 11/21/2017 04:55:00 0.0
2017_11_21_S2 11/21/2017 05:00:00 0.0
2017_11_21_S2 11/21/2017 05:05:00 0.0
2017_11_21_S2 11/21/2017 05:10:00 0.001
2017_11_21_S2 11/21/2017 05:15:00 2.0891
2017_11_21_S2 11/21/2017 05:20:00 3.1777
2017_11_21_S2 11/21/2017 05:25:00 2.5527
2017_11_21_S2 11/21/2017 05:30:00 1.0953
2017_11_21_S2 11/21/2017 05:35:00 0.1307
2017_11_21_S2 11/21/2017 05:40:00 0.0078
2017_11_21_S2 11/21/2017 05:45:00 0.0
2017_11_21_S2 11/21/2017 05:50:00 0.0
2017_11_21_S2 11/21/2017 05:55:00 0.0
2017_11_21_S2 11/21/2017 06:00:00 0.0
2017_11_21_S2 11/21/2017 06:05:00 0.0
2017_11_21_S2 11/21/2017 06:10:00 0.0
2017_11_21_S2 11/21/2017 06:15:00 0.0
2017_11_21_S2 11/21/2017 06:20:00 0.0
2017_11_21_S2 11/21/2017 06:25:00 0.0
2017_11_21_S2 11/21/2017 06:30:00 0.0
2017_11_21_S2 11/21/2017 06:35:00 0.0
2017_11_21_S2 11/21/2017 06:40:00 0.0
2017_11_21_S2 11/21/2017 06:45:00 0.0
2017_11_21_S2 11/21/2017 06:50:00 0.0
2017_11_21_S2 11/21/2017 06:55:00 0.0
2017_11_21_S2 11/21/2017 07:00:00 0.0
2017_11_21_S2 11/21/2017 07:05:00 0.0
2017_11_21_S2 11/21/2017 07:10:00 0.0
2017_11_21_S2 11/21/2017 07:15:00 0.0
2017_11_21_S2 11/21/2017 07:20:00 0.0
2017_11_21_S2 11/21/2017 07:25:00 0.0
2017_11_21_S2 11/21/2017 07:30:00 0.0
2017_11_21_S2 11/21/2017 07:35:00 0.0
2017_11_21_S2 11/21/2017 07:40:00 0.0
2017_11_21_S2 11/21/2017 07:45:00 0.0
2017_11_21_S2 11/21/2017 07:50:00 0.0
2017_11_21_S2 11/21/2017 07:55:00 0.0022
2017_11_21_S2 11/21/2017 08:00:00 0.005
2017_11_21_S2 11/21/2017 08:05:00 0.0744
2017_11_21_S2 11/21/2017 08:10:00 0.0085
2017_11_21_S2 11/21/2017 08:15:00 0.0055
2017_11_21_S2 11/21/2017 08:20:00 0.0
2017_11_21_S2 11/21/2017 08:25:00 0.0035
2017_11_21_S2 11/21/2017 08:30:00 1.4687
2017_11_21_S2 11/21/2017 08:35:00 0.8725
2017_11_21_S2 11/21/2017 08:40:00 0.2155
2017_11_21_S2 11/21/2017 08:45:00 0.0481
2017_11_21_S2 11/21/2017 08:50:00 0.0019
2017_11_21_S2 11/21/2017 08:55:00 0.0
2017_11_21_S2 11/21/2017 09:00:00 0.0
2017_11_21_S2 11/21/2017 09:05:00 0.0
2017_11_21_S2 11/21/2017 09:10:00 0.0
2017_11_21_S2 11/21/2017 09:15:00 0.0
2017_11_21_S2 11/21/2017 09:20:00 0.0
2017_11_21_S2 11/21/2017 09:25:00 0.0
2017_11_21_S2 11/21/2017 09:30:00 0.0
2017_11_21_S2 11/21/2017 09:35:00 0.0
2017_11_21_S2 11/21/2017 09:40:00 0.0
2017_11_21_S2 11/21/2017 09:45:00 0.0099
2017_11_21_S2 11/21/2017 09:50:00 0.0843
2017_11_21_S2 11/21/2017 09:55:00 0.3022
2017_11_21_S2 11/21/2017 10:00:00 0.0177
2017_11_21_S2 11/21/2017 10:05:00 0.0013
2017_11_21_S2 11/21/2017 10:10:00 0.0449
2017_11_21_S2 11/21/2017 10:15:00 0.0058
2017_11_21_S2 11/21/2017 10:20:00 0.0
2017_11_21_S2 11/21/2017 10:25:00 0.0
2017_11_21_S2 11/21/2017 10:30:00 0.0007
2017_11_21_S2 11/21/2017 10:35:00 0.0015
2017_11_21_S2 11/21/2017 10:40:00 0.0022
2017_11_21_S2 11/21/2017 10:45:00 0.0
2017_11_21_S2 11/21/2017 10:50:00 0.0
2017_11_21_S2 11/21/2017 10:55:00 0.0
2017_11_21_S2 11/21/2017 11:00:00 0.0
2017_11_21_S2 11/21/2017 11:05:00 0.0
2017_11_21_S2 11/21/2017 11:10:00 0.0
2017_11_21_S2 11/21/2017 11:15:00 0.0
2017_11_21_S2 11/21/2017 11:20:00 0.0
2017_11_21_S2 11/21/2017 11:25:00 0.0
2017_11_21_S2 11/21/2017 11:30:00 0.0
2017_11_21_S2 11/21/2017 11:35:00 0.0
2017_11_21_S2 11/21/2017 11:40:00 0.0
2017_11_21_S2 11/21/2017 11:45:00 0.0
2017_11_21_S2 11/21/2017 11:50:00 0.0
2017_11_21_S2 11/21/2017 11:55:00 0.0
2017_11_21_S2 11/21/2017 12:00:00 0.0
2017_11_21_S2 11/21/2017 12:05:00 0.0
2017_11_21_S2 11/21/2017 12:10:00 0.0
2017_11_21_S2 11/21/2017 12:15:00 0.0
2017_11_21_S2 11/21/2017 12:20:00 0.0
2017_11_21_S2 11/21/2017 12:25:00 0.0
2017_11_21_S2 11/21/2017 12:30:00 0.0
2017_11_21_S2 11/21/2017 12:35:00 0.0
2017_11_21_S2 11/21/2017 12:40:00 0.0
2017_11_21_S2 11/21/2017 12:45:00 0.0
2017_11_21_S2 11/21/2017 12:50:00 0.0
2017_11_21_S2 11/21/2017 12:55:00 0.0
2017_11_21_S2 11/21/2017 13:00:00 0.0
2017_11_21_S2 11/21/2017 13:05:00 0.0
2017_11_21_S2 11/21/2017 13:10:00 0.0
2017_11_21_S2 11/21/2017 13:15:00 0.0
2017_11_21_S2 11/21/2017 13:20:00 0.0
2017_11_21_S2 11/21/2017 13:25:00 0.0
2017_11_21_S2 11/21/2017 13:30:00 0.0
2017_11_21_S2 11/21/2017 13:35:00 0.0
2017_11_21_S2 11/21/2017 13:40:00 0.0
2017_11_21_S2 11/21/2017 13:45:00 0.0
2017_11_21_S2 11/21/2017 13:50:00 0.0
2017_11_21_S2 11/21/2017 13:55:00 0.0
2017_11_21_S2 11/21/2017 14:00:00 0.0
2017_11_21_S2 11/21/2017 14:05:00 0.0
2017_11_21_S2 11/21/2017 14:10:00 0.0
2017_11_21_S2 11/21/2017 14:15:00 0.0
2017_11_21_S2 11/21/2017 14:20:00 0.0
2017_11_21_S2 11/21/2017 14:25:00 0.0
2017_11_21_S2 11/21/2017 14:30:00 0.0
2017_11_21_S2 11/21/2017 14:35:00 0.0
2017_11_21_S2 11/21/2017 14:40:00 0.0
2017_11_21_S2 11/21/2017 14:45:00 0.0
2017_11_21_S2 11/21/2017 14:50:00 0.0
2017_11_21_S2 11/21/2017 14:55:00 0.0
2017_11_21_S2 11/21/2017 15:00:00 0.0
2017_11_21_S2 11/21/2017 15:05:00 0.0
2017_11_21_S2 11/21/2017 15:10:00 0.0
2017_11_21_S2 11/21/2017 15:15:00 0.0
2017_11_21_S2 11/21/2017 15:20:00 0.0
2017_11_21_S2 11/21/2017 15:25:00 0.0
2017_11_21_S2 11/21/2017 15:30:00 0.0
2017_11_21_S2 11/21/2017 15:35:00 0.0
2017_11_21_S2 11/21/2017 15:40:00 0.0
2017_11_21_S2 11/21/2017 15:45:00 0.0
2017_11_21_S2 11/21/2017 15:50:00 0.0
2017_11_21_S2 11/21/2017 15:55:00 0.0
2017_11_21_S2 11/21/2017 16:00:00 0.0
2017_11_21_S2 11/21/2017 16:05:00 0.0
2017_11_21_S2 11/21/2017 16:10:00 0.0
2017_11_21_S2 11/21/2017 16:15:00 0.0
2017_11_21_S2 11/21/2017 16:20:00 0.0
2017_11_21_S2 11/21/2017 16:25:00 0.0
2017_11_21_S2 11/21/2017 16:30:00 0.0
2017_11_21_S2 11/21/2017 16:35:00 0.0
2017_11_21_S2 11/21/2017 16:40:00 0.0
2017_11_21_S2 11/21/2017 16:45:00 0.0
2017_11_21_S2 11/21/2017 16:50:00 0.0
2017_11_21_S2 11/21/2017 16:55:00 0.0
2017_11_21_S2 11/21/2017 17:00:00 0.0
2017_11_21_S2 11/21/2017 17:05:00 0.0
2017_11_21_S2 11/21/2017 17:10:00 0.0
2017_11_21_S2 11/21/2017 17:15:00 0.0
2017_11_21_S2 11/21/2017 17:20:00 0.0
2017_11_21_S2 11/21/2017 17:25:00 0.0
2017_11_21_S2 11/21/2017 17:30:00 0.0
2017_11_21_S2 11/21/2017 17:35:00 0.0
2017_11_21_S2 11/21/2017 17:40:00 0.0
2017_11_21_S2 11/21/2017 17:45:00 0.0
2017_11_21_S2 11/21/2017 17:50:00 0.0
2017_11_21_S2 11/21/2017 17:55:00 0.0
2017_11_21_S2 11/21/2017 18:00:00 0.0
2017_11_21_S2 11/21/2017 18:05:00 0.0
2017_11_21_S2 11/21/2017 18:10:00 0.0
2017_11_21_S2 11/21/2017 18:15:00 0.0
2017_11_21_S2 11/21/2017 18:20:00 0.0
2017_11_21_S2 11/21/2017 18:25:00 0.0
2017_11_21_S2 11/21/2017 18:30:00 0.0
2017_11_21_S2 11/21/2017 18:35:00 0.0
2017_11_21_S2 11/21/2017 18:40:00 0.0
2017_11_21_S2 11/21/2017 18:45:00 0.0
2017_11_21_S2 11/21/2017 18:50:00 0.0
2017_11_21_S2 11/21/2017 18:55:00 0.0
2017_11_21_S2 11/21/2017 19:00:00 0.0
2017_11_21_S2 11/21/2017 19:05:00 0.0
2017_11_21_S2 11/21/2017 19:10:00 0.0
2017_11_21_S2 11/21/2017 19:15:00 0.0
2017_11_21_S2 11/21/2017 19:20:00 0.0
2017_11_21_S2 11/21/2017 19:25:00 0.0
2017_11_21_S2 11/21/2017 19:30:00 0.0
2017_11_21_S2 11/21/2017 19:35:00 0.0
2017_11_21_S2 11/21/2017 19:40:00 0.0
2017_11_21_S2 11/21/2017 19:45:00 0.0
2017_11_21_S2 11/21/2017 19:50:00 0.0
2017_11_21_S2 11/21/2017 19:55:00 0.0
2017_11_21_S2 11/21/2017 20:00:00 0.0
2017_11_21_S2 11/21/2017 20:05:00 0.0
2017_11_21_S2 11/21/2017 20:10:00 0.0
2017_11_21_S2 11/21/2017 20:15:00 0.0
2017_11_21_S2 11/21/2017 20:20:00 0.0
2017_11_21_S2 11/21/2017 20:25:00 0.0
2017_11_21_S2 11/21/2017 20:30:00 0.0
2017_11_21_S2 11/21/2017 20:35:00 0.0
2017_11_21_S2 11/21/2017 20:40:00 0.0
2017_11_21_S2 11/21/2017 20:45:00 0.0
2017_11_21_S2 11/21/2017 20:50:00 0.0
2017_11_21_S2 11/21/2017 20:55:00 0.0
2017_11_21_S2 11/21/2017 21:00:00 0.0
2017_11_21_S2 11/21/2017 21:05:00 0.0
2017_11_21_S2 11/21/2017 21:10:00 0.0
2017_11_21_S2 11/21/2017 21:15:00 0.0
2017_11_21_S2 11/21/2017 21:20:00 0.0
2017_11_21_S2 11/21/2017 21:25:00 0.0
2017_11_21_S2 11/21/2017 21:30:00 0.0
2017_11_21_S2 11/21/2017 21:35:00 0.0
2017_11_21_S2 11/21/2017 21:40:00 0.0
2017_11_21_S2 11/21/2017 21:45:00 0.0
2017_11_21_S2 11/21/2017 21:50:00 0.0
2017_11_21_S2 11/21/2017 21:55:00 0.0
2017_11_21_S2 11/21/2017 22:00:00 0.0
2017_11_21_S2 11/21/2017 22:05:00 0.0
2017_11_21_S2 11/21/2017 22:10:00 0.0
2017_11_21_S2 11/21/2017 22:15:00 0.0
2017_11_21_S2 11/21/2017 22:20:00 0.0
2017_11_21_S2 11/21/2017 22:25:00 0.0
2017_11_21_S2 11/21/2017 22:30:00 0.0
2017_11_21_S2 11/21/2017 22:35:00 0.0
2017_11_21_S2 11/21/2017 22:40:00 0.0
2017_11_21_S2 11/21/2017 22:45:00 0.0
2017_11_21_S2 11/21/2017 22:50:00 0.0013
2017_11_21_S2 11/21/2017 22:55:00 0.0
2017_11_21_S2 11/21/2017 23:00:00 0.0024
2017_11_21_S2 11/21/2017 23:05:00 0.0
2017_11_21_S2 11/21/2017 23:10:00 0.0
2017_11_21_S2 11/21/2017 23:15:00 0.0014
2017_11_21_S2 11/21/2017 23:20:00 0.0
2017_11_21_S2 11/21/2017 23:25:00 0.0
2017_11_21_S2 11/21/2017 23:30:00 0.0
2017_11_21_S2 11/21/2017 23:35:00 0.0
2017_11_21_S2 11/21/2017 23:40:00 0.0
2017_11_21_S2 11/21/2017 23:45:00 0.0
2017_11_21_S2 11/21/2017 23:50:00 0.0
2017_11_21_S2 11/21/2017 23:55:00 0.0
2017_11_21_S2 11/22/2017 00:00:00 0.0
2017_11_21_S2 11/22/2017 00:05:00 0.0
2017_11_21_S2 11/22/2017 00:10:00 0.0
2017_11_21_S2 11/22/2017 00:15:00 0.0
2017_11_21_S2 11/22/2017 00:20:00 0.0
2017_11_21_S2 11/22/2017 00:25:00 0.0
2017_11_21_S2 11/22/2017 00:30:00 0.0
2017_11_21_S2 11/22/2017 00:35:00 0.0
2017_11_21_S2 11/22/2017 00:40:00 0.0
2017_11_21_S2 11/22/2017 00:45:00 0.0
2017_11_21_S2 11/22/2017 00:50:00 0.0
2017_11_21_S2 11/22/2017 00:55:00 0.0
2017_11_21_S2 11/22/2017 01:00:00 0.0
2017_11_21_S2 11/22/2017 01:05:00 0.0
2017_11_21_S2 11/22/2017 01:10:00 0.0
2017_11_21_S2 11/22/2017 01:15:00 0.0066
2017_11_21_S2 11/22/2017 01:20:00 0.0
2017_11_21_S2 11/22/2017 01:25:00 0.0
2017_11_21_S2 11/22/2017 01:30:00 0.0
2017_11_21_S2 11/22/2017 01:35:00 0.0055
2017_11_21_S2 11/22/2017 01:40:00 0.0
2017_11_21_S2 11/22/2017 01:45:00 0.0274
2017_11_21_S2 11/22/2017 01:50:00 0.0
2017_11_21_S2 11/22/2017 01:55:00 0.0
2017_11_21_S2 11/22/2017 02:00:00 0.0009
2017_11_21_S2 11/22/2017 02:05:00 0.0
2017_11_21_S2 11/22/2017 02:10:00 0.0
2017_11_21_S2 11/22/2017 02:15:00 0.0
2017_11_21_S2 11/22/2017 02:20:00 0.0
2017_11_21_S2 11/22/2017 02:25:00 0.0
2017_11_21_S2 11/22/2017 02:30:00 0.0
2017_11_21_S2 11/22/2017 02:35:00 0.0
2017_11_21_S2 11/22/2017 02:40:00 0.0
2017_11_21_S2 11/22/2017 02:45:00 0.0
2017_11_21_S2 11/22/2017 02:50:00 0.0
2017_11_21_S2 11/22/2017 02:55:00 0.0
2017_11_21_S2 11/22/2017 03:00:00 0.0
2017_11_21_S2 11/22/2017 03:05:00 0.0
2017_11_21_S2 11/22/2017 03:10:00 0.0
2017_11_21_S2 11/22/2017 03:15:00 0.0
2017_11_21_S2 11/22/2017 03:20:00 0.0
2017_11_21_S2 11/22/2017 03:25:00 0.0
2017_11_21_S2 11/22/2017 03:30:00 0.0
2017_11_21_S2 11/22/2017 03:35:00 0.0
2017_11_21_S2 11/22/2017 03:40:00 0.0
2017_11_21_S2 11/22/2017 03:45:00 0.0
2017_11_21_S2 11/22/2017 03:50:00 0.0
2017_11_21_S2 11/22/2017 03:55:00 0.0
2017_11_21_S2 11/22/2017 04:00:00 0.0
2017_11_21_S2 11/22/2017 04:05:00 0.0
2017_11_21_S2 11/22/2017 04:10:00 0.0
2017_11_21_S2 11/22/2017 04:15:00 0.0
2017_11_21_S2 11/22/2017 04:20:00 0.0
2017_11_21_S2 11/22/2017 04:25:00 0.0
2017_11_21_S2 11/22/2017 04:30:00 0.0
2017_11_21_S2 11/22/2017 04:35:00 0.0
2017_11_21_S2 11/22/2017 04:40:00 0.0
2017_11_21_S2 11/22/2017 04:45:00 0.0
2017_11_21_S2 11/22/2017 04:50:00 0.0
2017_11_21_S2 11/22/2017 04:55:00 0.0
2017_11_21_S2 11/22/2017 05:00:00 0.0
2017_11_21_S2 11/22/2017 05:05:00 0.0
2017_11_21_S2 11/22/2017 05:10:00 0.0
2017_11_21_S2 11/22/2017 05:15:00 0.0
2017_11_21_S2 11/22/2017 05:20:00 0.0
2017_11_21_S2 11/22/2017 05:25:00 0.0
2017_11_21_S2 11/22/2017 05:30:00 0.0
2017_11_21_S2 11/22/2017 05:35:00 0.0
2017_11_21_S2 11/22/2017 05:40:00 0.0
2017_11_21_S2 11/22/2017 05:45:00 0.0
2017_11_21_S2 11/22/2017 05:50:00 0.0
2017_11_21_S2 11/22/2017 05:55:00 0.0
2017_11_21_S2 11/22/2017 06:00:00 0.0
2017_11_21_S2 11/22/2017 06:05:00 0.0
2017_11_21_S2 11/22/2017 06:10:00 0.0
2017_11_21_S2 11/22/2017 06:15:00 0.0
2017_11_21_S2 11/22/2017 06:20:00 0.0
2017_11_21_S2 11/22/2017 06:25:00 0.0
2017_11_21_S2 11/22/2017 06:30:00 0.0
2017_11_21_S2 11/22/2017 06:35:00 0.0
2017_11_21_S2 11/22/2017 06:40:00 0.0
2017_11_21_S2 11/22/2017 06:45:00 0.0
2017_11_21_S2 11/22/2017 06:50:00 0.0
2017_11_21_S2 11/22/2017 06:55:00 0.0
2017_11_21_S2 11/22/2017 07:00:00 0.0
2017_11_21_S2 11/22/2017 07:05:00 0.0
2017_11_21_S2 11/22/2017 07:10:00 0.0
2017_11_21_S2 11/22/2017 07:15:00 0.0
2017_11_21_S2 11/22/2017 07:20:00 0.0
2017_11_21_S2 11/22/2017 07:25:00 0.0
2017_11_21_S2 11/22/2017 07:30:00 0.0
2017_11_21_S2 11/22/2017 07:35:00 0.0
2017_11_21_S2 11/22/2017 07:40:00 0.0
2017_11_21_S2 11/22/2017 07:45:00 0.0
2017_11_21_S2 11/22/2017 07:50:00 0.0
2017_11_21_S2 11/22/2017 07:55:00 0.0
2017_11_21_S2 11/22/2017 08:00:00 0.0

2017_11_21_S3 11/20/2017 22:55:00 0.5575
2017_11_21_S3 11/20/2017 23:00:00 0.8654
2017_11_21_S3 11/20/2017 23:05:00 0.1567
2017_11_21_S3 11/20/2017 23:10:00 0.0035
2017_11_21_S3 11/20/2017 23:15:00 0.0
2017_11_21_S3 11/20/2017 23:20:00 0.0
2017_11_21_S3 11/20/2017 23:25:00 0.0
2017_11_21_S3 11/20/2017 23:30:00 0.0
2017_11_21_S3 11/20/2017 23:35:00 0.0
2017_11_21_S3 11/20/2017 23:40:00 0.0
2017_11_21_S3 11/20/2017 23:45:00 0.0
2017_11_21_S3 11/20/2017 23:50:00 0.0
2017_11_21_S3 11/20/2017 23:55:00 0.0
2017_11_21_S3 11/21/2017 00:00:00 0.0
2017_11_21_S3 11/21/2017 00:05:00 0.0
2017_11_21_S3 11/21/2017 00:10:00 0.0
2017_11_21_S3 11/21/2017 00:15:00 0.0
2017_11_21_S3 11/21/2017 00:20:00 0.0
2017_11_21_S3 11/21/2017 00:25:00 0.0
2017_11_21_S3 11/21/2017 00:30:00 0.0
2017_11_21_S3 11/21/2017 00:35:00 0.0
2017_11_21_S3 11/21/2017 00:40:00 0.0
2017_11_21_S3 11/21/2017 00:45:00 0.0
2017_11_21_S3 11/21/2017 00:50:00 0.0
2017_11_21_S3 11/21/2017 00:55:00 0.0
2017_11_21_S3 11/21/2017 01:00:00 0.0
2017_11_21_S3 11/21/2017 01:05:00 0.0
2017_11_21_S3 11/21/2017 01:10:00 0.0
2017_11_21_S3 11/21/2017 01:15:00 0.2143
2017_11_21_S3 11/21/2017 01:20:00 0.2422
2017_11_21_S3 11/21/2017 01:25:00 0.0322
2017_11_21_S3 11/21/2017 01:30:00 0.0576
2017_11_21_S3 11/21/2017 01:35:00 0.0107
2017_11_21_S3 11/21/2017 01:40:00 0.0
2017_11_21_S3 11/21/2017 01:45:00 0.0
2017_11_21_S3 11/21/2017 01:50:00 0.0
2017_11_21_S3 11/21/2017 01:55:00 0.0
2017_11_21_S3 11/21/2017 02:00:00 0.0
2017_11_21_S3 11/21/2017 02:05:00 0.0426
2017_11_21_S3 11/21/2017 02:10:00 0.0313
2017_11_21_S3 11/21/2017 02:15:00 0.1338
2017_11_21_S3 11/21/2017 02:20:00 0.001
2017_11_21_S3 11/21/2017 02:25:00 0.0374
2017_11_21_S3 11/21/2017 02:30:00 0.0
2017_11_21_S3 11/21/2017 02:35:00 0.233
2017_11_21_S3 11/21/2017 02:40:00 0.0879
2017_11_21_S3 11/21/2017 02:45:00 0.009
2017_11_21_S3 11/21/2017 02:50:00 0.0008
2017_11_21_S3 11/21/2017 02:55:00 0.0
2017_11_21_S3 11/21/2017 03:00:00 0.0
2017_11_21_S3 11/21/2017 03:05:00 0.6836
2017_11_21_S3 11/21/2017 03:10:00 0.1045
2017_11_21_S3 11/21/2017 03:15:00 0.0
2017_11_21_S3 11/21/2017 03:20:00 0.0657
2017_11_21_S3 11/21/2017 03:25:00 0.6252
2017_11_21_S3 11/21/2017 03:30:00 0.1422
2017_11_21_S3 11/21/2017 03:35:00 0.3348
2017_11_21_S3 11/21/2017 03:40:00 0.0024
2017_11_21_S3 11/21/2017 03:45:00 0.0696
2017_11_21_S3 11/21/2017 03:50:00 0.0094
2017_11_21_S3 11/21/2017 03:55:00 0.18
2017_11_21_S3 11/21/2017 04:00:00 0.044
2017_11_21_S3 11/21/2017 04:05:00 0.0108
2017_11_21_S3 11/21/2017 04:10:00 0.05
2017_11_21_S3 11/21/2017 04:15:00 0.0255
2017_11_21_S3 11/21/2017 04:20:00 0.0128
2017_11_21_S3 11/21/2017 04:25:00 0.0238
2017_11_21_S3 11/21/2017 04:30:00 0.4264
2017_11_21_S3 11/21/2017 04:35:00 0.2751
2017_11_21_S3 11/21/2017 04:40:00 0.034
2017_11_21_S3 11/21/2017 04:45:00 0.0001
2017_11_21_S3 11/21/2017 04:50:00 0.0
2017_11_21_S3 11/21/2017 04:55:00 0.0
2017_11_21_S3 11/21/2017 05:00:00 0.0
2017_11_21_S3 11/21/2017 05:05:00 0.0
2017_11_21_S3 11/21/2017 05:10:00 0.0048
2017_11_21_S3 11/21/2017 05:15:00 2.2967
2017_11_21_S3 11/21/2017 05:20:00 4.6303
2017_11_21_S3 11/21/2017 05:25:00 3.1057
2017_11_21_S3 11/21/2017 05:30:00 0.8545
2017_11_21_S3 11/21/2017 05:35:00 0.0688
2017_11_21_S3 11/21/2017 05:40:00 0.0089
2017_11_21_S3 11/21/2017 05:45:00 0.0
2017_11_21_S3 11/21/2017 05:50:00 0.0
2017_11_21_S3 11/21/2017 05:55:00 0.0009
2017_11_21_S3 11/21/2017 06:00:00 0.001
2017_11_21_S3 11/21/2017 06:05:00 0.0
2017_11_21_S3 11/21/2017 06:10:00 0.0
2017_11_21_S3 11/21/2017 06:15:00 0.0
2017_11_21_S3 11/21/2017 06:20:00 0.0
2017_11_21_S3 11/21/2017 06:25:00 0.0
2017_11_21_S3 11/21/2017 06:30:00 0.0
2017_11_21_S3 11/21/2017 06:35:00 0.0
2017_11_21_S3 11/21/2017 06:40:00 0.0
2017_11_21_S3 11/21/2017 06:45:00 0.0
2017_11_21_S3 11/21/2017 06:50:00 0.0
2017_11_21_S3 11/21/2017 06:55:00 0.0
2017_11_21_S3 11/21/2017 07:00:00 0.0
2017_11_21_S3 11/21/2017 07:05:00 0.0
2017_11_21_S3 11/21/2017 07:10:00 0.0
2017_11_21_S3 11/21/2017 07:15:00 0.0
2017_11_21_S3 11/21/2017 07:20:00 0.0
2017_11_21_S3 11/21/2017 07:25:00 0.0018
2017_11_21_S3 11/21/2017 07:30:00 0.0008
2017_11_21_S3 11/21/2017 07:35:00 0.0
2017_11_21_S3 11/21/2017 07:40:00 0.0021
2017_11_21_S3 11/21/2017 07:45:00 0.0
2017_11_21_S3 11/21/2017 07:50:00 0.0
2017_11_21_S3 11/21/2017 07:55:00 0.0
2017_11_21_S3 11/21/2017 08:00:00 0.0028
2017_11_21_S3 11/21/2017 08:05:00 0.1035
2017_11_21_S3 11/21/2017 08:10:00 0.0161
2017_11_21_S3 11/21/2017 08:15:00 0.0074
2017_11_21_S3 11/21/2017 08:20:00 0.0
2017_11_21_S3 11/21/2017 08:25:00 0.0011
2017_11_21_S3 11/21/2017 08:30:00 0.638
2017_11_21_S3 11/21/2017 08:35:00 0.8282
2017_11_21_S3 11/21/2017 08:40:00 0.1427
2017_11_21_S3 11/21/2017 08:45:00 0.0593
2017_11_21_S3 11/21/2017 08:50:00 0.0042
2017_11_21_S3 11/21/2017 08:55:00 0.0
2017_11_21_S3 11/21/2017 09:00:00 0.0
2017_11_21_S3 11/21/2017 09:05:00 0.0
2017_11_21_S3 11/21/2017 09:10:00 0.0
2017_11_21_S3 11/21/2017 09:15:00 0.0
2017_11_21_S3 11/21/2017 09:20:00 0.0
2017_11_21_S3 11/21/2017 09:25:00 0.0
2017_11_21_S3 11/21/2017 09:30:00 0.0
2017_11_21_S3 11/21/2017 09:35:00 0.0
2017_11_21_S3 11/21/2017 09:40:00 0.0
2017_11_21_S3 11/21/2017 09:45:00 0.0177
2017_11_21_S3 11/21/2017 09:50:00 0.0873
2017_11_21_S3 11/21/2017 09:55:00 0.3152
2017_11_21_S3 11/21/2017 10:00:00 0.0168
2017_11_21_S3 11/21/2017 10:05:00 0.001
2017_11_21_S3 11/21/2017 10:10:00 0.046
2017_11_21_S3 11/21/2017 10:15:00 0.0024
2017_11_21_S3 11/21/2017 10:20:00 0.0
2017_11_21_S3 11/21/2017 10:25:00 0.0
2017_11_21_S3 11/21/2017 10:30:00 0.0016
2017_11_21_S3 11/21/2017 10:35:00 0.0032
2017_11_21_S3 11/21/2017 10:40:00 0.0049
2017_11_21_S3 11/21/2017 10:45:00 0.0009
2017_11_21_S3 11/21/2017 10:50:00 0.0
2017_11_21_S3 11/21/2017 10:55:00 0.0
2017_11_21_S3 11/21/2017 11:00:00 0.0
2017_11_21_S3 11/21/2017 11:05:00 0.0
2017_11_21_S3 11/21/2017 11:10:00 0.0
2017_11_21_S3 11/21/2017 11:15:00 0.0
2017_11_21_S3 11/21/2017 11:20:00 0.0
2017_11_21_S3 11/21/2017 11:25:00 0.0
2017_11_21_S3 11/21/2017 11:30:00 0.0
2017_11_21_S3 11/21/2017 11:35:00 0.0
2017_11_21_S3 11/21/2017 11:40:00 0.0
2017_11_21_S3 11/21/2017 11:45:00 0.0
2017_11_21_S3 11/21/2017 11:50:00 0.0
2017_11_21_S3 11/21/2017 11:55:00 0.0
2017_11_21_S3 11/21/2017 12:00:00 0.0
2017_11_21_S3 11/21/2017 12:05:00 0.0
2017_11_21_S3 11/21/2017 12:10:00 0.0
2017_11_21_S3 11/21/2017 12:15:00 0.0
2017_11_21_S3 11/21/2017 12:20:00 0.0
2017_11_21_S3 11/21/2017 12:25:00 0.0
2017_11_21_S3 11/21/2017 12:30:00 0.0
2017_11_21_S3 11/21/2017 12:35:00 0.0
2017_11_21_S3 11/21/2017 12:40:00 0.0
2017_11_21_S3 11/21/2017 12:45:00 0.0
2017_11_21_S3 11/21/2017 12:50:00 0.0
2017_11_21_S3 11/21/2017 12:55:00 0.0
2017_11_21_S3 11/21/2017 13:00:00 0.0
2017_11_21_S3 11/21/2017 13:05:00 0.0
2017_11_21_S3 11/21/2017 13:10:00 0.0
2017_11_21_S3 11/21/2017 13:15:00 0.0
2017_11_21_S3 11/21/2017 13:20:00 0.0
2017_11_21_S3 11/21/2017 13:25:00 0.0
2017_11_21_S3 11/21/2017 13:30:00 0.0
2017_11_21_S3 11/21/2017 13:35:00 0.0
2017_11_21_S3 11/21/2017 13:40:00 0.0
2017_11_21_S3 11/21/2017 13:45:00 0.0
2017_11_21_S3 11/21/2017 13:50:00 0.0
2017_11_21_S3 11/21/2017 13:55:00 0.0
2017_11_21_S3 11/21/2017 14:00:00 0.0
2017_11_21_S3 11/21/2017 14:05:00 0.0
2017_11_21_S3 11/21/2017 14:10:00 0.0
2017_11_21_S3 11/21/2017 14:15:00 0.0
2017_11_21_S3 11/21/2017 14:20:00 0.0
2017_11_21_S3 11/21/2017 14:25:00 0.0
2017_11_21_S3 11/21/2017 14:30:00 0.0
2017_11_21_S3 11/21/2017 14:35:00 0.0
2017_11_21_S3 11/21/2017 14:40:00 0.0
2017_11_21_S3 11/21/2017 14:45:00 0.0
2017_11_21_S3 11/21/2017 14:50:00 0.0
2017_11_21_S3 11/21/2017 14:55:00 0.0
2017_11_21_S3 11/21/2017 15:00:00 0.0
2017_11_21_S3 11/21/2017 15:05:00 0.0
2017_11_21_S3 11/21/2017 15:10:00 0.0
2017_11_21_S3 11/21/2017 15:15:00 0.0
2017_11_21_S3 11/21/2017 15:20:00 0.0
2017_11_21_S3 11/21/2017 15:25:00 0.0
2017_11_21_S3 11/21/2017 15:30:00 0.0
2017_11_21_S3 11/21/2017 15:35:00 0.0
2017_11_21_S3 11/21/2017 15:40:00 0.0
2017_11_21_S3 11/21/2017 15:45:00 0.0
2017_11_21_S3 11/21/2017 15:50:00 0.0
2017_11_21_S3 11/21/2017 15:55:00 0.0
2017_11_21_S3 11/21/2017 16:00:00 0.0
2017_11_21_S3 11/21/2017 16:05:00 0.0
2017_11_21_S3 11/21/2017 16:10:00 0.0
2017_11_21_S3 11/21/2017 16:15:00 0.0
2017_11_21_S3 11/21/2017 16:20:00 0.0
2017_11_21_S3 11/21/2017 16:25:00 0.0
2017_11_21_S3 11/21/2017 16:30:00 0.0
2017_11_21_S3 11/21/2017 16:35:00 0.0
2017_11_21_S3 11/21/2017 16:40:00 0.0
2017_11_21_S3 11/21/2017 16:45:00 0.0
2017_11_21_S3 11/21/2017 16:50:00 0.0
2017_11_21_S3 11/21/2017 16:55:00 0.0
2017_11_21_S3 11/21/2017 17:00:00 0.0
2017_11_21_S3 11/21/2017 17:05:00 0.0
2017_11_21_S3 11/21/2017 17:10:00 0.0
2017_11_21_S3 11/21/2017 17:15:00 0.0
2017_11_21_S3 11/21/2017 17:20:00 0.0
2017_11_21_S3 11/21/2017 17:25:00 0.0
2017_11_21_S3 11/21/2017 17:30:00 0.0
2017_11_21_S3 11/21/2017 17:35:00 0.0
2017_11_21_S3 11/21/2017 17:40:00 0.0
2017_11_21_S3 11/21/2017 17:45:00 0.0
2017_11_21_S3 11/21/2017 17:50:00 0.0
2017_11_21_S3 11/21/2017 17:55:00 0.0
2017_11_21_S3 11/21/2017 18:00:00 0.0
2017_11_21_S3 11/21/2017 18:05:00 0.0
2017_11_21_S3 11/21/2017 18:10:00 0.0
2017_11_21_S3 11/21/2017 18:15:00 0.0
2017_11_21_S3 11/21/2017 18:20:00 0.0
2017_11_21_S3 11/21/2017 18:25:00 0.0
2017_11_21_S3 11/21/2017 18:30:00 0.0
2017_11_21_S3 11/21/2017 18:35:00 0.0
2017_11_21_S3 11/21/2017 18:40:00 0.0
2017_11_21_S3 11/21/2017 18:45:00 0.0
2017_11_21_S3 11/21/2017 18:50:00 0.0
2017_11_21_S3 11/21/2017 18:55:00 0.0
2017_11_21_S3 11/21/2017 19:00:00 0.0
2017_11_21_S3 11/21/2017 19:05:00 0.0
2017_11_21_S3 11/21/2017 19:10:00 0.0
2017_11_21_S3 11/21/2017 19:15:00 0.0
2017_11_21_S3 11/21/2017 19:20:00 0.0
2017_11_21_S3 11/21/2017 19:25:00 0.0
2017_11_21_S3 11/21/2017 19:30:00 0.0
2017_11_21_S3 11/21/2017 19:35:00 0.0
2017_11_21_S3 11/21/2017 19:40:00 0.0
2017_11_21_S3 11/21/2017 19:45:00 0.0
2017_11_21_S3 11/21/2017 19:50:00 0.0
2017_11_21_S3 11/21/2017 19:55:00 0.0
2017_11_21_S3 11/21/2017 20:00:00 0.0
2017_11_21_S3 11/21/2017 20:05:00 0.0
2017_11_21_S3 11/21/2017 20:10:00 0.0
2017_11_21_S3 11/21/2017 20:15:00 0.0
2017_11_21_S3 11/21/2017 20:20:00 0.0
2017_11_21_S3 11/21/2017 20:25:00 0.0
2017_11_21_S3 11/21/2017 20:30:00 0.0
2017_11_21_S3 11/21/2017 20:35:00 0.0
2017_11_21_S3 11/21/2017 20:40:00 0.0
2017_11_21_S3 11/21/2017 20:45:00 0.0
2017_11_21_S3 11/21/2017 20:50:00 0.0
2017_11_21_S3 11/21/2017 20:55:00 0.0
2017_11_21_S3 11/21/2017 21:00:00 0.0
2017_11_21_S3 11/21/2017 21:05:00 0.0
2017_11_21_S3 11/21/2017 21:10:00 0.0
2017_11_21_S3 11/21/2017 21:15:00 0.0
2017_11_21_S3 11/21/2017 21:20:00 0.0
2017_11_21_S3 11/21/2017 21:25:00 0.0
2017_11_21_S3 11/21/2017 21:30:00 0.0
2017_11_21_S3 11/21/2017 21:35:00 0.0
2017_11_21_S3 11/21/2017 21:40:00 0.0
2017_11_21_S3 11/21/2017 21:45:00 0.0
2017_11_21_S3 11/21/2017 21:50:00 0.0
2017_11_21_S3 11/21/2017 21:55:00 0.0
2017_11_21_S3 11/21/2017 22:00:00 0.0
2017_11_21_S3 11/21/2017 22:05:00 0.0
2017_11_21_S3 11/21/2017 22:10:00 0.0
2017_11_21_S3 11/21/2017 22:15:00 0.0
2017_11_21_S3 11/21/2017 22:20:00 0.0
2017_11_21_S3 11/21/2017 22:25:00 0.0
2017_11_21_S3 11/21/2017 22:30:00 0.0
2017_11_21_S3 11/21/2017 22:35:00 0.0
2017_11_21_S3 11/21/2017 22:40:00 0.0001
2017_11_21_S3 11/21/2017 22:45:00 0.0
2017_11_21_S3 11/21/2017 22:50:00 0.0
2017_11_21_S3 11/21/2017 22:55:00 0.0
2017_11_21_S3 11/21/2017 23:00:00 0.0017
2017_11_21_S3 11/21/2017 23:05:00 0.0
2017_11_21_S3 11/21/2017 23:10:00 0.0
2017_11_21_S3 11/21/2017 23:15:00 0.0001
2017_11_21_S3 11/21/2017 23:20:00 0.0
2017_11_21_S3 11/21/2017 23:25:00 0.0
2017_11_21_S3 11/21/2017 23:30:00 0.0
2017_11_21_S3 11/21/2017 23:35:00 0.0
2017_11_21_S3 11/21/2017 23:40:00 0.0
2017_11_21_S3 11/21/2017 23:45:00 0.0
2017_11_21_S3 11/21/2017 23:50:00 0.0
2017_11_21_S3 11/21/2017 23:55:00 0.0
2017_11_21_S3 11/22/2017 00:00:00 0.0
2017_11_21_S3 11/22/2017 00:05:00 0.0
2017_11_21_S3 11/22/2017 00:10:00 0.0
2017_11_21_S3 11/22/2017 00:15:00 0.0
2017_11_21_S3 11/22/2017 00:20:00 0.0
2017_11_21_S3 11/22/2017 00:25:00 0.0
2017_11_21_S3 11/22/2017 00:30:00 0.0
2017_11_21_S3 11/22/2017 00:35:00 0.0
2017_11_21_S3 11/22/2017 00:40:00 0.0
2017_11_21_S3 11/22/2017 00:45:00 0.0
2017_11_21_S3 11/22/2017 00:50:00 0.0
2017_11_21_S3 11/22/2017 00:55:00 0.0
2017_11_21_S3 11/22/2017 01:00:00 0.0
2017_11_21_S3 11/22/2017 01:05:00 0.0
2017_11_21_S3 11/22/2017 01:10:00 0.0
2017_11_21_S3 11/22/2017 01:15:00 0.0042
2017_11_21_S3 11/22/2017 01:20:00 0.0
2017_11_21_S3 11/22/2017 01:25:00 0.0
2017_11_21_S3 11/22/2017 01:30:00 0.0009
2017_11_21_S3 11/22/2017 01:35:00 0.0069
2017_11_21_S3 11/22/2017 01:40:00 0.0
2017_11_21_S3 11/22/2017 01:45:00 0.0409
2017_11_21_S3 11/22/2017 01:50:00 0.0
2017_11_21_S3 11/22/2017 01:55:00 0.0
2017_11_21_S3 11/22/2017 02:00:00 0.0011
2017_11_21_S3 11/22/2017 02:05:00 0.0
2017_11_21_S3 11/22/2017 02:10:00 0.0
2017_11_21_S3 11/22/2017 02:15:00 0.0
2017_11_21_S3 11/22/2017 02:20:00 0.0
2017_11_21_S3 11/22/2017 02:25:00 0.0
2017_11_21_S3 11/22/2017 02:30:00 0.0
2017_11_21_S3 11/22/2017 02:35:00 0.0
2017_11_21_S3 11/22/2017 02:40:00 0.0
2017_11_21_S3 11/22/2017 02:45:00 0.0
2017_11_21_S3 11/22/2017 02:50:00 0.0
2017_11_21_S3 11/22/2017 02:55:00 0.0
2017_11_21_S3 11/22/2017 03:00:00 0.0
2017_11_21_S3 11/22/2017 03:05:00 0.0
2017_11_21_S3 11/22/2017 03:10:00 0.0
2017_11_21_S3 11/22/2017 03:15:00 0.0
2017_11_21_S3 11/22/2017 03:20:00 0.0
2017_11_21_S3 11/22/2017 03:25:00 0.0
2017_11_21_S3 11/22/2017 03:30:00 0.0
2017_11_21_S3 11/22/2017 03:35:00 0.0
2017_11_21_S3 11/22/2017 03:40:00 0.0
2017_11_21_S3 11/22/2017 03:45:00 0.0
2017_11_21_S3 11/22/2017 03:50:00 0.0
2017_11_21_S3 11/22/2017 03:55:00 0.0
2017_11_21_S3 11/22/2017 04:00:00 0.0
2017_11_21_S3 11/22/2017 04:05:00 0.0
2017_11_21_S3 11/22/2017 04:10:00 0.0
2017_11_21_S3 11/22/2017 04:15:00 0.0
2017_11_21_S3 11/22/2017 04:20:00 0.0
2017_11_21_S3 11/22/2017 04:25:00 0.0
2017_11_21_S3 11/22/2017 04:30:00 0.0
2017_11_21_S3 11/22/2017 04:35:00 0.0
2017_11_21_S3 11/22/2017 04:40:00 0.0
2017_11_21_S3 11/22/2017 04:45:00 0.0
2017_11_21_S3 11/22/2017 04:50:00 0.0
2017_11_21_S3 11/22/2017 04:55:00 0.0
2017_11_21_S3 11/22/2017 05:00:00 0.0
2017_11_21_S3 11/22/2017 05:05:00 0.0
2017_11_21_S3 11/22/2017 05:10:00 0.0
2017_11_21_S3 11/22/2017 05:15:00 0.0
2017_11_21_S3 11/22/2017 05:20:00 0.0
2017_11_21_S3 11/22/2017 05:25:00 0.0
2017_11_21_S3 11/22/2017 05:30:00 0.0
2017_11_21_S3 11/22/2017 05:35:00 0.0
2017_11_21_S3 11/22/2017 05:40:00 0.0
2017_11_21_S3 11/22/2017 05:45:00 0.0
2017_11_21_S3 11/22/2017 05:50:00 0.0
2017_11_21_S3 11/22/2017 05:55:00 0.0
2017_11_21_S3 11/22/2017 06:00:00 0.0
2017_11_21_S3 11/22/2017 06:05:00 0.0
2017_11_21_S3 11/22/2017 06:10:00 0.0
2017_11_21_S3 11/22/2017 06:15:00 0.0
2017_11_21_S3 11/22/2017 06:20:00 0.0
2017_11_21_S3 11/22/2017 06:25:00 0.0
2017_11_21_S3 11/22/2017 06:30:00 0.0
2017_11_21_S3 11/22/2017 06:35:00 0.0
2017_11_21_S3 11/22/2017 06:40:00 0.0
2017_11_21_S3 11/22/2017 06:45:00 0.0
2017_11_21_S3 11/22/2017 06:50:00 0.0
2017_11_21_S3 11/22/2017 06:55:00 0.0
2017_11_21_S3 11/22/2017 07:00:00 0.0
2017_11_21_S3 11/22/2017 07:05:00 0.0
2017_11_21_S3 11/22/2017 07:10:00 0.0
2017_11_21_S3 11/22/2017 07:15:00 0.0
2017_11_21_S3 11/22/2017 07:20:00 0.0
2017_11_21_S3 11/22/2017 07:25:00 0.0
2017_11_21_S3 11/22/2017 07:30:00 0.0
2017_11_21_S3 11/22/2017 07:35:00 0.0
2017_11_21_S3 11/22/2017 07:40:00 0.0
2017_11_21_S3 11/22/2017 07:45:00 0.0
2017_11_21_S3 11/22/2017 07:50:00 0.0
2017_11_21_S3 11/22/2017 07:55:00 0.0
2017_11_21_S3 11/22/2017 08:00:00 0.0

2017_11_21_S4 11/20/2017 22:55:00 0.1674
2017_11_21_S4 11/20/2017 23:00:00 0.4956
2017_11_21_S4 11/20/2017 23:05:00 0.1335
2017_11_21_S4 11/20/2017 23:10:00 0.0003
2017_11_21_S4 11/20/2017 23:15:00 0.0
2017_11_21_S4 11/20/2017 23:20:00 0.0
2017_11_21_S4 11/20/2017 23:25:00 0.0
2017_11_21_S4 11/20/2017 23:30:00 0.0
2017_11_21_S4 11/20/2017 23:35:00 0.0
2017_11_21_S4 11/20/2017 23:40:00 0.0
2017_11_21_S4 11/20/2017 23:45:00 0.0
2017_11_21_S4 11/20/2017 23:50:00 0.0
2017_11_21_S4 11/20/2017 23:55:00 0.0
2017_11_21_S4 11/21/2017 00:00:00 0.0
2017_11_21_S4 11/21/2017 00:05:00 0.0
2017_11_21_S4 11/21/2017 00:10:00 0.0
2017_11_21_S4 11/21/2017 00:15:00 0.0
2017_11_21_S4 11/21/2017 00:20:00 0.0
2017_11_21_S4 11/21/2017 00:25:00 0.0
2017_11_21_S4 11/21/2017 00:30:00 0.0
2017_11_21_S4 11/21/2017 00:35:00 0.0
2017_11_21_S4 11/21/2017 00:40:00 0.0
2017_11_21_S4 11/21/2017 00:45:00 0.0
2017_11_21_S4 11/21/2017 00:50:00 0.0
2017_11_21_S4 11/21/2017 00:55:00 0.0
2017_11_21_S4 11/21/2017 01:00:00 0.0
2017_11_21_S4 11/21/2017 01:05:00 0.0
2017_11_21_S4 11/21/2017 01:10:00 0.0
2017_11_21_S4 11/21/2017 01:15:00 0.1675
2017_11_21_S4 11/21/2017 01:20:00 0.2953
2017_11_21_S4 11/21/2017 01:25:00 0.0285
2017_11_21_S4 11/21/2017 01:30:00 0.0564
2017_11_21_S4 11/21/2017 01:35:00 0.0127
2017_11_21_S4 11/21/2017 01:40:00 0.0
2017_11_21_S4 11/21/2017 01:45:00 0.0
2017_11_21_S4 11/21/2017 01:50:00 0.0
2017_11_21_S4 11/21/2017 01:55:00 0.0
2017_11_21_S4 11/21/2017 02:00:00 0.0
2017_11_21_S4 11/21/2017 02:05:00 0.0007
2017_11_21_S4 11/21/2017 02:10:00 0.0955
2017_11_21_S4 11/21/2017 02:15:00 0.2235
2017_11_21_S4 11/21/2017 02:20:00 0.0054
2017_11_21_S4 11/21/2017 02:25:00 0.0954
2017_11_21_S4 11/21/2017 02:30:00 0.0
2017_11_21_S4 11/21/2017 02:35:00 0.2003
2017_11_21_S4 11/21/2017 02:40:00 0.0829
2017_11_21_S4 11/21/2017 02:45:00 0.0007
2017_11_21_S4 11/21/2017 02:50:00 0.0
2017_11_21_S4 11/21/2017 02:55:00 0.0
2017_11_21_S4 11/21/2017 03:00:00 0.0
2017_11_21_S4 11/21/2017 03:05:00 0.0886
2017_11_21_S4 11/21/2017 03:10:00 0.0819
2017_11_21_S4 11/21/2017 03:15:00 0.0
2017_11_21_S4 11/21/2017 03:20:00 0.0136
2017_11_21_S4 11/21/2017 03:25:00 0.4453
2017_11_21_S4 11/21/2017 03:30:00 0.0844
2017_11_21_S4 11/21/2017 03:35:00 0.4516
2017_11_21_S4 11/21/2017 03:40:00 0.0027
2017_11_21_S4 11/21/2017 03:45:00 0.1208
2017_11_21_S4 11/21/2017 03:50:00 0.0031
2017_11_21_S4 11/21/2017 03:55:00 0.1607
2017_11_21_S4 11/21/2017 04:00:00 0.0559
2017_11_21_S4 11/21/2017 04:05:00 0.0071
2017_11_21_S4 11/21/2017 04:10:00 0.0483
2017_11_21_S4 11/21/2017 04:15:00 0.0256
2017_11_21_S4 11/21/2017 04:20:00 0.0049
2017_11_21_S4 11/21/2017 04:25:00 0.0193
2017_11_21_S4 11/21/2017 04:30:00 0.6328
2017_11_21_S4 11/21/2017 04:35:00 0.4229
2017_11_21_S4 11/21/2017 04:40:00 0.0458
2017_11_21_S4 11/21/2017 04:45:00 0.0014
2017_11_21_S4 11/21/2017 04:50:00 0.0
2017_11_21_S4 11/21/2017 04:55:00 0.0
2017_11_21_S4 11/21/2017 05:00:00 0.0
2017_11_21_S4 11/21/2017 05:05:00 0.0
2017_11_21_S4 11/21/2017 05:10:00 0.0074
2017_11_21_S4 11/21/2017 05:15:00 1.8555
2017_11_21_S4 11/21/2017 05:20:00 6.1482
2017_11_21_S4 11/21/2017 05:25:00 3.2211
2017_11_21_S4 11/21/2017 05:30:00 1.2884
2017_11_21_S4 11/21/2017 05:35:00 0.0491
2017_11_21_S4 11/21/2017 05:40:00 0.0128
2017_11_21_S4 11/21/2017 05:45:00 0.0
2017_11_21_S4 11/21/2017 05:50:00 0.0
2017_11_21_S4 11/21/2017 05:55:00 0.0034
2017_11_21_S4 11/21/2017 06:00:00 0.0038
2017_11_21_S4 11/21/2017 06:05:00 0.0
2017_11_21_S4 11/21/2017 06:10:00 0.0
2017_11_21_S4 11/21/2017 06:15:00 0.0
2017_11_21_S4 11/21/2017 06:20:00 0.0
2017_11_21_S4 11/21/2017 06:25:00 0.0
2017_11_21_S4 11/21/2017 06:30:00 0.0
2017_11_21_S4 11/21/2017 06:35:00 0.0
2017_11_21_S4 11/21/2017 06:40:00 0.0
2017_11_21_S4 11/21/2017 06:45:00 0.0
2017_11_21_S4 11/21/2017 06:50:00 0.0
2017_11_21_S4 11/21/2017 06:55:00 0.0
2017_11_21_S4 11/21/2017 07:00:00 0.0
2017_11_21_S4 11/21/2017 07:05:00 0.0
2017_11_21_S4 11/21/2017 07:10:00 0.0
2017_11_21_S4 11/21/2017 07:15:00 0.0
2017_11_21_S4 11/21/2017 07:20:00 0.0
2017_11_21_S4 11/21/2017 07:25:00 0.0088
2017_11_21_S4 11/21/2017 07:30:00 0.0031
2017_11_21_S4 11/21/2017 07:35:00 0.0
2017_11_21_S4 11/21/2017 07:40:00 0.0068
2017_11_21_S4 11/21/2017 07:45:00 0.0
2017_11_21_S4 11/21/2017 07:50:00 0.0
2017_11_21_S4 11/21/2017 07:55:00 0.0
2017_11_21_S4 11/21/2017 08:00:00 0.0
2017_11_21_S4 11/21/2017 08:05:00 0.0911
2017_11_21_S4 11/21/2017 08:10:00 0.016
2017_11_21_S4 11/21/2017 08:15:00 0.0132
2017_11_21_S4 11/21/2017 08:20:00 0.0
2017_11_21_S4 11/21/2017 08:25:00 0.0028
2017_11_21_S4 11/21/2017 08:30:00 0.6692
2017_11_21_S4 11/21/2017 08:35:00 0.7734
2017_11_21_S4 11/21/2017 08:40:00 0.176
2017_11_21_S4 11/21/2017 08:45:00 0.088
2017_11_21_S4 11/21/2017 08:50:00 0.0077
2017_11_21_S4 11/21/2017 08:55:00 0.0
2017_11_21_S4 11/21/2017 09:00:00 0.0
2017_11_21_S4 11/21/2017 09:05:00 0.0
2017_11_21_S4 11/21/2017 09:10:00 0.0
2017_11_21_S4 11/21/2017 09:15:00 0.0
2017_11_21_S4 11/21/2017 09:20:00 0.0
2017_11_21_S4 11/21/2017 09:25:00 0.0
2017_11_21_S4 11/21/2017 09:30:00 0.0
2017_11_21_S4 11/21/2017 09:35:00 0.0
2017_11_21_S4 11/21/2017 09:40:00 0.0
2017_11_21_S4 11/21/2017 09:45:00 0.0167
2017_11_21_S4 11/21/2017 09:50:00 0.1496
2017_11_21_S4 11/21/2017 09:55:00 0.4685
2017_11_21_S4 11/21/2017 10:00:00 0.019
2017_11_21_S4 11/21/2017 10:05:00 0.0049
2017_11_21_S4 11/21/2017 10:10:00 0.0353
2017_11_21_S4 11/21/2017 10:15:00 0.0031
2017_11_21_S4 11/21/2017 10:20:00 0.0
2017_11_21_S4 11/21/2017 10:25:00 0.0
2017_11_21_S4 11/21/2017 10:30:00 0.0011
2017_11_21_S4 11/21/2017 10:35:00 0.0022
2017_11_21_S4 11/21/2017 10:40:00 0.0033
2017_11_21_S4 11/21/2017 10:45:00 0.0044
2017_11_21_S4 11/21/2017 10:50:00 0.0
2017_11_21_S4 11/21/2017 10:55:00 0.0
2017_11_21_S4 11/21/2017 11:00:00 0.0
2017_11_21_S4 11/21/2017 11:05:00 0.0
2017_11_21_S4 11/21/2017 11:10:00 0.0
2017_11_21_S4 11/21/2017 11:15:00 0.0
2017_11_21_S4 11/21/2017 11:20:00 0.0
2017_11_21_S4 11/21/2017 11:25:00 0.0
2017_11_21_S4 11/21/2017 11:30:00 0.0
2017_11_21_S4 11/21/2017 11:35:00 0.0
2017_11_21_S4 11/21/2017 11:40:00 0.0
2017_11_21_S4 11/21/2017 11:45:00 0.0
2017_11_21_S4 11/21/2017 11:50:00 0.0
2017_11_21_S4 11/21/2017 11:55:00 0.0
2017_11_21_S4 11/21/2017 12:00:00 0.0
2017_11_21_S4 11/21/2017 12:05:00 0.0
2017_11_21_S4 11/21/2017 12:10:00 0.0
2017_11_21_S4 11/21/2017 12:15:00 0.0
2017_11_21_S4 11/21/2017 12:20:00 0.0
2017_11_21_S4 11/21/2017 12:25:00 0.0
2017_11_21_S4 11/21/2017 12:30:00 0.0
2017_11_21_S4 11/21/2017 12:35:00 0.0
2017_11_21_S4 11/21/2017 12:40:00 0.0
2017_11_21_S4 11/21/2017 12:45:00 0.0
2017_11_21_S4 11/21/2017 12:50:00 0.0
2017_11_21_S4 11/21/2017 12:55:00 0.0
2017_11_21_S4 11/21/2017 13:00:00 0.0
2017_11_21_S4 11/21/2017 13:05:00 0.0
2017_11_21_S4 11/21/2017 13:10:00 0.0
2017_11_21_S4 11/21/2017 13:15:00 0.0
2017_11_21_S4 11/21/2017 13:20:00 0.0
2017_11_21_S4 11/21/2017 13:25:00 0.0
2017_11_21_S4 11/21/2017 13:30:00 0.0
2017_11_21_S4 11/21/2017 13:35:00 0.0
2017_11_21_S4 11/21/2017 13:40:00 0.0
2017_11_21_S4 11/21/2017 13:45:00 0.0
2017_11_21_S4 11/21/2017 13:50:00 0.0
2017_11_21_S4 11/21/2017 13:55:00 0.0
2017_11_21_S4 11/21/2017 14:00:00 0.0
2017_11_21_S4 11/21/2017 14:05:00 0.0
2017_11_21_S4 11/21/2017 14:10:00 0.0
2017_11_21_S4 11/21/2017 14:15:00 0.0
2017_11_21_S4 11/21/2017 14:20:00 0.0
2017_11_21_S4 11/21/2017 14:25:00 0.0
2017_11_21_S4 11/21/2017 14:30:00 0.0
2017_11_21_S4 11/21/2017 14:35:00 0.0
2017_11_21_S4 11/21/2017 14:40:00 0.0
2017_11_21_S4 11/21/2017 14:45:00 0.0
2017_11_21_S4 11/21/2017 14:50:00 0.0
2017_11_21_S4 11/21/2017 14:55:00 0.0
2017_11_21_S4 11/21/2017 15:00:00 0.0
2017_11_21_S4 11/21/2017 15:05:00 0.0
2017_11_21_S4 11/21/2017 15:10:00 0.0
2017_11_21_S4 11/21/2017 15:15:00 0.0
2017_11_21_S4 11/21/2017 15:20:00 0.0
2017_11_21_S4 11/21/2017 15:25:00 0.0
2017_11_21_S4 11/21/2017 15:30:00 0.0
2017_11_21_S4 11/21/2017 15:35:00 0.0
2017_11_21_S4 11/21/2017 15:40:00 0.0
2017_11_21_S4 11/21/2017 15:45:00 0.0
2017_11_21_S4 11/21/2017 15:50:00 0.0
2017_11_21_S4 11/21/2017 15:55:00 0.0
2017_11_21_S4 11/21/2017 16:00:00 0.0
2017_11_21_S4 11/21/2017 16:05:00 0.0
2017_11_21_S4 11/21/2017 16:10:00 0.0
2017_11_21_S4 11/21/2017 16:15:00 0.0
2017_11_21_S4 11/21/2017 16:20:00 0.0
2017_11_21_S4 11/21/2017 16:25:00 0.0
2017_11_21_S4 11/21/2017 16:30:00 0.0
2017_11_21_S4 11/21/2017 16:35:00 0.0
2017_11_21_S4 11/21/2017 16:40:00 0.0
2017_11_21_S4 11/21/2017 16:45:00 0.0
2017_11_21_S4 11/21/2017 16:50:00 0.0
2017_11_21_S4 11/21/2017 16:55:00 0.0
2017_11_21_S4 11/21/2017 17:00:00 0.0
2017_11_21_S4 11/21/2017 17:05:00 0.0
2017_11_21_S4 11/21/2017 17:10:00 0.0
2017_11_21_S4 11/21/2017 17:15:00 0.0
2017_11_21_S4 11/21/2017 17:20:00 0.0
2017_11_21_S4 11/21/2017 17:25:00 0.0
2017_11_21_S4 11/21/2017 17:30:00 0.0
2017_11_21_S4 11/21/2017 17:35:00 0.0
2017_11_21_S4 11/21/2017 17:40:00 0.0
2017_11_21_S4 11/21/2017 17:45:00 0.0
2017_11_21_S4 11/21/2017 17:50:00 0.0
2017_11_21_S4 11/21/2017 17:55:00 0.0
2017_11_21_S4 11/21/2017 18:00:00 0.0
2017_11_21_S4 11/21/2017 18:05:00 0.0
2017_11_21_S4 11/21/2017 18:10:00 0.0
2017_11_21_S4 11/21/2017 18:15:00 0.0
2017_11_21_S4 11/21/2017 18:20:00 0.0
2017_11_21_S4 11/21/2017 18:25:00 0.0
2017_11_21_S4 11/21/2017 18:30:00 0.0
2017_11_21_S4 11/21/2017 18:35:00 0.0
2017_11_21_S4 11/21/2017 18:40:00 0.0
2017_11_21_S4 11/21/2017 18:45:00 0.0
2017_11_21_S4 11/21/2017 18:50:00 0.0
2017_11_21_S4 11/21/2017 18:55:00 0.0
2017_11_21_S4 11/21/2017 19:00:00 0.0
2017_11_21_S4 11/21/2017 19:05:00 0.0
2017_11_21_S4 11/21/2017 19:10:00 0.0
2017_11_21_S4 11/21/2017 19:15:00 0.0
2017_11_21_S4 11/21/2017 19:20:00 0.0
2017_11_21_S4 11/21/2017 19:25:00 0.0
2017_11_21_S4 11/21/2017 19:30:00 0.0
2017_11_21_S4 11/21/2017 19:35:00 0.0
2017_11_21_S4 11/21/2017 19:40:00 0.0
2017_11_21_S4 11/21/2017 19:45:00 0.0
2017_11_21_S4 11/21/2017 19:50:00 0.0
2017_11_21_S4 11/21/2017 19:55:00 0.0
2017_11_21_S4 11/21/2017 20:00:00 0.0
2017_11_21_S4 11/21/2017 20:05:00 0.0
2017_11_21_S4 11/21/2017 20:10:00 0.0
2017_11_21_S4 11/21/2017 20:15:00 0.0
2017_11_21_S4 11/21/2017 20:20:00 0.0
2017_11_21_S4 11/21/2017 20:25:00 0.0
2017_11_21_S4 11/21/2017 20:30:00 0.0
2017_11_21_S4 11/21/2017 20:35:00 0.0
2017_11_21_S4 11/21/2017 20:40:00 0.0
2017_11_21_S4 11/21/2017 20:45:00 0.0
2017_11_21_S4 11/21/2017 20:50:00 0.0
2017_11_21_S4 11/21/2017 20:55:00 0.0
2017_11_21_S4 11/21/2017 21:00:00 0.0
2017_11_21_S4 11/21/2017 21:05:00 0.0
2017_11_21_S4 11/21/2017 21:10:00 0.0
2017_11_21_S4 11/21/2017 21:15:00 0.0
2017_11_21_S4 11/21/2017 21:20:00 0.0
2017_11_21_S4 11/21/2017 21:25:00 0.0
2017_11_21_S4 11/21/2017 21:30:00 0.0
2017_11_21_S4 11/21/2017 21:35:00 0.0
2017_11_21_S4 11/21/2017 21:40:00 0.0
2017_11_21_S4 11/21/2017 21:45:00 0.0
2017_11_21_S4 11/21/2017 21:50:00 0.0
2017_11_21_S4 11/21/2017 21:55:00 0.0
2017_11_21_S4 11/21/2017 22:00:00 0.0
2017_11_21_S4 11/21/2017 22:05:00 0.0
2017_11_21_S4 11/21/2017 22:10:00 0.0
2017_11_21_S4 11/21/2017 22:15:00 0.0
2017_11_21_S4 11/21/2017 22:20:00 0.0
2017_11_21_S4 11/21/2017 22:25:00 0.0
2017_11_21_S4 11/21/2017 22:30:00 0.0
2017_11_21_S4 11/21/2017 22:35:00 0.0
2017_11_21_S4 11/21/2017 22:40:00 0.0013
2017_11_21_S4 11/21/2017 22:45:00 0.0
2017_11_21_S4 11/21/2017 22:50:00 0.0
2017_11_21_S4 11/21/2017 22:55:00 0.0
2017_11_21_S4 11/21/2017 23:00:00 0.0
2017_11_21_S4 11/21/2017 23:05:00 0.0
2017_11_21_S4 11/21/2017 23:10:00 0.0
2017_11_21_S4 11/21/2017 23:15:00 0.0016
2017_11_21_S4 11/21/2017 23:20:00 0.0
2017_11_21_S4 11/21/2017 23:25:00 0.0
2017_11_21_S4 11/21/2017 23:30:00 0.0
2017_11_21_S4 11/21/2017 23:35:00 0.0
2017_11_21_S4 11/21/2017 23:40:00 0.0
2017_11_21_S4 11/21/2017 23:45:00 0.0
2017_11_21_S4 11/21/2017 23:50:00 0.0
2017_11_21_S4 11/21/2017 23:55:00 0.0
2017_11_21_S4 11/22/2017 00:00:00 0.0
2017_11_21_S4 11/22/2017 00:05:00 0.0
2017_11_21_S4 11/22/2017 00:10:00 0.0
2017_11_21_S4 11/22/2017 00:15:00 0.0
2017_11_21_S4 11/22/2017 00:20:00 0.0
2017_11_21_S4 11/22/2017 00:25:00 0.0
2017_11_21_S4 11/22/2017 00:30:00 0.0
2017_11_21_S4 11/22/2017 00:35:00 0.0
2017_11_21_S4 11/22/2017 00:40:00 0.0
2017_11_21_S4 11/22/2017 00:45:00 0.0
2017_11_21_S4 11/22/2017 00:50:00 0.0
2017_11_21_S4 11/22/2017 00:55:00 0.0
2017_11_21_S4 11/22/2017 01:00:00 0.0
2017_11_21_S4 11/22/2017 01:05:00 0.0
2017_11_21_S4 11/22/2017 01:10:00 0.0
2017_11_21_S4 11/22/2017 01:15:00 0.0
2017_11_21_S4 11/22/2017 01:20:00 0.0
2017_11_21_S4 11/22/2017 01:25:00 0.0
2017_11_21_S4 11/22/2017 01:30:00 0.0043
2017_11_21_S4 11/22/2017 01:35:00 0.007
2017_11_21_S4 11/22/2017 01:40:00 0.0
2017_11_21_S4 11/22/2017 01:45:00 0.0746
2017_11_21_S4 11/22/2017 01:50:00 0.0
2017_11_21_S4 11/22/2017 01:55:00 0.0
2017_11_21_S4 11/22/2017 02:00:00 0.0002
2017_11_21_S4 11/22/2017 02:05:00 0.0
2017_11_21_S4 11/22/2017 02:10:00 0.0
2017_11_21_S4 11/22/2017 02:15:00 0.0
2017_11_21_S4 11/22/2017 02:20:00 0.0
2017_11_21_S4 11/22/2017 02:25:00 0.0
2017_11_21_S4 11/22/2017 02:30:00 0.0
2017_11_21_S4 11/22/2017 02:35:00 0.0
2017_11_21_S4 11/22/2017 02:40:00 0.0
2017_11_21_S4 11/22/2017 02:45:00 0.0
2017_11_21_S4 11/22/2017 02:50:00 0.0
2017_11_21_S4 11/22/2017 02:55:00 0.0
2017_11_21_S4 11/22/2017 03:00:00 0.0
2017_11_21_S4 11/22/2017 03:05:00 0.0
2017_11_21_S4 11/22/2017 03:10:00 0.0
2017_11_21_S4 11/22/2017 03:15:00 0.0
2017_11_21_S4 11/22/2017 03:20:00 0.0
2017_11_21_S4 11/22/2017 03:25:00 0.0
2017_11_21_S4 11/22/2017 03:30:00 0.0
2017_11_21_S4 11/22/2017 03:35:00 0.0
2017_11_21_S4 11/22/2017 03:40:00 0.0
2017_11_21_S4 11/22/2017 03:45:00 0.0
2017_11_21_S4 11/22/2017 03:50:00 0.0
2017_11_21_S4 11/22/2017 03:55:00 0.0
2017_11_21_S4 11/22/2017 04:00:00 0.0
2017_11_21_S4 11/22/2017 04:05:00 0.0
2017_11_21_S4 11/22/2017 04:10:00 0.0
2017_11_21_S4 11/22/2017 04:15:00 0.0
2017_11_21_S4 11/22/2017 04:20:00 0.0
2017_11_21_S4 11/22/2017 04:25:00 0.0
2017_11_21_S4 11/22/2017 04:30:00 0.0
2017_11_21_S4 11/22/2017 04:35:00 0.0
2017_11_21_S4 11/22/2017 04:40:00 0.0
2017_11_21_S4 11/22/2017 04:45:00 0.0
2017_11_21_S4 11/22/2017 04:50:00 0.0
2017_11_21_S4 11/22/2017 04:55:00 0.0
2017_11_21_S4 11/22/2017 05:00:00 0.0
2017_11_21_S4 11/22/2017 05:05:00 0.0
2017_11_21_S4 11/22/2017 05:10:00 0.0
2017_11_21_S4 11/22/2017 05:15:00 0.0
2017_11_21_S4 11/22/2017 05:20:00 0.0
2017_11_21_S4 11/22/2017 05:25:00 0.0
2017_11_21_S4 11/22/2017 05:30:00 0.0
2017_11_21_S4 11/22/2017 05:35:00 0.0
2017_11_21_S4 11/22/2017 05:40:00 0.0
2017_11_21_S4 11/22/2017 05:45:00 0.0
2017_11_21_S4 11/22/2017 05:50:00 0.0
2017_11_21_S4 11/22/2017 05:55:00 0.0
2017_11_21_S4 11/22/2017 06:00:00 0.0
2017_11_21_S4 11/22/2017 06:05:00 0.0
2017_11_21_S4 11/22/2017 06:10:00 0.0
2017_11_21_S4 11/22/2017 06:15:00 0.0
2017_11_21_S4 11/22/2017 06:20:00 0.0
2017_11_21_S4 11/22/2017 06:25:00 0.0
2017_11_21_S4 11/22/2017 06:30:00 0.0
2017_11_21_S4 11/22/2017 06:35:00 0.0
2017_11_21_S4 11/22/2017 06:40:00 0.0
2017_11_21_S4 11/22/2017 06:45:00 0.0
2017_11_21_S4 11/22/2017 06:50:00 0.0
2017_11_21_S4 11/22/2017 06:55:00 0.0
2017_11_21_S4 11/22/2017 07:00:00 0.0
2017_11_21_S4 11/22/2017 07:05:00 0.0
2017_11_21_S4 11/22/2017 07:10:00 0.0
2017_11_21_S4 11/22/2017 07:15:00 0.0
2017_11_21_S4 11/22/2017 07:20:00 0.0
2017_11_21_S4 11/22/2017 07:25:00 0.0
2017_11_21_S4 11/22/2017 07:30:00 0.0
2017_11_21_S4 11/22/2017 07:35:00 0.0
2017_11_21_S4 11/22/2017 07:40:00 0.0
2017_11_21_S4 11/22/2017 07:45:00 0.0
2017_11_21_S4 11/22/2017 07:50:00 0.0
2017_11_21_S4 11/22/2017 07:55:00 0.0
2017_11_21_S4 11/22/2017 08:00:00 0.0

2017_11_21_S5 11/20/2017 22:55:00 0.0695
2017_11_21_S5 11/20/2017 23:00:00 0.4025
2017_11_21_S5 11/20/2017 23:05:00 0.112
2017_11_21_S5 11/20/2017 23:10:00 0.0
2017_11_21_S5 11/20/2017 23:15:00 0.0
2017_11_21_S5 11/20/2017 23:20:00 0.0
2017_11_21_S5 11/20/2017 23:25:00 0.0
2017_11_21_S5 11/20/2017 23:30:00 0.0
2017_11_21_S5 11/20/2017 23:35:00 0.0
2017_11_21_S5 11/20/2017 23:40:00 0.0
2017_11_21_S5 11/20/2017 23:45:00 0.0
2017_11_21_S5 11/20/2017 23:50:00 0.0
2017_11_21_S5 11/20/2017 23:55:00 0.0
2017_11_21_S5 11/21/2017 00:00:00 0.0
2017_11_21_S5 11/21/2017 00:05:00 0.0
2017_11_21_S5 11/21/2017 00:10:00 0.0
2017_11_21_S5 11/21/2017 00:15:00 0.0
2017_11_21_S5 11/21/2017 00:20:00 0.0
2017_11_21_S5 11/21/2017 00:25:00 0.0
2017_11_21_S5 11/21/2017 00:30:00 0.0
2017_11_21_S5 11/21/2017 00:35:00 0.0
2017_11_21_S5 11/21/2017 00:40:00 0.0
2017_11_21_S5 11/21/2017 00:45:00 0.0
2017_11_21_S5 11/21/2017 00:50:00 0.0014
2017_11_21_S5 11/21/2017 00:55:00 0.0
2017_11_21_S5 11/21/2017 01:00:00 0.0
2017_11_21_S5 11/21/2017 01:05:00 0.0
2017_11_21_S5 11/21/2017 01:10:00 0.0
2017_11_21_S5 11/21/2017 01:15:00 0.0767
2017_11_21_S5 11/21/2017 01:20:00 0.2929
2017_11_21_S5 11/21/2017 01:25:00 0.036
2017_11_21_S5 11/21/2017 01:30:00 0.0551
2017_11_21_S5 11/21/2017 01:35:00 0.0129
2017_11_21_S5 11/21/2017 01:40:00 0.0
2017_11_21_S5 11/21/2017 01:45:00 0.0
2017_11_21_S5 11/21/2017 01:50:00 0.0
2017_11_21_S5 11/21/2017 01:55:00 0.0
2017_11_21_S5 11/21/2017 02:00:00 0.0
2017_11_21_S5 11/21/2017 02:05:00 0.0
2017_11_21_S5 11/21/2017 02:10:00 0.1079
2017_11_21_S5 11/21/2017 02:15:00 0.2672
2017_11_21_S5 11/21/2017 02:20:00 0.0112
2017_11_21_S5 11/21/2017 02:25:00 0.1494
2017_11_21_S5 11/21/2017 02:30:00 0.0
2017_11_21_S5 11/21/2017 02:35:00 0.1863
2017_11_21_S5 11/21/2017 02:40:00 0.0714
2017_11_21_S5 11/21/2017 02:45:00 0.0
2017_11_21_S5 11/21/2017 02:50:00 0.0
2017_11_21_S5 11/21/2017 02:55:00 0.0
2017_11_21_S5 11/21/2017 03:00:00 0.0
2017_11_21_S5 11/21/2017 03:05:00 0.0609
2017_11_21_S5 11/21/2017 03:10:00 0.0654
2017_11_21_S5 11/21/2017 03:15:00 0.0
2017_11_21_S5 11/21/2017 03:20:00 0.0068
2017_11_21_S5 11/21/2017 03:25:00 0.3947
2017_11_21_S5 11/21/2017 03:30:00 0.0384
2017_11_21_S5 11/21/2017 03:35:00 0.4948
2017_11_21_S5 11/21/2017 03:40:00 0.0022
2017_11_21_S5 11/21/2017 03:45:00 0.1595
2017_11_21_S5 11/21/2017 03:50:00 0.0001
2017_11_21_S5 11/21/2017 03:55:00 0.1441
2017_11_21_S5 11/21/2017 04:00:00 0.0685
2017_11_21_S5 11/21/2017 04:05:00 0.0056
2017_11_21_S5 11/21/2017 04:10:00 0.039
2017_11_21_S5 11/21/2017 04:15:00 0.0221
2017_11_21_S5 11/21/2017 04:20:00 0.0042
2017_11_21_S5 11/21/2017 04:25:00 0.0113
2017_11_21_S5 11/21/2017 04:30:00 0.6935
2017_11_21_S5 11/21/2017 04:35:00 0.4206
2017_11_21_S5 11/21/2017 04:40:00 0.05
2017_11_21_S5 11/21/2017 04:45:00 0.0013
2017_11_21_S5 11/21/2017 04:50:00 0.0
2017_11_21_S5 11/21/2017 04:55:00 0.0
2017_11_21_S5 11/21/2017 05:00:00 0.0
2017_11_21_S5 11/21/2017 05:05:00 0.0
2017_11_21_S5 11/21/2017 05:10:00 0.0075
2017_11_21_S5 11/21/2017 05:15:00 1.6819
2017_11_21_S5 11/21/2017 05:20:00 5.5248
2017_11_21_S5 11/21/2017 05:25:00 3.2035
2017_11_21_S5 11/21/2017 05:30:00 1.8346
2017_11_21_S5 11/21/2017 05:35:00 0.0536
2017_11_21_S5 11/21/2017 05:40:00 0.0129
2017_11_21_S5 11/21/2017 05:45:00 0.0
2017_11_21_S5 11/21/2017 05:50:00 0.0
2017_11_21_S5 11/21/2017 05:55:00 0.0056
2017_11_21_S5 11/21/2017 06:00:00 0.0065
2017_11_21_S5 11/21/2017 06:05:00 0.0
2017_11_21_S5 11/21/2017 06:10:00 0.0
2017_11_21_S5 11/21/2017 06:15:00 0.0
2017_11_21_S5 11/21/2017 06:20:00 0.0
2017_11_21_S5 11/21/2017 06:25:00 0.0
2017_11_21_S5 11/21/2017 06:30:00 0.0
2017_11_21_S5 11/21/2017 06:35:00 0.0
2017_11_21_S5 11/21/2017 06:40:00 0.0
2017_11_21_S5 11/21/2017 06:45:00 0.0
2017_11_21_S5 11/21/2017 06:50:00 0.0
2017_11_21_S5 11/21/2017 06:55:00 0.0
2017_11_21_S5 11/21/2017 07:00:00 0.0
2017_11_21_S5 11/21/2017 07:05:00 0.0
2017_11_21_S5 11/21/2017 07:10:00 0.0
2017_11_21_S5 11/21/2017 07:15:00 0.0
2017_11_21_S5 11/21/2017 07:20:00 0.0
2017_11_21_S5 11/21/2017 07:25:00 0.0125
2017_11_21_S5 11/21/2017 07:30:00 0.0053
2017_11_21_S5 11/21/2017 07:35:00 0.0
2017_11_21_S5 11/21/2017 07:40:00 0.0091
2017_11_21_S5 11/21/2017 07:45:00 0.0
2017_11_21_S5 11/21/2017 07:50:00 0.0
2017_11_21_S5 11/21/2017 07:55:00 0.0
2017_11_21_S5 11/21/2017 08:00:00 0.0
2017_11_21_S5 11/21/2017 08:05:00 0.1537
2017_11_21_S5 11/21/2017 08:10:00 0.0062
2017_11_21_S5 11/21/2017 08:15:00 0.0164
2017_11_21_S5 11/21/2017 08:20:00 0.0
2017_11_21_S5 11/21/2017 08:25:00 0.0039
2017_11_21_S5 11/21/2017 08:30:00 0.4321
2017_11_21_S5 11/21/2017 08:35:00 0.8019
2017_11_21_S5 11/21/2017 08:40:00 0.3505
2017_11_21_S5 11/21/2017 08:45:00 0.0874
2017_11_21_S5 11/21/2017 08:50:00 0.0106
2017_11_21_S5 11/21/2017 08:55:00 0.0
2017_11_21_S5 11/21/2017 09:00:00 0.0
2017_11_21_S5 11/21/2017 09:05:00 0.0
2017_11_21_S5 11/21/2017 09:10:00 0.0
2017_11_21_S5 11/21/2017 09:15:00 0.0
2017_11_21_S5 11/21/2017 09:20:00 0.0
2017_11_21_S5 11/21/2017 09:25:00 0.0
2017_11_21_S5 11/21/2017 09:30:00 0.0
2017_11_21_S5 11/21/2017 09:35:00 0.0
2017_11_21_S5 11/21/2017 09:40:00 0.0
2017_11_21_S5 11/21/2017 09:45:00 0.0131
2017_11_21_S5 11/21/2017 09:50:00 0.1747
2017_11_21_S5 11/21/2017 09:55:00 0.4648
2017_11_21_S5 11/21/2017 10:00:00 0.0203
2017_11_21_S5 11/21/2017 10:05:00 0.0056
2017_11_21_S5 11/21/2017 10:10:00 0.0175
2017_11_21_S5 11/21/2017 10:15:00 0.0058
2017_11_21_S5 11/21/2017 10:20:00 0.0
2017_11_21_S5 11/21/2017 10:25:00 0.0
2017_11_21_S5 11/21/2017 10:30:00 0.0014
2017_11_21_S5 11/21/2017 10:35:00 0.0028
2017_11_21_S5 11/21/2017 10:40:00 0.0042
2017_11_21_S5 11/21/2017 10:45:00 0.0064
2017_11_21_S5 11/21/2017 10:50:00 0.0
2017_11_21_S5 11/21/2017 10:55:00 0.0
2017_11_21_S5 11/21/2017 11:00:00 0.0
2017_11_21_S5 11/21/2017 11:05:00 0.0
2017_11_21_S5 11/21/2017 11:10:00 0.0
2017_11_21_S5 11/21/2017 11:15:00 0.0
2017_11_21_S5 11/21/2017 11:20:00 0.0
2017_11_21_S5 11/21/2017 11:25:00 0.0
2017_11_21_S5 11/21/2017 11:30:00 0.0
2017_11_21_S5 11/21/2017 11:35:00 0.0
2017_11_21_S5 11/21/2017 11:40:00 0.0
2017_11_21_S5 11/21/2017 11:45:00 0.0
2017_11_21_S5 11/21/2017 11:50:00 0.0
2017_11_21_S5 11/21/2017 11:55:00 0.0
2017_11_21_S5 11/21/2017 12:00:00 0.0
2017_11_21_S5 11/21/2017 12:05:00 0.0
2017_11_21_S5 11/21/2017 12:10:00 0.0
2017_11_21_S5 11/21/2017 12:15:00 0.0
2017_11_21_S5 11/21/2017 12:20:00 0.0
2017_11_21_S5 11/21/2017 12:25:00 0.0
2017_11_21_S5 11/21/2017 12:30:00 0.0
2017_11_21_S5 11/21/2017 12:35:00 0.0
2017_11_21_S5 11/21/2017 12:40:00 0.0
2017_11_21_S5 11/21/2017 12:45:00 0.0
2017_11_21_S5 11/21/2017 12:50:00 0.0
2017_11_21_S5 11/21/2017 12:55:00 0.0
2017_11_21_S5 11/21/2017 13:00:00 0.0
2017_11_21_S5 11/21/2017 13:05:00 0.0
2017_11_21_S5 11/21/2017 13:10:00 0.0
2017_11_21_S5 11/21/2017 13:15:00 0.0
2017_11_21_S5 11/21/2017 13:20:00 0.0
2017_11_21_S5 11/21/2017 13:25:00 0.0
2017_11_21_S5 11/21/2017 13:30:00 0.0
2017_11_21_S5 11/21/2017 13:35:00 0.0
2017_11_21_S5 11/21/2017 13:40:00 0.0
2017_11_21_S5 11/21/2017 13:45:00 0.0
2017_11_21_S5 11/21/2017 13:50:00 0.0
2017_11_21_S5 11/21/2017 13:55:00 0.0
2017_11_21_S5 11/21/2017 14:00:00 0.0
2017_11_21_S5 11/21/2017 14:05:00 0.0
2017_11_21_S5 11/21/2017 14:10:00 0.0
2017_11_21_S5 11/21/2017 14:15:00 0.0
2017_11_21_S5 11/21/2017 14:20:00 0.0
2017_11_21_S5 11/21/2017 14:25:00 0.0
2017_11_21_S5 11/21/2017 14:30:00 0.0
2017_11_21_S5 11/21/2017 14:35:00 0.0
2017_11_21_S5 11/21/2017 14:40:00 0.0
2017_11_21_S5 11/21/2017 14:45:00 0.0
2017_11_21_S5 11/21/2017 14:50:00 0.0
2017_11_21_S5 11/21/2017 14:55:00 0.0
2017_11_21_S5 11/21/2017 15:00:00 0.0
2017_11_21_S5 11/21/2017 15:05:00 0.0
2017_11_21_S5 11/21/2017 15:10:00 0.0
2017_11_21_S5 11/21/2017 15:15:00 0.0
2017_11_21_S5 11/21/2017 15:20:00 0.0
2017_11_21_S5 11/21/2017 15:25:00 0.0
2017_11_21_S5 11/21/2017 15:30:00 0.0
2017_11_21_S5 11/21/2017 15:35:00 0.0
2017_11_21_S5 11/21/2017 15:40:00 0.0
2017_11_21_S5 11/21/2017 15:45:00 0.0
2017_11_21_S5 11/21/2017 15:50:00 0.0
2017_11_21_S5 11/21/2017 15:55:00 0.0
2017_11_21_S5 11/21/2017 16:00:00 0.0
2017_11_21_S5 11/21/2017 16:05:00 0.0
2017_11_21_S5 11/21/2017 16:10:00 0.0
2017_11_21_S5 11/21/2017 16:15:00 0.0
2017_11_21_S5 11/21/2017 16:20:00 0.0
2017_11_21_S5 11/21/2017 16:25:00 0.0
2017_11_21_S5 11/21/2017 16:30:00 0.0
2017_11_21_S5 11/21/2017 16:35:00 0.0
2017_11_21_S5 11/21/2017 16:40:00 0.0
2017_11_21_S5 11/21/2017 16:45:00 0.0
2017_11_21_S5 11/21/2017 16:50:00 0.0
2017_11_21_S5 11/21/2017 16:55:00 0.0
2017_11_21_S5 11/21/2017 17:00:00 0.0
2017_11_21_S5 11/21/2017 17:05:00 0.0
2017_11_21_S5 11/21/2017 17:10:00 0.0
2017_11_21_S5 11/21/2017 17:15:00 0.0
2017_11_21_S5 11/21/2017 17:20:00 0.0
2017_11_21_S5 11/21/2017 17:25:00 0.0
2017_11_21_S5 11/21/2017 17:30:00 0.0
2017_11_21_S5 11/21/2017 17:35:00 0.0
2017_11_21_S5 11/21/2017 17:40:00 0.0
2017_11_21_S5 11/21/2017 17:45:00 0.0
2017_11_21_S5 11/21/2017 17:50:00 0.0
2017_11_21_S5 11/21/2017 17:55:00 0.0
2017_11_21_S5 11/21/2017 18:00:00 0.0
2017_11_21_S5 11/21/2017 18:05:00 0.0
2017_11_21_S5 11/21/2017 18:10:00 0.0
2017_11_21_S5 11/21/2017 18:15:00 0.0
2017_11_21_S5 11/21/2017 18:20:00 0.0
2017_11_21_S5 11/21/2017 18:25:00 0.0
2017_11_21_S5 11/21/2017 18:30:00 0.0
2017_11_21_S5 11/21/2017 18:35:00 0.0
2017_11_21_S5 11/21/2017 18:40:00 0.0
2017_11_21_S5 11/21/2017 18:45:00 0.0
2017_11_21_S5 11/21/2017 18:50:00 0.0
2017_11_21_S5 11/21/2017 18:55:00 0.0
2017_11_21_S5 11/21/2017 19:00:00 0.0
2017_11_21_S5 11/21/2017 19:05:00 0.0
2017_11_21_S5 11/21/2017 19:10:00 0.0
2017_11_21_S5 11/21/2017 19:15:00 0.0
2017_11_21_S5 11/21/2017 19:20:00 0.0
2017_11_21_S5 11/21/2017 19:25:00 0.0
2017_11_21_S5 11/21/2017 19:30:00 0.0
2017_11_21_S5 11/21/2017 19:35:00 0.0
2017_11_21_S5 11/21/2017 19:40:00 0.0
2017_11_21_S5 11/21/2017 19:45:00 0.0
2017_11_21_S5 11/21/2017 19:50:00 0.0
2017_11_21_S5 11/21/2017 19:55:00 0.0
2017_11_21_S5 11/21/2017 20:00:00 0.0
2017_11_21_S5 11/21/2017 20:05:00 0.0
2017_11_21_S5 11/21/2017 20:10:00 0.0
2017_11_21_S5 11/21/2017 20:15:00 0.0
2017_11_21_S5 11/21/2017 20:20:00 0.0
2017_11_21_S5 11/21/2017 20:25:00 0.0
2017_11_21_S5 11/21/2017 20:30:00 0.0
2017_11_21_S5 11/21/2017 20:35:00 0.0
2017_11_21_S5 11/21/2017 20:40:00 0.0
2017_11_21_S5 11/21/2017 20:45:00 0.0
2017_11_21_S5 11/21/2017 20:50:00 0.0
2017_11_21_S5 11/21/2017 20:55:00 0.0
2017_11_21_S5 11/21/2017 21:00:00 0.0
2017_11_21_S5 11/21/2017 21:05:00 0.0
2017_11_21_S5 11/21/2017 21:10:00 0.0
2017_11_21_S5 11/21/2017 21:15:00 0.0
2017_11_21_S5 11/21/2017 21:20:00 0.0
2017_11_21_S5 11/21/2017 21:25:00 0.0
2017_11_21_S5 11/21/2017 21:30:00 0.0
2017_11_21_S5 11/21/2017 21:35:00 0.0
2017_11_21_S5 11/21/2017 21:40:00 0.0
2017_11_21_S5 11/21/2017 21:45:00 0.0
2017_11_21_S5 11/21/2017 21:50:00 0.0
2017_11_21_S5 11/21/2017 21:55:00 0.0
2017_11_21_S5 11/21/2017 22:00:00 0.0
2017_11_21_S5 11/21/2017 22:05:00 0.0
2017_11_21_S5 11/21/2017 22:10:00 0.0
2017_11_21_S5 11/21/2017 22:15:00 0.0
2017_11_21_S5 11/21/2017 22:20:00 0.0
2017_11_21_S5 11/21/2017 22:25:00 0.0
2017_11_21_S5 11/21/2017 22:30:00 0.0
2017_11_21_S5 11/21/2017 22:35:00 0.0
2017_11_21_S5 11/21/2017 22:40:00 0.0013
2017_11_21_S5 11/21/2017 22:45:00 0.0
2017_11_21_S5 11/21/2017 22:50:00 0.0
2017_11_21_S5 11/21/2017 22:55:00 0.0
2017_11_21_S5 11/21/2017 23:00:00 0.0
2017_11_21_S5 11/21/2017 23:05:00 0.0
2017_11_21_S5 11/21/2017 23:10:00 0.0
2017_11_21_S5 11/21/2017 23:15:00 0.0014
2017_11_21_S5 11/21/2017 23:20:00 0.0
2017_11_21_S5 11/21/2017 23:25:00 0.0
2017_11_21_S5 11/21/2017 23:30:00 0.0
2017_11_21_S5 11/21/2017 23:35:00 0.0
2017_11_21_S5 11/21/2017 23:40:00 0.0
2017_11_21_S5 11/21/2017 23:45:00 0.0
2017_11_21_S5 11/21/2017 23:50:00 0.0
2017_11_21_S5 11/21/2017 23:55:00 0.0
2017_11_21_S5 11/22/2017 00:00:00 0.0
2017_11_21_S5 11/22/2017 00:05:00 0.0
2017_11_21_S5 11/22/2017 00:10:00 0.0
2017_11_21_S5 11/22/2017 00:15:00 0.0
2017_11_21_S5 11/22/2017 00:20:00 0.0
2017_11_21_S5 11/22/2017 00:25:00 0.0
2017_11_21_S5 11/22/2017 00:30:00 0.0
2017_11_21_S5 11/22/2017 00:35:00 0.0
2017_11_21_S5 11/22/2017 00:40:00 0.0
2017_11_21_S5 11/22/2017 00:45:00 0.0
2017_11_21_S5 11/22/2017 00:50:00 0.0
2017_11_21_S5 11/22/2017 00:55:00 0.0
2017_11_21_S5 11/22/2017 01:00:00 0.0
2017_11_21_S5 11/22/2017 01:05:00 0.0
2017_11_21_S5 11/22/2017 01:10:00 0.0
2017_11_21_S5 11/22/2017 01:15:00 0.0
2017_11_21_S5 11/22/2017 01:20:00 0.0
2017_11_21_S5 11/22/2017 01:25:00 0.0001
2017_11_21_S5 11/22/2017 01:30:00 0.0049
2017_11_21_S5 11/22/2017 01:35:00 0.0058
2017_11_21_S5 11/22/2017 01:40:00 0.0
2017_11_21_S5 11/22/2017 01:45:00 0.0539
2017_11_21_S5 11/22/2017 01:50:00 0.0
2017_11_21_S5 11/22/2017 01:55:00 0.0
2017_11_21_S5 11/22/2017 02:00:00 0.0
2017_11_21_S5 11/22/2017 02:05:00 0.0
2017_11_21_S5 11/22/2017 02:10:00 0.0
2017_11_21_S5 11/22/2017 02:15:00 0.0
2017_11_21_S5 11/22/2017 02:20:00 0.0
2017_11_21_S5 11/22/2017 02:25:00 0.0
2017_11_21_S5 11/22/2017 02:30:00 0.0018
2017_11_21_S5 11/22/2017 02:35:00 0.0
2017_11_21_S5 11/22/2017 02:40:00 0.0
2017_11_21_S5 11/22/2017 02:45:00 0.0
2017_11_21_S5 11/22/2017 02:50:00 0.0
2017_11_21_S5 11/22/2017 02:55:00 0.0
2017_11_21_S5 11/22/2017 03:00:00 0.0
2017_11_21_S5 11/22/2017 03:05:00 0.0
2017_11_21_S5 11/22/2017 03:10:00 0.0
2017_11_21_S5 11/22/2017 03:15:00 0.0
2017_11_21_S5 11/22/2017 03:20:00 0.0
2017_11_21_S5 11/22/2017 03:25:00 0.0
2017_11_21_S5 11/22/2017 03:30:00 0.0
2017_11_21_S5 11/22/2017 03:35:00 0.0
2017_11_21_S5 11/22/2017 03:40:00 0.0
2017_11_21_S5 11/22/2017 03:45:00 0.0
2017_11_21_S5 11/22/2017 03:50:00 0.0
2017_11_21_S5 11/22/2017 03:55:00 0.0
2017_11_21_S5 11/22/2017 04:00:00 0.0
2017_11_21_S5 11/22/2017 04:05:00 0.0
2017_11_21_S5 11/22/2017 04:10:00 0.0
2017_11_21_S5 11/22/2017 04:15:00 0.0
2017_11_21_S5 11/22/2017 04:20:00 0.0
2017_11_21_S5 11/22/2017 04:25:00 0.0
2017_11_21_S5 11/22/2017 04:30:00 0.0
2017_11_21_S5 11/22/2017 04:35:00 0.0
2017_11_21_S5 11/22/2017 04:40:00 0.0
2017_11_21_S5 11/22/2017 04:45:00 0.0
2017_11_21_S5 11/22/2017 04:50:00 0.0
2017_11_21_S5 11/22/2017 04:55:00 0.0
2017_11_21_S5 11/22/2017 05:00:00 0.0
2017_11_21_S5 11/22/2017 05:05:00 0.0
2017_11_21_S5 11/22/2017 05:10:00 0.0
2017_11_21_S5 11/22/2017 05:15:00 0.0
2017_11_21_S5 11/22/2017 05:20:00 0.0
2017_11_21_S5 11/22/2017 05:25:00 0.0
2017_11_21_S5 11/22/2017 05:30:00 0.0
2017_11_21_S5 11/22/2017 05:35:00 0.0
2017_11_21_S5 11/22/2017 05:40:00 0.0
2017_11_21_S5 11/22/2017 05:45:00 0.0
2017_11_21_S5 11/22/2017 05:50:00 0.0
2017_11_21_S5 11/22/2017 05:55:00 0.0
2017_11_21_S5 11/22/2017 06:00:00 0.0
2017_11_21_S5 11/22/2017 06:05:00 0.0
2017_11_21_S5 11/22/2017 06:10:00 0.0
2017_11_21_S5 11/22/2017 06:15:00 0.0
2017_11_21_S5 11/22/2017 06:20:00 0.0
2017_11_21_S5 11/22/2017 06:25:00 0.0
2017_11_21_S5 11/22/2017 06:30:00 0.0
2017_11_21_S5 11/22/2017 06:35:00 0.0
2017_11_21_S5 11/22/2017 06:40:00 0.0
2017_11_21_S5 11/22/2017 06:45:00 0.0
2017_11_21_S5 11/22/2017 06:50:00 0.0
2017_11_21_S5 11/22/2017 06:55:00 0.0
2017_11_21_S5 11/22/2017 07:00:00 0.0
2017_11_21_S5 11/22/2017 07:05:00 0.0
2017_11_21_S5 11/22/2017 07:10:00 0.0
2017_11_21_S5 11/22/2017 07:15:00 0.0
2017_11_21_S5 11/22/2017 07:20:00 0.0
2017_11_21_S5 11/22/2017 07:25:00 0.0
2017_11_21_S5 11/22/2017 07:30:00 0.0
2017_11_21_S5 11/22/2017 07:35:00 0.0
2017_11_21_S5 11/22/2017 07:40:00 0.0
2017_11_21_S5 11/22/2017 07:45:00 0.0
2017_11_21_S5 11/22/2017 07:50:00 0.0
2017_11_21_S5 11/22/2017 07:55:00 0.0
2017_11_21_S5 11/22/2017 08:00:00 0.0

2017_11_21_S6 11/20/2017 22:55:00 0.2575
2017_11_21_S6 11/20/2017 23:00:00 0.3038
2017_11_21_S6 11/20/2017 23:05:00 0.1306
2017_11_21_S6 11/20/2017 23:10:00 0.0
2017_11_21_S6 11/20/2017 23:15:00 0.0
2017_11_21_S6 11/20/2017 23:20:00 0.0
2017_11_21_S6 11/20/2017 23:25:00 0.0
2017_11_21_S6 11/20/2017 23:30:00 0.0
2017_11_21_S6 11/20/2017 23:35:00 0.0
2017_11_21_S6 11/20/2017 23:40:00 0.0
2017_11_21_S6 11/20/2017 23:45:00 0.0
2017_11_21_S6 11/20/2017 23:50:00 0.0
2017_11_21_S6 11/20/2017 23:55:00 0.0
2017_11_21_S6 11/21/2017 00:00:00 0.0
2017_11_21_S6 11/21/2017 00:05:00 0.0
2017_11_21_S6 11/21/2017 00:10:00 0.0
2017_11_21_S6 11/21/2017 00:15:00 0.0
2017_11_21_S6 11/21/2017 00:20:00 0.0
2017_11_21_S6 11/21/2017 00:25:00 0.0
2017_11_21_S6 11/21/2017 00:30:00 0.0
2017_11_21_S6 11/21/2017 00:35:00 0.0
2017_11_21_S6 11/21/2017 00:40:00 0.0
2017_11_21_S6 11/21/2017 00:45:00 0.0
2017_11_21_S6 11/21/2017 00:50:00 0.0015
2017_11_21_S6 11/21/2017 00:55:00 0.0
2017_11_21_S6 11/21/2017 01:00:00 0.0
2017_11_21_S6 11/21/2017 01:05:00 0.0
2017_11_21_S6 11/21/2017 01:10:00 0.0
2017_11_21_S6 11/21/2017 01:15:00 0.3508
2017_11_21_S6 11/21/2017 01:20:00 0.2128
2017_11_21_S6 11/21/2017 01:25:00 0.0514
2017_11_21_S6 11/21/2017 01:30:00 0.0255
2017_11_21_S6 11/21/2017 01:35:00 0.0097
2017_11_21_S6 11/21/2017 01:40:00 0.0
2017_11_21_S6 11/21/2017 01:45:00 0.0
2017_11_21_S6 11/21/2017 01:50:00 0.0
2017_11_21_S6 11/21/2017 01:55:00 0.0
2017_11_21_S6 11/21/2017 02:00:00 0.0
2017_11_21_S6 11/21/2017 02:05:00 0.0
2017_11_21_S6 11/21/2017 02:10:00 0.0304
2017_11_21_S6 11/21/2017 02:15:00 0.1351
2017_11_21_S6 11/21/2017 02:20:00 0.0097
2017_11_21_S6 11/21/2017 02:25:00 0.144
2017_11_21_S6 11/21/2017 02:30:00 0.0028
2017_11_21_S6 11/21/2017 02:35:00 0.1977
2017_11_21_S6 11/21/2017 02:40:00 0.0927
2017_11_21_S6 11/21/2017 02:45:00 0.0
2017_11_21_S6 11/21/2017 02:50:00 0.0
2017_11_21_S6 11/21/2017 02:55:00 0.0
2017_11_21_S6 11/21/2017 03:00:00 0.0
2017_11_21_S6 11/21/2017 03:05:00 0.3454
2017_11_21_S6 11/21/2017 03:10:00 0.0003
2017_11_21_S6 11/21/2017 03:15:00 0.0
2017_11_21_S6 11/21/2017 03:20:00 0.0335
2017_11_21_S6 11/21/2017 03:25:00 0.3595
2017_11_21_S6 11/21/2017 03:30:00 0.0801
2017_11_21_S6 11/21/2017 03:35:00 0.2125
2017_11_21_S6 11/21/2017 03:40:00 0.0
2017_11_21_S6 11/21/2017 03:45:00 0.215
2017_11_21_S6 11/21/2017 03:50:00 0.014
2017_11_21_S6 11/21/2017 03:55:00 0.1805
2017_11_21_S6 11/21/2017 04:00:00 0.0395
2017_11_21_S6 11/21/2017 04:05:00 0.0054
2017_11_21_S6 11/21/2017 04:10:00 0.0936
2017_11_21_S6 11/21/2017 04:15:00 0.0159
2017_11_21_S6 11/21/2017 04:20:00 0.0064
2017_11_21_S6 11/21/2017 04:25:00 0.0361
2017_11_21_S6 11/21/2017 04:30:00 0.6251
2017_11_21_S6 11/21/2017 04:35:00 0.2674
2017_11_21_S6 11/21/2017 04:40:00 0.0516
2017_11_21_S6 11/21/2017 04:45:00 0.0
2017_11_21_S6 11/21/2017 04:50:00 0.0
2017_11_21_S6 11/21/2017 04:55:00 0.0
2017_11_21_S6 11/21/2017 05:00:00 0.0
2017_11_21_S6 11/21/2017 05:05:00 0.0
2017_11_21_S6 11/21/2017 05:10:00 0.0212
2017_11_21_S6 11/21/2017 05:15:00 1.7179
2017_11_21_S6 11/21/2017 05:20:00 4.2628
2017_11_21_S6 11/21/2017 05:25:00 4.8658
2017_11_21_S6 11/21/2017 05:30:00 1.8255
2017_11_21_S6 11/21/2017 05:35:00 0.0423
2017_11_21_S6 11/21/2017 05:40:00 0.0108
2017_11_21_S6 11/21/2017 05:45:00 0.0
2017_11_21_S6 11/21/2017 05:50:00 0.0
2017_11_21_S6 11/21/2017 05:55:00 0.0029
2017_11_21_S6 11/21/2017 06:00:00 0.0044
2017_11_21_S6 11/21/2017 06:05:00 0.0
2017_11_21_S6 11/21/2017 06:10:00 0.0
2017_11_21_S6 11/21/2017 06:15:00 0.0
2017_11_21_S6 11/21/2017 06:20:00 0.0
2017_11_21_S6 11/21/2017 06:25:00 0.0
2017_11_21_S6 11/21/2017 06:30:00 0.0
2017_11_21_S6 11/21/2017 06:35:00 0.0
2017_11_21_S6 11/21/2017 06:40:00 0.0
2017_11_21_S6 11/21/2017 06:45:00 0.0
2017_11_21_S6 11/21/2017 06:50:00 0.0
2017_11_21_S6 11/21/2017 06:55:00 0.0
2017_11_21_S6 11/21/2017 07:00:00 0.0
2017_11_21_S6 11/21/2017 07:05:00 0.0
2017_11_21_S6 11/21/2017 07:10:00 0.0
2017_11_21_S6 11/21/2017 07:15:00 0.0
2017_11_21_S6 11/21/2017 07:20:00 0.0
2017_11_21_S6 11/21/2017 07:25:00 0.0042
2017_11_21_S6 11/21/2017 07:30:00 0.004
2017_11_21_S6 11/21/2017 07:35:00 0.0
2017_11_21_S6 11/21/2017 07:40:00 0.0116
2017_11_21_S6 11/21/2017 07:45:00 0.0
2017_11_21_S6 11/21/2017 07:50:00 0.0
2017_11_21_S6 11/21/2017 07:55:00 0.0
2017_11_21_S6 11/21/2017 08:00:00 0.0022
2017_11_21_S6 11/21/2017 08:05:00 0.2191
2017_11_21_S6 11/21/2017 08:10:00 0.0324
2017_11_21_S6 11/21/2017 08:15:00 0.0136
2017_11_21_S6 11/21/2017 08:20:00 0.0
2017_11_21_S6 11/21/2017 08:25:00 0.0017
2017_11_21_S6 11/21/2017 08:30:00 1.2116
2017_11_21_S6 11/21/2017 08:35:00 0.6432
2017_11_21_S6 11/21/2017 08:40:00 0.3476
2017_11_21_S6 11/21/2017 08:45:00 0.0777
2017_11_21_S6 11/21/2017 08:50:00 0.0031
2017_11_21_S6 11/21/2017 08:55:00 0.0
2017_11_21_S6 11/21/2017 09:00:00 0.0
2017_11_21_S6 11/21/2017 09:05:00 0.0
2017_11_21_S6 11/21/2017 09:10:00 0.0
2017_11_21_S6 11/21/2017 09:15:00 0.0
2017_11_21_S6 11/21/2017 09:20:00 0.0
2017_11_21_S6 11/21/2017 09:25:00 0.0
2017_11_21_S6 11/21/2017 09:30:00 0.0
2017_11_21_S6 11/21/2017 09:35:00 0.0
2017_11_21_S6 11/21/2017 09:40:00 0.0
2017_11_21_S6 11/21/2017 09:45:00 0.0236
2017_11_21_S6 11/21/2017 09:50:00 0.2506
2017_11_21_S6 11/21/2017 09:55:00 0.1578
2017_11_21_S6 11/21/2017 10:00:00 0.0131
2017_11_21_S6 11/21/2017 10:05:00 0.0002
2017_11_21_S6 11/21/2017 10:10:00 0.0722
2017_11_21_S6 11/21/2017 10:15:00 0.0041
2017_11_21_S6 11/21/2017 10:20:00 0.0
2017_11_21_S6 11/21/2017 10:25:00 0.0
2017_11_21_S6 11/21/2017 10:30:00 0.0005
2017_11_21_S6 11/21/2017 10:35:00 0.0009
2017_11_21_S6 11/21/2017 10:40:00 0.0014
2017_11_21_S6 11/21/2017 10:45:00 0.0028
2017_11_21_S6 11/21/2017 10:50:00 0.0
2017_11_21_S6 11/21/2017 10:55:00 0.0
2017_11_21_S6 11/21/2017 11:00:00 0.0
2017_11_21_S6 11/21/2017 11:05:00 0.0
2017_11_21_S6 11/21/2017 11:10:00 0.0
2017_11_21_S6 11/21/2017 11:15:00 0.0
2017_11_21_S6 11/21/2017 11:20:00 0.0
2017_11_21_S6 11/21/2017 11:25:00 0.0
2017_11_21_S6 11/21/2017 11:30:00 0.0
2017_11_21_S6 11/21/2017 11:35:00 0.0
2017_11_21_S6 11/21/2017 11:40:00 0.0
2017_11_21_S6 11/21/2017 11:45:00 0.0
2017_11_21_S6 11/21/2017 11:50:00 0.0
2017_11_21_S6 11/21/2017 11:55:00 0.0
2017_11_21_S6 11/21/2017 12:00:00 0.0
2017_11_21_S6 11/21/2017 12:05:00 0.0
2017_11_21_S6 11/21/2017 12:10:00 0.0
2017_11_21_S6 11/21/2017 12:15:00 0.0
2017_11_21_S6 11/21/2017 12:20:00 0.0
2017_11_21_S6 11/21/2017 12:25:00 0.0
2017_11_21_S6 11/21/2017 12:30:00 0.0
2017_11_21_S6 11/21/2017 12:35:00 0.0
2017_11_21_S6 11/21/2017 12:40:00 0.0
2017_11_21_S6 11/21/2017 12:45:00 0.0
2017_11_21_S6 11/21/2017 12:50:00 0.0
2017_11_21_S6 11/21/2017 12:55:00 0.0
2017_11_21_S6 11/21/2017 13:00:00 0.0
2017_11_21_S6 11/21/2017 13:05:00 0.0
2017_11_21_S6 11/21/2017 13:10:00 0.0
2017_11_21_S6 11/21/2017 13:15:00 0.0
2017_11_21_S6 11/21/2017 13:20:00 0.0
2017_11_21_S6 11/21/2017 13:25:00 0.0
2017_11_21_S6 11/21/2017 13:30:00 0.0
2017_11_21_S6 11/21/2017 13:35:00 0.0
2017_11_21_S6 11/21/2017 13:40:00 0.0
2017_11_21_S6 11/21/2017 13:45:00 0.0
2017_11_21_S6 11/21/2017 13:50:00 0.0
2017_11_21_S6 11/21/2017 13:55:00 0.0
2017_11_21_S6 11/21/2017 14:00:00 0.0
2017_11_21_S6 11/21/2017 14:05:00 0.0
2017_11_21_S6 11/21/2017 14:10:00 0.0
2017_11_21_S6 11/21/2017 14:15:00 0.0
2017_11_21_S6 11/21/2017 14:20:00 0.0
2017_11_21_S6 11/21/2017 14:25:00 0.0
2017_11_21_S6 11/21/2017 14:30:00 0.0
2017_11_21_S6 11/21/2017 14:35:00 0.0
2017_11_21_S6 11/21/2017 14:40:00 0.0
2017_11_21_S6 11/21/2017 14:45:00 0.0
2017_11_21_S6 11/21/2017 14:50:00 0.0
2017_11_21_S6 11/21/2017 14:55:00 0.0
2017_11_21_S6 11/21/2017 15:00:00 0.0
2017_11_21_S6 11/21/2017 15:05:00 0.0
2017_11_21_S6 11/21/2017 15:10:00 0.0
2017_11_21_S6 11/21/2017 15:15:00 0.0
2017_11_21_S6 11/21/2017 15:20:00 0.0
2017_11_21_S6 11/21/2017 15:25:00 0.0
2017_11_21_S6 11/21/2017 15:30:00 0.0
2017_11_21_S6 11/21/2017 15:35:00 0.0
2017_11_21_S6 11/21/2017 15:40:00 0.0
2017_11_21_S6 11/21/2017 15:45:00 0.0
2017_11_21_S6 11/21/2017 15:50:00 0.0
2017_11_21_S6 11/21/2017 15:55:00 0.0
2017_11_21_S6 11/21/2017 16:00:00 0.0
2017_11_21_S6 11/21/2017 16:05:00 0.0
2017_11_21_S6 11/21/2017 16:10:00 0.0
2017_11_21_S6 11/21/2017 16:15:00 0.0
2017_11_21_S6 11/21/2017 16:20:00 0.0
2017_11_21_S6 11/21/2017 16:25:00 0.0
2017_11_21_S6 11/21/2017 16:30:00 0.0
2017_11_21_S6 11/21/2017 16:35:00 0.0
2017_11_21_S6 11/21/2017 16:40:00 0.0
2017_11_21_S6 11/21/2017 16:45:00 0.0
2017_11_21_S6 11/21/2017 16:50:00 0.0
2017_11_21_S6 11/21/2017 16:55:00 0.0
2017_11_21_S6 11/21/2017 17:00:00 0.0
2017_11_21_S6 11/21/2017 17:05:00 0.0
2017_11_21_S6 11/21/2017 17:10:00 0.0
2017_11_21_S6 11/21/2017 17:15:00 0.0
2017_11_21_S6 11/21/2017 17:20:00 0.0
2017_11_21_S6 11/21/2017 17:25:00 0.0
2017_11_21_S6 11/21/2017 17:30:00 0.0
2017_11_21_S6 11/21/2017 17:35:00 0.0
2017_11_21_S6 11/21/2017 17:40:00 0.0
2017_11_21_S6 11/21/2017 17:45:00 0.0
2017_11_21_S6 11/21/2017 17:50:00 0.0
2017_11_21_S6 11/21/2017 17:55:00 0.0
2017_11_21_S6 11/21/2017 18:00:00 0.0
2017_11_21_S6 11/21/2017 18:05:00 0.0
2017_11_21_S6 11/21/2017 18:10:00 0.0
2017_11_21_S6 11/21/2017 18:15:00 0.0
2017_11_21_S6 11/21/2017 18:20:00 0.0
2017_11_21_S6 11/21/2017 18:25:00 0.0
2017_11_21_S6 11/21/2017 18:30:00 0.0
2017_11_21_S6 11/21/2017 18:35:00 0.0
2017_11_21_S6 11/21/2017 18:40:00 0.0
2017_11_21_S6 11/21/2017 18:45:00 0.0
2017_11_21_S6 11/21/2017 18:50:00 0.0
2017_11_21_S6 11/21/2017 18:55:00 0.0
2017_11_21_S6 11/21/2017 19:00:00 0.0
2017_11_21_S6 11/21/2017 19:05:00 0.0
2017_11_21_S6 11/21/2017 19:10:00 0.0
2017_11_21_S6 11/21/2017 19:15:00 0.0
2017_11_21_S6 11/21/2017 19:20:00 0.0
2017_11_21_S6 11/21/2017 19:25:00 0.0
2017_11_21_S6 11/21/2017 19:30:00 0.0
2017_11_21_S6 11/21/2017 19:35:00 0.0
2017_11_21_S6 11/21/2017 19:40:00 0.0
2017_11_21_S6 11/21/2017 19:45:00 0.0
2017_11_21_S6 11/21/2017 19:50:00 0.0
2017_11_21_S6 11/21/2017 19:55:00 0.0
2017_11_21_S6 11/21/2017 20:00:00 0.0
2017_11_21_S6 11/21/2017 20:05:00 0.0
2017_11_21_S6 11/21/2017 20:10:00 0.0
2017_11_21_S6 11/21/2017 20:15:00 0.0
2017_11_21_S6 11/21/2017 20:20:00 0.0
2017_11_21_S6 11/21/2017 20:25:00 0.0
2017_11_21_S6 11/21/2017 20:30:00 0.0
2017_11_21_S6 11/21/2017 20:35:00 0.0
2017_11_21_S6 11/21/2017 20:40:00 0.0
2017_11_21_S6 11/21/2017 20:45:00 0.0
2017_11_21_S6 11/21/2017 20:50:00 0.0
2017_11_21_S6 11/21/2017 20:55:00 0.0
2017_11_21_S6 11/21/2017 21:00:00 0.0
2017_11_21_S6 11/21/2017 21:05:00 0.0
2017_11_21_S6 11/21/2017 21:10:00 0.0
2017_11_21_S6 11/21/2017 21:15:00 0.0
2017_11_21_S6 11/21/2017 21:20:00 0.0
2017_11_21_S6 11/21/2017 21:25:00 0.0
2017_11_21_S6 11/21/2017 21:30:00 0.0
2017_11_21_S6 11/21/2017 21:35:00 0.0
2017_11_21_S6 11/21/2017 21:40:00 0.0
2017_11_21_S6 11/21/2017 21:45:00 0.0013
2017_11_21_S6 11/21/2017 21:50:00 0.0
2017_11_21_S6 11/21/2017 21:55:00 0.0
2017_11_21_S6 11/21/2017 22:00:00 0.0
2017_11_21_S6 11/21/2017 22:05:00 0.0
2017_11_21_S6 11/21/2017 22:10:00 0.0
2017_11_21_S6 11/21/2017 22:15:00 0.0
2017_11_21_S6 11/21/2017 22:20:00 0.0
2017_11_21_S6 11/21/2017 22:25:00 0.0
2017_11_21_S6 11/21/2017 22:30:00 0.0
2017_11_21_S6 11/21/2017 22:35:00 0.0
2017_11_21_S6 11/21/2017 22:40:00 0.0002
2017_11_21_S6 11/21/2017 22:45:00 0.0
2017_11_21_S6 11/21/2017 22:50:00 0.0
2017_11_21_S6 11/21/2017 22:55:00 0.0
2017_11_21_S6 11/21/2017 23:00:00 0.0
2017_11_21_S6 11/21/2017 23:05:00 0.0
2017_11_21_S6 11/21/2017 23:10:00 0.0007
2017_11_21_S6 11/21/2017 23:15:00 0.0
2017_11_21_S6 11/21/2017 23:20:00 0.0
2017_11_21_S6 11/21/2017 23:25:00 0.0
2017_11_21_S6 11/21/2017 23:30:00 0.0
2017_11_21_S6 11/21/2017 23:35:00 0.0
2017_11_21_S6 11/21/2017 23:40:00 0.0
2017_11_21_S6 11/21/2017 23:45:00 0.0
2017_11_21_S6 11/21/2017 23:50:00 0.0
2017_11_21_S6 11/21/2017 23:55:00 0.0
2017_11_21_S6 11/22/2017 00:00:00 0.0
2017_11_21_S6 11/22/2017 00:05:00 0.0
2017_11_21_S6 11/22/2017 00:10:00 0.0
2017_11_21_S6 11/22/2017 00:15:00 0.0
2017_11_21_S6 11/22/2017 00:20:00 0.0
2017_11_21_S6 11/22/2017 00:25:00 0.0
2017_11_21_S6 11/22/2017 00:30:00 0.0
2017_11_21_S6 11/22/2017 00:35:00 0.0
2017_11_21_S6 11/22/2017 00:40:00 0.0
2017_11_21_S6 11/22/2017 00:45:00 0.0
2017_11_21_S6 11/22/2017 00:50:00 0.0
2017_11_21_S6 11/22/2017 00:55:00 0.0
2017_11_21_S6 11/22/2017 01:00:00 0.0
2017_11_21_S6 11/22/2017 01:05:00 0.0
2017_11_21_S6 11/22/2017 01:10:00 0.0
2017_11_21_S6 11/22/2017 01:15:00 0.0014
2017_11_21_S6 11/22/2017 01:20:00 0.0
2017_11_21_S6 11/22/2017 01:25:00 0.0002
2017_11_21_S6 11/22/2017 01:30:00 0.004
2017_11_21_S6 11/22/2017 01:35:00 0.0051
2017_11_21_S6 11/22/2017 01:40:00 0.0
2017_11_21_S6 11/22/2017 01:45:00 0.0747
2017_11_21_S6 11/22/2017 01:50:00 0.0
2017_11_21_S6 11/22/2017 01:55:00 0.0
2017_11_21_S6 11/22/2017 02:00:00 0.0
2017_11_21_S6 11/22/2017 02:05:00 0.0
2017_11_21_S6 11/22/2017 02:10:00 0.0
2017_11_21_S6 11/22/2017 02:15:00 0.0014
2017_11_21_S6 11/22/2017 02:20:00 0.0
2017_11_21_S6 11/22/2017 02:25:00 0.0038
2017_11_21_S6 11/22/2017 02:30:00 0.0035
2017_11_21_S6 11/22/2017 02:35:00 0.0
2017_11_21_S6 11/22/2017 02:40:00 0.0
2017_11_21_S6 11/22/2017 02:45:00 0.0
2017_11_21_S6 11/22/2017 02:50:00 0.0
2017_11_21_S6 11/22/2017 02:55:00 0.0
2017_11_21_S6 11/22/2017 03:00:00 0.0
2017_11_21_S6 11/22/2017 03:05:00 0.0
2017_11_21_S6 11/22/2017 03:10:00 0.0
2017_11_21_S6 11/22/2017 03:15:00 0.0
2017_11_21_S6 11/22/2017 03:20:00 0.0
2017_11_21_S6 11/22/2017 03:25:00 0.0
2017_11_21_S6 11/22/2017 03:30:00 0.0
2017_11_21_S6 11/22/2017 03:35:00 0.0
2017_11_21_S6 11/22/2017 03:40:00 0.0
2017_11_21_S6 11/22/2017 03:45:00 0.0
2017_11_21_S6 11/22/2017 03:50:00 0.0
2017_11_21_S6 11/22/2017 03:55:00 0.0
2017_11_21_S6 11/22/2017 04:00:00 0.0
2017_11_21_S6 11/22/2017 04:05:00 0.0
2017_11_21_S6 11/22/2017 04:10:00 0.0
2017_11_21_S6 11/22/2017 04:15:00 0.0
2017_11_21_S6 11/22/2017 04:20:00 0.0
2017_11_21_S6 11/22/2017 04:25:00 0.0
2017_11_21_S6 11/22/2017 04:30:00 0.0
2017_11_21_S6 11/22/2017 04:35:00 0.0
2017_11_21_S6 11/22/2017 04:40:00 0.0
2017_11_21_S6 11/22/2017 04:45:00 0.0
2017_11_21_S6 11/22/2017 04:50:00 0.0
2017_11_21_S6 11/22/2017 04:55:00 0.0
2017_11_21_S6 11/22/2017 05:00:00 0.0
2017_11_21_S6 11/22/2017 05:05:00 0.0
2017_11_21_S6 11/22/2017 05:10:00 0.0
2017_11_21_S6 11/22/2017 05:15:00 0.0
2017_11_21_S6 11/22/2017 05:20:00 0.0
2017_11_21_S6 11/22/2017 05:25:00 0.0
2017_11_21_S6 11/22/2017 05:30:00 0.0
2017_11_21_S6 11/22/2017 05:35:00 0.0
2017_11_21_S6 11/22/2017 05:40:00 0.0
2017_11_21_S6 11/22/2017 05:45:00 0.0
2017_11_21_S6 11/22/2017 05:50:00 0.0
2017_11_21_S6 11/22/2017 05:55:00 0.0
2017_11_21_S6 11/22/2017 06:00:00 0.0
2017_11_21_S6 11/22/2017 06:05:00 0.0
2017_11_21_S6 11/22/2017 06:10:00 0.0
2017_11_21_S6 11/22/2017 06:15:00 0.0
2017_11_21_S6 11/22/2017 06:20:00 0.0
2017_11_21_S6 11/22/2017 06:25:00 0.0
2017_11_21_S6 11/22/2017 06:30:00 0.0
2017_11_21_S6 11/22/2017 06:35:00 0.0
2017_11_21_S6 11/22/2017 06:40:00 0.0
2017_11_21_S6 11/22/2017 06:45:00 0.0
2017_11_21_S6 11/22/2017 06:50:00 0.0
2017_11_21_S6 11/22/2017 06:55:00 0.0
2017_11_21_S6 11/22/2017 07:00:00 0.0
2017_11_21_S6 11/22/2017 07:05:00 0.0
2017_11_21_S6 11/22/2017 07:10:00 0.0
2017_11_21_S6 11/22/2017 07:15:00 0.0
2017_11_21_S6 11/22/2017 07:20:00 0.0
2017_11_21_S6 11/22/2017 07:25:00 0.0
2017_11_21_S6 11/22/2017 07:30:00 0.0
2017_11_21_S6 11/22/2017 07:35:00 0.0
2017_11_21_S6 11/22/2017 07:40:00 0.0
2017_11_21_S6 11/22/2017 07:45:00 0.0
2017_11_21_S6 11/22/2017 07:50:00 0.0
2017_11_21_S6 11/22/2017 07:55:00 0.0
2017_11_21_S6 11/22/2017 08:00:00 0.0

2017_11_21_S7 11/20/2017 22:55:00 0.0334
2017_11_21_S7 11/20/2017 23:00:00 0.1219
2017_11_21_S7 11/20/2017 23:05:00 0.0835
2017_11_21_S7 11/20/2017 23:10:00 0.0
2017_11_21_S7 11/20/2017 23:15:00 0.0
2017_11_21_S7 11/20/2017 23:20:00 0.0
2017_11_21_S7 11/20/2017 23:25:00 0.0
2017_11_21_S7 11/20/2017 23:30:00 0.0
2017_11_21_S7 11/20/2017 23:35:00 0.0
2017_11_21_S7 11/20/2017 23:40:00 0.0
2017_11_21_S7 11/20/2017 23:45:00 0.0
2017_11_21_S7 11/20/2017 23:50:00 0.0
2017_11_21_S7 11/20/2017 23:55:00 0.0
2017_11_21_S7 11/21/2017 00:00:00 0.0
2017_11_21_S7 11/21/2017 00:05:00 0.0
2017_11_21_S7 11/21/2017 00:10:00 0.0
2017_11_21_S7 11/21/2017 00:15:00 0.0
2017_11_21_S7 11/21/2017 00:20:00 0.0
2017_11_21_S7 11/21/2017 00:25:00 0.0
2017_11_21_S7 11/21/2017 00:30:00 0.0
2017_11_21_S7 11/21/2017 00:35:00 0.0
2017_11_21_S7 11/21/2017 00:40:00 0.0
2017_11_21_S7 11/21/2017 00:45:00 0.0
2017_11_21_S7 11/21/2017 00:50:00 0.0105
2017_11_21_S7 11/21/2017 00:55:00 0.0
2017_11_21_S7 11/21/2017 01:00:00 0.0
2017_11_21_S7 11/21/2017 01:05:00 0.0
2017_11_21_S7 11/21/2017 01:10:00 0.0
2017_11_21_S7 11/21/2017 01:15:00 0.2912
2017_11_21_S7 11/21/2017 01:20:00 0.237
2017_11_21_S7 11/21/2017 01:25:00 0.1279
2017_11_21_S7 11/21/2017 01:30:00 0.0168
2017_11_21_S7 11/21/2017 01:35:00 0.013
2017_11_21_S7 11/21/2017 01:40:00 0.0
2017_11_21_S7 11/21/2017 01:45:00 0.0
2017_11_21_S7 11/21/2017 01:50:00 0.0
2017_11_21_S7 11/21/2017 01:55:00 0.0
2017_11_21_S7 11/21/2017 02:00:00 0.0
2017_11_21_S7 11/21/2017 02:05:00 0.0055
2017_11_21_S7 11/21/2017 02:10:00 0.0125
2017_11_21_S7 11/21/2017 02:15:00 0.2313
2017_11_21_S7 11/21/2017 02:20:00 0.0274
2017_11_21_S7 11/21/2017 02:25:00 0.2464
2017_11_21_S7 11/21/2017 02:30:00 0.0028
2017_11_21_S7 11/21/2017 02:35:00 0.1382
2017_11_21_S7 11/21/2017 02:40:00 0.0743
2017_11_21_S7 11/21/2017 02:45:00 0.0
2017_11_21_S7 11/21/2017 02:50:00 0.0
2017_11_21_S7 11/21/2017 02:55:00 0.0
2017_11_21_S7 11/21/2017 03:00:00 0.0
2017_11_21_S7 11/21/2017 03:05:00 0.1673
2017_11_21_S7 11/21/2017 03:10:00 0.0
2017_11_21_S7 11/21/2017 03:15:00 0.0
2017_11_21_S7 11/21/2017 03:20:00 0.0076
2017_11_21_S7 11/21/2017 03:25:00 0.2695
2017_11_21_S7 11/21/2017 03:30:00 0.0054
2017_11_21_S7 11/21/2017 03:35:00 0.0888
2017_11_21_S7 11/21/2017 03:40:00 0.0
2017_11_21_S7 11/21/2017 03:45:00 0.4084
2017_11_21_S7 11/21/2017 03:50:00 0.0175
2017_11_21_S7 11/21/2017 03:55:00 0.1473
2017_11_21_S7 11/21/2017 04:00:00 0.0355
2017_11_21_S7 11/21/2017 04:05:00 0.0037
2017_11_21_S7 11/21/2017 04:10:00 0.083
2017_11_21_S7 11/21/2017 04:15:00 0.0047
2017_11_21_S7 11/21/2017 04:20:00 0.0102
2017_11_21_S7 11/21/2017 04:25:00 0.02
2017_11_21_S7 11/21/2017 04:30:00 1.517
2017_11_21_S7 11/21/2017 04:35:00 0.3441
2017_11_21_S7 11/21/2017 04:40:00 0.0531
2017_11_21_S7 11/21/2017 04:45:00 0.0
2017_11_21_S7 11/21/2017 04:50:00 0.0
2017_11_21_S7 11/21/2017 04:55:00 0.0
2017_11_21_S7 11/21/2017 05:00:00 0.0
2017_11_21_S7 11/21/2017 05:05:00 0.0
2017_11_21_S7 11/21/2017 05:10:00 0.0231
2017_11_21_S7 11/21/2017 05:15:00 1.2487
2017_11_21_S7 11/21/2017 05:20:00 3.5154
2017_11_21_S7 11/21/2017 05:25:00 4.3829
2017_11_21_S7 11/21/2017 05:30:00 2.6251
2017_11_21_S7 11/21/2017 05:35:00 0.0425
2017_11_21_S7 11/21/2017 05:40:00 0.0108
2017_11_21_S7 11/21/2017 05:45:00 0.0
2017_11_21_S7 11/21/2017 05:50:00 0.0
2017_11_21_S7 11/21/2017 05:55:00 0.0041
2017_11_21_S7 11/21/2017 06:00:00 0.0038
2017_11_21_S7 11/21/2017 06:05:00 0.0
2017_11_21_S7 11/21/2017 06:10:00 0.0
2017_11_21_S7 11/21/2017 06:15:00 0.0
2017_11_21_S7 11/21/2017 06:20:00 0.0
2017_11_21_S7 11/21/2017 06:25:00 0.0
2017_11_21_S7 11/21/2017 06:30:00 0.0
2017_11_21_S7 11/21/2017 06:35:00 0.0
2017_11_21_S7 11/21/2017 06:40:00 0.0
2017_11_21_S7 11/21/2017 06:45:00 0.0
2017_11_21_S7 11/21/2017 06:50:00 0.0
2017_11_21_S7 11/21/2017 06:55:00 0.0
2017_11_21_S7 11/21/2017 07:00:00 0.0
2017_11_21_S7 11/21/2017 07:05:00 0.0
2017_11_21_S7 11/21/2017 07:10:00 0.0
2017_11_21_S7 11/21/2017 07:15:00 0.0
2017_11_21_S7 11/21/2017 07:20:00 0.0
2017_11_21_S7 11/21/2017 07:25:00 0.014
2017_11_21_S7 11/21/2017 07:30:00 0.0105
2017_11_21_S7 11/21/2017 07:35:00 0.0005
2017_11_21_S7 11/21/2017 07:40:00 0.0191
2017_11_21_S7 11/21/2017 07:45:00 0.0
2017_11_21_S7 11/21/2017 07:50:00 0.0
2017_11_21_S7 11/21/2017 07:55:00 0.0
2017_11_21_S7 11/21/2017 08:00:00 0.0
2017_11_21_S7 11/21/2017 08:05:00 0.2759
2017_11_21_S7 11/21/2017 08:10:00 0.014
2017_11_21_S7 11/21/2017 08:15:00 0.0183
2017_11_21_S7 11/21/2017 08:20:00 0.0
2017_11_21_S7 11/21/2017 08:25:00 0.0029
2017_11_21_S7 11/21/2017 08:30:00 0.8324
2017_11_21_S7 11/21/2017 08:35:00 0.5484
2017_11_21_S7 11/21/2017 08:40:00 0.4818
2017_11_21_S7 11/21/2017 08:45:00 0.1355
2017_11_21_S7 11/21/2017 08:50:00 0.0099
2017_11_21_S7 11/21/2017 08:55:00 0.0
2017_11_21_S7 11/21/2017 09:00:00 0.0
2017_11_21_S7 11/21/2017 09:05:00 0.0
2017_11_21_S7 11/21/2017 09:10:00 0.0
2017_11_21_S7 11/21/2017 09:15:00 0.0
2017_11_21_S7 11/21/2017 09:20:00 0.0
2017_11_21_S7 11/21/2017 09:25:00 0.0
2017_11_21_S7 11/21/2017 09:30:00 0.0
2017_11_21_S7 11/21/2017 09:35:00 0.0
2017_11_21_S7 11/21/2017 09:40:00 0.0
2017_11_21_S7 11/21/2017 09:45:00 0.0173
2017_11_21_S7 11/21/2017 09:50:00 0.3148
2017_11_21_S7 11/21/2017 09:55:00 0.2218
2017_11_21_S7 11/21/2017 10:00:00 0.0126
2017_11_21_S7 11/21/2017 10:05:00 0.0018
2017_11_21_S7 11/21/2017 10:10:00 0.0268
2017_11_21_S7 11/21/2017 10:15:00 0.002
2017_11_21_S7 11/21/2017 10:20:00 0.0
2017_11_21_S7 11/21/2017 10:25:00 0.0
2017_11_21_S7 11/21/2017 10:30:00 0.0004
2017_11_21_S7 11/21/2017 10:35:00 0.0008
2017_11_21_S7 11/21/2017 10:40:00 0.0011
2017_11_21_S7 11/21/2017 10:45:00 0.0021
2017_11_21_S7 11/21/2017 10:50:00 0.0
2017_11_21_S7 11/21/2017 10:55:00 0.0
2017_11_21_S7 11/21/2017 11:00:00 0.0
2017_11_21_S7 11/21/2017 11:05:00 0.0
2017_11_21_S7 11/21/2017 11:10:00 0.0
2017_11_21_S7 11/21/2017 11:15:00 0.0
2017_11_21_S7 11/21/2017 11:20:00 0.0
2017_11_21_S7 11/21/2017 11:25:00 0.0
2017_11_21_S7 11/21/2017 11:30:00 0.0
2017_11_21_S7 11/21/2017 11:35:00 0.0
2017_11_21_S7 11/21/2017 11:40:00 0.0
2017_11_21_S7 11/21/2017 11:45:00 0.0
2017_11_21_S7 11/21/2017 11:50:00 0.0
2017_11_21_S7 11/21/2017 11:55:00 0.0
2017_11_21_S7 11/21/2017 12:00:00 0.0
2017_11_21_S7 11/21/2017 12:05:00 0.0
2017_11_21_S7 11/21/2017 12:10:00 0.0
2017_11_21_S7 11/21/2017 12:15:00 0.0
2017_11_21_S7 11/21/2017 12:20:00 0.0
2017_11_21_S7 11/21/2017 12:25:00 0.0
2017_11_21_S7 11/21/2017 12:30:00 0.0
2017_11_21_S7 11/21/2017 12:35:00 0.0
2017_11_21_S7 11/21/2017 12:40:00 0.0
2017_11_21_S7 11/21/2017 12:45:00 0.0
2017_11_21_S7 11/21/2017 12:50:00 0.0
2017_11_21_S7 11/21/2017 12:55:00 0.0
2017_11_21_S7 11/21/2017 13:00:00 0.0
2017_11_21_S7 11/21/2017 13:05:00 0.0
2017_11_21_S7 11/21/2017 13:10:00 0.0
2017_11_21_S7 11/21/2017 13:15:00 0.0
2017_11_21_S7 11/21/2017 13:20:00 0.0
2017_11_21_S7 11/21/2017 13:25:00 0.0
2017_11_21_S7 11/21/2017 13:30:00 0.0
2017_11_21_S7 11/21/2017 13:35:00 0.0
2017_11_21_S7 11/21/2017 13:40:00 0.0
2017_11_21_S7 11/21/2017 13:45:00 0.0
2017_11_21_S7 11/21/2017 13:50:00 0.0
2017_11_21_S7 11/21/2017 13:55:00 0.0
2017_11_21_S7 11/21/2017 14:00:00 0.0
2017_11_21_S7 11/21/2017 14:05:00 0.0
2017_11_21_S7 11/21/2017 14:10:00 0.0
2017_11_21_S7 11/21/2017 14:15:00 0.0
2017_11_21_S7 11/21/2017 14:20:00 0.0
2017_11_21_S7 11/21/2017 14:25:00 0.0
2017_11_21_S7 11/21/2017 14:30:00 0.0
2017_11_21_S7 11/21/2017 14:35:00 0.0
2017_11_21_S7 11/21/2017 14:40:00 0.0
2017_11_21_S7 11/21/2017 14:45:00 0.0
2017_11_21_S7 11/21/2017 14:50:00 0.0
2017_11_21_S7 11/21/2017 14:55:00 0.0
2017_11_21_S7 11/21/2017 15:00:00 0.0
2017_11_21_S7 11/21/2017 15:05:00 0.0
2017_11_21_S7 11/21/2017 15:10:00 0.0
2017_11_21_S7 11/21/2017 15:15:00 0.0
2017_11_21_S7 11/21/2017 15:20:00 0.0
2017_11_21_S7 11/21/2017 15:25:00 0.0
2017_11_21_S7 11/21/2017 15:30:00 0.0
2017_11_21_S7 11/21/2017 15:35:00 0.0
2017_11_21_S7 11/21/2017 15:40:00 0.0
2017_11_21_S7 11/21/2017 15:45:00 0.0
2017_11_21_S7 11/21/2017 15:50:00 0.0
2017_11_21_S7 11/21/2017 15:55:00 0.0
2017_11_21_S7 11/21/2017 16:00:00 0.0
2017_11_21_S7 11/21/2017 16:05:00 0.0
2017_11_21_S7 11/21/2017 16:10:00 0.0
2017_11_21_S7 11/21/2017 16:15:00 0.0
2017_11_21_S7 11/21/2017 16:20:00 0.0
2017_11_21_S7 11/21/2017 16:25:00 0.0
2017_11_21_S7 11/21/2017 16:30:00 0.0
2017_11_21_S7 11/21/2017 16:35:00 0.0
2017_11_21_S7 11/21/2017 16:40:00 0.0
2017_11_21_S7 11/21/2017 16:45:00 0.0
2017_11_21_S7 11/21/2017 16:50:00 0.0
2017_11_21_S7 11/21/2017 16:55:00 0.0
2017_11_21_S7 11/21/2017 17:00:00 0.0
2017_11_21_S7 11/21/2017 17:05:00 0.0
2017_11_21_S7 11/21/2017 17:10:00 0.0
2017_11_21_S7 11/21/2017 17:15:00 0.0
2017_11_21_S7 11/21/2017 17:20:00 0.0
2017_11_21_S7 11/21/2017 17:25:00 0.0
2017_11_21_S7 11/21/2017 17:30:00 0.0
2017_11_21_S7 11/21/2017 17:35:00 0.0
2017_11_21_S7 11/21/2017 17:40:00 0.0
2017_11_21_S7 11/21/2017 17:45:00 0.0
2017_11_21_S7 11/21/2017 17:50:00 0.0
2017_11_21_S7 11/21/2017 17:55:00 0.0
2017_11_21_S7 11/21/2017 18:00:00 0.0
2017_11_21_S7 11/21/2017 18:05:00 0.0
2017_11_21_S7 11/21/2017 18:10:00 0.0
2017_11_21_S7 11/21/2017 18:15:00 0.0
2017_11_21_S7 11/21/2017 18:20:00 0.0
2017_11_21_S7 11/21/2017 18:25:00 0.0
2017_11_21_S7 11/21/2017 18:30:00 0.0
2017_11_21_S7 11/21/2017 18:35:00 0.0
2017_11_21_S7 11/21/2017 18:40:00 0.0
2017_11_21_S7 11/21/2017 18:45:00 0.0
2017_11_21_S7 11/21/2017 18:50:00 0.0
2017_11_21_S7 11/21/2017 18:55:00 0.0
2017_11_21_S7 11/21/2017 19:00:00 0.0
2017_11_21_S7 11/21/2017 19:05:00 0.0
2017_11_21_S7 11/21/2017 19:10:00 0.0
2017_11_21_S7 11/21/2017 19:15:00 0.0
2017_11_21_S7 11/21/2017 19:20:00 0.0
2017_11_21_S7 11/21/2017 19:25:00 0.0
2017_11_21_S7 11/21/2017 19:30:00 0.0
2017_11_21_S7 11/21/2017 19:35:00 0.0
2017_11_21_S7 11/21/2017 19:40:00 0.0
2017_11_21_S7 11/21/2017 19:45:00 0.0
2017_11_21_S7 11/21/2017 19:50:00 0.0
2017_11_21_S7 11/21/2017 19:55:00 0.0
2017_11_21_S7 11/21/2017 20:00:00 0.0
2017_11_21_S7 11/21/2017 20:05:00 0.0
2017_11_21_S7 11/21/2017 20:10:00 0.0
2017_11_21_S7 11/21/2017 20:15:00 0.0
2017_11_21_S7 11/21/2017 20:20:00 0.0
2017_11_21_S7 11/21/2017 20:25:00 0.0
2017_11_21_S7 11/21/2017 20:30:00 0.0
2017_11_21_S7 11/21/2017 20:35:00 0.0
2017_11_21_S7 11/21/2017 20:40:00 0.0
2017_11_21_S7 11/21/2017 20:45:00 0.0
2017_11_21_S7 11/21/2017 20:50:00 0.0
2017_11_21_S7 11/21/2017 20:55:00 0.0
2017_11_21_S7 11/21/2017 21:00:00 0.0
2017_11_21_S7 11/21/2017 21:05:00 0.0
2017_11_21_S7 11/21/2017 21:10:00 0.0
2017_11_21_S7 11/21/2017 21:15:00 0.0
2017_11_21_S7 11/21/2017 21:20:00 0.0
2017_11_21_S7 11/21/2017 21:25:00 0.0
2017_11_21_S7 11/21/2017 21:30:00 0.0
2017_11_21_S7 11/21/2017 21:35:00 0.0
2017_11_21_S7 11/21/2017 21:40:00 0.0
2017_11_21_S7 11/21/2017 21:45:00 0.0
2017_11_21_S7 11/21/2017 21:50:00 0.0
2017_11_21_S7 11/21/2017 21:55:00 0.0
2017_11_21_S7 11/21/2017 22:00:00 0.0
2017_11_21_S7 11/21/2017 22:05:00 0.0
2017_11_21_S7 11/21/2017 22:10:00 0.0
2017_11_21_S7 11/21/2017 22:15:00 0.0
2017_11_21_S7 11/21/2017 22:20:00 0.0
2017_11_21_S7 11/21/2017 22:25:00 0.0
2017_11_21_S7 11/21/2017 22:30:00 0.0
2017_11_21_S7 11/21/2017 22:35:00 0.0
2017_11_21_S7 11/21/2017 22:40:00 0.0031
2017_11_21_S7 11/21/2017 22:45:00 0.0
2017_11_21_S7 11/21/2017 22:50:00 0.0
2017_11_21_S7 11/21/2017 22:55:00 0.0
2017_11_21_S7 11/21/2017 23:00:00 0.0
2017_11_21_S7 11/21/2017 23:05:00 0.0033
2017_11_21_S7 11/21/2017 23:10:00 0.0014
2017_11_21_S7 11/21/2017 23:15:00 0.0
2017_11_21_S7 11/21/2017 23:20:00 0.0
2017_11_21_S7 11/21/2017 23:25:00 0.0
2017_11_21_S7 11/21/2017 23:30:00 0.0
2017_11_21_S7 11/21/2017 23:35:00 0.0
2017_11_21_S7 11/21/2017 23:40:00 0.0
2017_11_21_S7 11/21/2017 23:45:00 0.0
2017_11_21_S7 11/21/2017 23:50:00 0.0
2017_11_21_S7 11/21/2017 23:55:00 0.0
2017_11_21_S7 11/22/2017 00:00:00 0.0
2017_11_21_S7 11/22/2017 00:05:00 0.0
2017_11_21_S7 11/22/2017 00:10:00 0.0
2017_11_21_S7 11/22/2017 00:15:00 0.0
2017_11_21_S7 11/22/2017 00:20:00 0.0
2017_11_21_S7 11/22/2017 00:25:00 0.0
2017_11_21_S7 11/22/2017 00:30:00 0.0
2017_11_21_S7 11/22/2017 00:35:00 0.0
2017_11_21_S7 11/22/2017 00:40:00 0.0
2017_11_21_S7 11/22/2017 00:45:00 0.0
2017_11_21_S7 11/22/2017 00:50:00 0.0
2017_11_21_S7 11/22/2017 00:55:00 0.0
2017_11_21_S7 11/22/2017 01:00:00 0.0
2017_11_21_S7 11/22/2017 01:05:00 0.0
2017_11_21_S7 11/22/2017 01:10:00 0.0
2017_11_21_S7 11/22/2017 01:15:00 0.0
2017_11_21_S7 11/22/2017 01:20:00 0.0013
2017_11_21_S7 11/22/2017 01:25:00 0.0016
2017_11_21_S7 11/22/2017 01:30:00 0.0061
2017_11_21_S7 11/22/2017 01:35:00 0.0043
2017_11_21_S7 11/22/2017 01:40:00 0.0
2017_11_21_S7 11/22/2017 01:45:00 0.028
2017_11_21_S7 11/22/2017 01:50:00 0.0
2017_11_21_S7 11/22/2017 01:55:00 0.0
2017_11_21_S7 11/22/2017 02:00:00 0.0
2017_11_21_S7 11/22/2017 02:05:00 0.0
2017_11_21_S7 11/22/2017 02:10:00 0.0
2017_11_21_S7 11/22/2017 02:15:00 0.0
2017_11_21_S7 11/22/2017 02:20:00 0.0
2017_11_21_S7 11/22/2017 02:25:00 0.0025
2017_11_21_S7 11/22/2017 02:30:00 0.0026
2017_11_21_S7 11/22/2017 02:35:00 0.0
2017_11_21_S7 11/22/2017 02:40:00 0.0
2017_11_21_S7 11/22/2017 02:45:00 0.0
2017_11_21_S7 11/22/2017 02:50:00 0.0
2017_11_21_S7 11/22/2017 02:55:00 0.0
2017_11_21_S7 11/22/2017 03:00:00 0.0
2017_11_21_S7 11/22/2017 03:05:00 0.0
2017_11_21_S7 11/22/2017 03:10:00 0.0
2017_11_21_S7 11/22/2017 03:15:00 0.0
2017_11_21_S7 11/22/2017 03:20:00 0.0
2017_11_21_S7 11/22/2017 03:25:00 0.0
2017_11_21_S7 11/22/2017 03:30:00 0.0
2017_11_21_S7 11/22/2017 03:35:00 0.0
2017_11_21_S7 11/22/2017 03:40:00 0.0
2017_11_21_S7 11/22/2017 03:45:00 0.0
2017_11_21_S7 11/22/2017 03:50:00 0.0
2017_11_21_S7 11/22/2017 03:55:00 0.0
2017_11_21_S7 11/22/2017 04:00:00 0.0
2017_11_21_S7 11/22/2017 04:05:00 0.0
2017_11_21_S7 11/22/2017 04:10:00 0.0
2017_11_21_S7 11/22/2017 04:15:00 0.0
2017_11_21_S7 11/22/2017 04:20:00 0.0
2017_11_21_S7 11/22/2017 04:25:00 0.0
2017_11_21_S7 11/22/2017 04:30:00 0.0
2017_11_21_S7 11/22/2017 04:35:00 0.0
2017_11_21_S7 11/22/2017 04:40:00 0.0
2017_11_21_S7 11/22/2017 04:45:00 0.0
2017_11_21_S7 11/22/2017 04:50:00 0.0
2017_11_21_S7 11/22/2017 04:55:00 0.0
2017_11_21_S7 11/22/2017 05:00:00 0.0
2017_11_21_S7 11/22/2017 05:05:00 0.0
2017_11_21_S7 11/22/2017 05:10:00 0.0
2017_11_21_S7 11/22/2017 05:15:00 0.0
2017_11_21_S7 11/22/2017 05:20:00 0.0
2017_11_21_S7 11/22/2017 05:25:00 0.0
2017_11_21_S7 11/22/2017 05:30:00 0.0
2017_11_21_S7 11/22/2017 05:35:00 0.0
2017_11_21_S7 11/22/2017 05:40:00 0.0
2017_11_21_S7 11/22/2017 05:45:00 0.0
2017_11_21_S7 11/22/2017 05:50:00 0.0
2017_11_21_S7 11/22/2017 05:55:00 0.0
2017_11_21_S7 11/22/2017 06:00:00 0.0
2017_11_21_S7 11/22/2017 06:05:00 0.0
2017_11_21_S7 11/22/2017 06:10:00 0.0
2017_11_21_S7 11/22/2017 06:15:00 0.0
2017_11_21_S7 11/22/2017 06:20:00 0.0
2017_11_21_S7 11/22/2017 06:25:00 0.0
2017_11_21_S7 11/22/2017 06:30:00 0.0
2017_11_21_S7 11/22/2017 06:35:00 0.0
2017_11_21_S7 11/22/2017 06:40:00 0.0
2017_11_21_S7 11/22/2017 06:45:00 0.0
2017_11_21_S7 11/22/2017 06:50:00 0.0
2017_11_21_S7 11/22/2017 06:55:00 0.0
2017_11_21_S7 11/22/2017 07:00:00 0.0
2017_11_21_S7 11/22/2017 07:05:00 0.0
2017_11_21_S7 11/22/2017 07:10:00 0.0
2017_11_21_S7 11/22/2017 07:15:00 0.0
2017_11_21_S7 11/22/2017 07:20:00 0.0
2017_11_21_S7 11/22/2017 07:25:00 0.0
2017_11_21_S7 11/22/2017 07:30:00 0.0
2017_11_21_S7 11/22/2017 07:35:00 0.0
2017_11_21_S7 11/22/2017 07:40:00 0.0
2017_11_21_S7 11/22/2017 07:45:00 0.0
2017_11_21_S7 11/22/2017 07:50:00 0.0
2017_11_21_S7 11/22/2017 07:55:00 0.0
2017_11_21_S7 11/22/2017 08:00:00 0.0

2017_11_21_S8 11/20/2017 22:55:00 0.0158
2017_11_21_S8 11/20/2017 23:00:00 0.0949
2017_11_21_S8 11/20/2017 23:05:00 0.0806
2017_11_21_S8 11/20/2017 23:10:00 0.0
2017_11_21_S8 11/20/2017 23:15:00 0.0
2017_11_21_S8 11/20/2017 23:20:00 0.0
2017_11_21_S8 11/20/2017 23:25:00 0.0
2017_11_21_S8 11/20/2017 23:30:00 0.0
2017_11_21_S8 11/20/2017 23:35:00 0.0
2017_11_21_S8 11/20/2017 23:40:00 0.0
2017_11_21_S8 11/20/2017 23:45:00 0.0
2017_11_21_S8 11/20/2017 23:50:00 0.0
2017_11_21_S8 11/20/2017 23:55:00 0.0
2017_11_21_S8 11/21/2017 00:00:00 0.0
2017_11_21_S8 11/21/2017 00:05:00 0.0
2017_11_21_S8 11/21/2017 00:10:00 0.0
2017_11_21_S8 11/21/2017 00:15:00 0.0
2017_11_21_S8 11/21/2017 00:20:00 0.0
2017_11_21_S8 11/21/2017 00:25:00 0.0
2017_11_21_S8 11/21/2017 00:30:00 0.0
2017_11_21_S8 11/21/2017 00:35:00 0.0
2017_11_21_S8 11/21/2017 00:40:00 0.0
2017_11_21_S8 11/21/2017 00:45:00 0.0
2017_11_21_S8 11/21/2017 00:50:00 0.0274
2017_11_21_S8 11/21/2017 00:55:00 0.0
2017_11_21_S8 11/21/2017 01:00:00 0.0
2017_11_21_S8 11/21/2017 01:05:00 0.0
2017_11_21_S8 11/21/2017 01:10:00 0.0
2017_11_21_S8 11/21/2017 01:15:00 0.3508
2017_11_21_S8 11/21/2017 01:20:00 0.2987
2017_11_21_S8 11/21/2017 01:25:00 0.1737
2017_11_21_S8 11/21/2017 01:30:00 0.0301
2017_11_21_S8 11/21/2017 01:35:00 0.0152
2017_11_21_S8 11/21/2017 01:40:00 0.0
2017_11_21_S8 11/21/2017 01:45:00 0.0
2017_11_21_S8 11/21/2017 01:50:00 0.0
2017_11_21_S8 11/21/2017 01:55:00 0.0
2017_11_21_S8 11/21/2017 02:00:00 0.0
2017_11_21_S8 11/21/2017 02:05:00 0.0237
2017_11_21_S8 11/21/2017 02:10:00 0.0
2017_11_21_S8 11/21/2017 02:15:00 0.3381
2017_11_21_S8 11/21/2017 02:20:00 0.0398
2017_11_21_S8 11/21/2017 02:25:00 0.2734
2017_11_21_S8 11/21/2017 02:30:00 0.0018
2017_11_21_S8 11/21/2017 02:35:00 0.0921
2017_11_21_S8 11/21/2017 02:40:00 0.0654
2017_11_21_S8 11/21/2017 02:45:00 0.0
2017_11_21_S8 11/21/2017 02:50:00 0.0
2017_11_21_S8 11/21/2017 02:55:00 0.0
2017_11_21_S8 11/21/2017 03:00:00 0.0
2017_11_21_S8 11/21/2017 03:05:00 0.0019
2017_11_21_S8 11/21/2017 03:10:00 0.0
2017_11_21_S8 11/21/2017 03:15:00 0.0
2017_11_21_S8 11/21/2017 03:20:00 0.0047
2017_11_21_S8 11/21/2017 03:25:00 0.2451
2017_11_21_S8 11/21/2017 03:30:00 0.0016
2017_11_21_S8 11/21/2017 03:35:00 0.0095
2017_11_21_S8 11/21/2017 03:40:00 0.0
2017_11_21_S8 11/21/2017 03:45:00 0.4567
2017_11_21_S8 11/21/2017 03:50:00 0.0381
2017_11_21_S8 11/21/2017 03:55:00 0.1278
2017_11_21_S8 11/21/2017 04:00:00 0.0242
2017_11_21_S8 11/21/2017 04:05:00 0.0039
2017_11_21_S8 11/21/2017 04:10:00 0.0689
2017_11_21_S8 11/21/2017 04:15:00 0.0066
2017_11_21_S8 11/21/2017 04:20:00 0.0194
2017_11_21_S8 11/21/2017 04:25:00 0.0151
2017_11_21_S8 11/21/2017 04:30:00 3.1048
2017_11_21_S8 11/21/2017 04:35:00 0.3511
2017_11_21_S8 11/21/2017 04:40:00 0.0553
2017_11_21_S8 11/21/2017 04:45:00 0.006
2017_11_21_S8 11/21/2017 04:50:00 0.0
2017_11_21_S8 11/21/2017 04:55:00 0.0
2017_11_21_S8 11/21/2017 05:00:00 0.0
2017_11_21_S8 11/21/2017 05:05:00 0.0
2017_11_21_S8 11/21/2017 05:10:00 0.0177
2017_11_21_S8 11/21/2017 05:15:00 0.8556
2017_11_21_S8 11/21/2017 05:20:00 2.7938
2017_11_21_S8 11/21/2017 05:25:00 3.8844
2017_11_21_S8 11/21/2017 05:30:00 1.9018
2017_11_21_S8 11/21/2017 05:35:00 0.0411
2017_11_21_S8 11/21/2017 05:40:00 0.0119
2017_11_21_S8 11/21/2017 05:45:00 0.0
2017_11_21_S8 11/21/2017 05:50:00 0.0
2017_11_21_S8 11/21/2017 05:55:00 0.0008
2017_11_21_S8 11/21/2017 06:00:00 0.0
2017_11_21_S8 11/21/2017 06:05:00 0.0
2017_11_21_S8 11/21/2017 06:10:00 0.0
2017_11_21_S8 11/21/2017 06:15:00 0.0
2017_11_21_S8 11/21/2017 06:20:00 0.0
2017_11_21_S8 11/21/2017 06:25:00 0.0
2017_11_21_S8 11/21/2017 06:30:00 0.0
2017_11_21_S8 11/21/2017 06:35:00 0.0
2017_11_21_S8 11/21/2017 06:40:00 0.0
2017_11_21_S8 11/21/2017 06:45:00 0.0
2017_11_21_S8 11/21/2017 06:50:00 0.0
2017_11_21_S8 11/21/2017 06:55:00 0.0
2017_11_21_S8 11/21/2017 07:00:00 0.0
2017_11_21_S8 11/21/2017 07:05:00 0.0
2017_11_21_S8 11/21/2017 07:10:00 0.0
2017_11_21_S8 11/21/2017 07:15:00 0.0
2017_11_21_S8 11/21/2017 07:20:00 0.0
2017_11_21_S8 11/21/2017 07:25:00 0.0453
2017_11_21_S8 11/21/2017 07:30:00 0.0149
2017_11_21_S8 11/21/2017 07:35:00 0.008
2017_11_21_S8 11/21/2017 07:40:00 0.0235
2017_11_21_S8 11/21/2017 07:45:00 0.0
2017_11_21_S8 11/21/2017 07:50:00 0.0
2017_11_21_S8 11/21/2017 07:55:00 0.0
2017_11_21_S8 11/21/2017 08:00:00 0.0011
2017_11_21_S8 11/21/2017 08:05:00 0.2852
2017_11_21_S8 11/21/2017 08:10:00 0.0089
2017_11_21_S8 11/21/2017 08:15:00 0.0258
2017_11_21_S8 11/21/2017 08:20:00 0.0013
2017_11_21_S8 11/21/2017 08:25:00 0.0067
2017_11_21_S8 11/21/2017 08:30:00 0.2545
2017_11_21_S8 11/21/2017 08:35:00 0.3773
2017_11_21_S8 11/21/2017 08:40:00 0.2725
2017_11_21_S8 11/21/2017 08:45:00 0.2383
2017_11_21_S8 11/21/2017 08:50:00 0.0118
2017_11_21_S8 11/21/2017 08:55:00 0.0
2017_11_21_S8 11/21/2017 09:00:00 0.0
2017_11_21_S8 11/21/2017 09:05:00 0.0
2017_11_21_S8 11/21/2017 09:10:00 0.0
2017_11_21_S8 11/21/2017 09:15:00 0.0
2017_11_21_S8 11/21/2017 09:20:00 0.0
2017_11_21_S8 11/21/2017 09:25:00 0.0
2017_11_21_S8 11/21/2017 09:30:00 0.0
2017_11_21_S8 11/21/2017 09:35:00 0.0
2017_11_21_S8 11/21/2017 09:40:00 0.0
2017_11_21_S8 11/21/2017 09:45:00 0.0097
2017_11_21_S8 11/21/2017 09:50:00 0.3036
2017_11_21_S8 11/21/2017 09:55:00 0.3098
2017_11_21_S8 11/21/2017 10:00:00 0.0117
2017_11_21_S8 11/21/2017 10:05:00 0.0022
2017_11_21_S8 11/21/2017 10:10:00 0.0185
2017_11_21_S8 11/21/2017 10:15:00 0.0
2017_11_21_S8 11/21/2017 10:20:00 0.0
2017_11_21_S8 11/21/2017 10:25:00 0.0
2017_11_21_S8 11/21/2017 10:30:00 0.0009
2017_11_21_S8 11/21/2017 10:35:00 0.0017
2017_11_21_S8 11/21/2017 10:40:00 0.0026
2017_11_21_S8 11/21/2017 10:45:00 0.0
2017_11_21_S8 11/21/2017 10:50:00 0.0
2017_11_21_S8 11/21/2017 10:55:00 0.0
2017_11_21_S8 11/21/2017 11:00:00 0.001
2017_11_21_S8 11/21/2017 11:05:00 0.0
2017_11_21_S8 11/21/2017 11:10:00 0.0
2017_11_21_S8 11/21/2017 11:15:00 0.0
2017_11_21_S8 11/21/2017 11:20:00 0.0
2017_11_21_S8 11/21/2017 11:25:00 0.0
2017_11_21_S8 11/21/2017 11:30:00 0.0
2017_11_21_S8 11/21/2017 11:35:00 0.0
2017_11_21_S8 11/21/2017 11:40:00 0.0
2017_11_21_S8 11/21/2017 11:45:00 0.0
2017_11_21_S8 11/21/2017 11:50:00 0.0
2017_11_21_S8 11/21/2017 11:55:00 0.0
2017_11_21_S8 11/21/2017 12:00:00 0.0
2017_11_21_S8 11/21/2017 12:05:00 0.0
2017_11_21_S8 11/21/2017 12:10:00 0.0
2017_11_21_S8 11/21/2017 12:15:00 0.0
2017_11_21_S8 11/21/2017 12:20:00 0.0
2017_11_21_S8 11/21/2017 12:25:00 0.0
2017_11_21_S8 11/21/2017 12:30:00 0.0
2017_11_21_S8 11/21/2017 12:35:00 0.0
2017_11_21_S8 11/21/2017 12:40:00 0.0
2017_11_21_S8 11/21/2017 12:45:00 0.0
2017_11_21_S8 11/21/2017 12:50:00 0.0
2017_11_21_S8 11/21/2017 12:55:00 0.0
2017_11_21_S8 11/21/2017 13:00:00 0.0
2017_11_21_S8 11/21/2017 13:05:00 0.0
2017_11_21_S8 11/21/2017 13:10:00 0.0
2017_11_21_S8 11/21/2017 13:15:00 0.0
2017_11_21_S8 11/21/2017 13:20:00 0.0
2017_11_21_S8 11/21/2017 13:25:00 0.0
2017_11_21_S8 11/21/2017 13:30:00 0.0
2017_11_21_S8 11/21/2017 13:35:00 0.0
2017_11_21_S8 11/21/2017 13:40:00 0.0
2017_11_21_S8 11/21/2017 13:45:00 0.0
2017_11_21_S8 11/21/2017 13:50:00 0.0
2017_11_21_S8 11/21/2017 13:55:00 0.0
2017_11_21_S8 11/21/2017 14:00:00 0.0
2017_11_21_S8 11/21/2017 14:05:00 0.0
2017_11_21_S8 11/21/2017 14:10:00 0.0
2017_11_21_S8 11/21/2017 14:15:00 0.0
2017_11_21_S8 11/21/2017 14:20:00 0.0
2017_11_21_S8 11/21/2017 14:25:00 0.0
2017_11_21_S8 11/21/2017 14:30:00 0.0
2017_11_21_S8 11/21/2017 14:35:00 0.0
2017_11_21_S8 11/21/2017 14:40:00 0.0
2017_11_21_S8 11/21/2017 14:45:00 0.0
2017_11_21_S8 11/21/2017 14:50:00 0.0
2017_11_21_S8 11/21/2017 14:55:00 0.0
2017_11_21_S8 11/21/2017 15:00:00 0.0
2017_11_21_S8 11/21/2017 15:05:00 0.0
2017_11_21_S8 11/21/2017 15:10:00 0.0
2017_11_21_S8 11/21/2017 15:15:00 0.0
2017_11_21_S8 11/21/2017 15:20:00 0.0
2017_11_21_S8 11/21/2017 15:25:00 0.0
2017_11_21_S8 11/21/2017 15:30:00 0.0
2017_11_21_S8 11/21/2017 15:35:00 0.0
2017_11_21_S8 11/21/2017 15:40:00 0.0
2017_11_21_S8 11/21/2017 15:45:00 0.0
2017_11_21_S8 11/21/2017 15:50:00 0.0
2017_11_21_S8 11/21/2017 15:55:00 0.0
2017_11_21_S8 11/21/2017 16:00:00 0.0
2017_11_21_S8 11/21/2017 16:05:00 0.0
2017_11_21_S8 11/21/2017 16:10:00 0.0
2017_11_21_S8 11/21/2017 16:15:00 0.0
2017_11_21_S8 11/21/2017 16:20:00 0.0
2017_11_21_S8 11/21/2017 16:25:00 0.0
2017_11_21_S8 11/21/2017 16:30:00 0.0
2017_11_21_S8 11/21/2017 16:35:00 0.0
2017_11_21_S8 11/21/2017 16:40:00 0.0
2017_11_21_S8 11/21/2017 16:45:00 0.0
2017_11_21_S8 11/21/2017 16:50:00 0.0
2017_11_21_S8 11/21/2017 16:55:00 0.0
2017_11_21_S8 11/21/2017 17:00:00 0.0
2017_11_21_S8 11/21/2017 17:05:00 0.0
2017_11_21_S8 11/21/2017 17:10:00 0.0
2017_11_21_S8 11/21/2017 17:15:00 0.0
2017_11_21_S8 11/21/2017 17:20:00 0.0
2017_11_21_S8 11/21/2017 17:25:00 0.0
2017_11_21_S8 11/21/2017 17:30:00 0.0
2017_11_21_S8 11/21/2017 17:35:00 0.0
2017_11_21_S8 11/21/2017 17:40:00 0.0
2017_11_21_S8 11/21/2017 17:45:00 0.0
2017_11_21_S8 11/21/2017 17:50:00 0.0
2017_11_21_S8 11/21/2017 17:55:00 0.0
2017_11_21_S8 11/21/2017 18:00:00 0.0
2017_11_21_S8 11/21/2017 18:05:00 0.0
2017_11_21_S8 11/21/2017 18:10:00 0.0
2017_11_21_S8 11/21/2017 18:15:00 0.0
2017_11_21_S8 11/21/2017 18:20:00 0.0
2017_11_21_S8 11/21/2017 18:25:00 0.0
2017_11_21_S8 11/21/2017 18:30:00 0.0
2017_11_21_S8 11/21/2017 18:35:00 0.0
2017_11_21_S8 11/21/2017 18:40:00 0.0
2017_11_21_S8 11/21/2017 18:45:00 0.0
2017_11_21_S8 11/21/2017 18:50:00 0.0
2017_11_21_S8 11/21/2017 18:55:00 0.0
2017_11_21_S8 11/21/2017 19:00:00 0.0
2017_11_21_S8 11/21/2017 19:05:00 0.0
2017_11_21_S8 11/21/2017 19:10:00 0.0
2017_11_21_S8 11/21/2017 19:15:00 0.0
2017_11_21_S8 11/21/2017 19:20:00 0.0
2017_11_21_S8 11/21/2017 19:25:00 0.0
2017_11_21_S8 11/21/2017 19:30:00 0.0
2017_11_21_S8 11/21/2017 19:35:00 0.0
2017_11_21_S8 11/21/2017 19:40:00 0.0
2017_11_21_S8 11/21/2017 19:45:00 0.0
2017_11_21_S8 11/21/2017 19:50:00 0.0
2017_11_21_S8 11/21/2017 19:55:00 0.0
2017_11_21_S8 11/21/2017 20:00:00 0.0
2017_11_21_S8 11/21/2017 20:05:00 0.0
2017_11_21_S8 11/21/2017 20:10:00 0.0
2017_11_21_S8 11/21/2017 20:15:00 0.0
2017_11_21_S8 11/21/2017 20:20:00 0.0
2017_11_21_S8 11/21/2017 20:25:00 0.0
2017_11_21_S8 11/21/2017 20:30:00 0.0
2017_11_21_S8 11/21/2017 20:35:00 0.0
2017_11_21_S8 11/21/2017 20:40:00 0.0
2017_11_21_S8 11/21/2017 20:45:00 0.0
2017_11_21_S8 11/21/2017 20:50:00 0.0
2017_11_21_S8 11/21/2017 20:55:00 0.0
2017_11_21_S8 11/21/2017 21:00:00 0.0
2017_11_21_S8 11/21/2017 21:05:00 0.0
2017_11_21_S8 11/21/2017 21:10:00 0.0
2017_11_21_S8 11/21/2017 21:15:00 0.0
2017_11_21_S8 11/21/2017 21:20:00 0.0
2017_11_21_S8 11/21/2017 21:25:00 0.0
2017_11_21_S8 11/21/2017 21:30:00 0.0
2017_11_21_S8 11/21/2017 21:35:00 0.0
2017_11_21_S8 11/21/2017 21:40:00 0.0
2017_11_21_S8 11/21/2017 21:45:00 0.0
2017_11_21_S8 11/21/2017 21:50:00 0.0
2017_11_21_S8 11/21/2017 21:55:00 0.0
2017_11_21_S8 11/21/2017 22:00:00 0.0
2017_11_21_S8 11/21/2017 22:05:00 0.0
2017_11_21_S8 11/21/2017 22:10:00 0.0
2017_11_21_S8 11/21/2017 22:15:00 0.0
2017_11_21_S8 11/21/2017 22:20:00 0.0
2017_11_21_S8 11/21/2017 22:25:00 0.0
2017_11_21_S8 11/21/2017 22:30:00 0.0
2017_11_21_S8 11/21/2017 22:35:00 0.0
2017_11_21_S8 11/21/2017 22:40:00 0.0063
2017_11_21_S8 11/21/2017 22:45:00 0.0
2017_11_21_S8 11/21/2017 22:50:00 0.0
2017_11_21_S8 11/21/2017 22:55:00 0.0
2017_11_21_S8 11/21/2017 23:00:00 0.0
2017_11_21_S8 11/21/2017 23:05:00 0.0068
2017_11_21_S8 11/21/2017 23:10:00 0.0018
2017_11_21_S8 11/21/2017 23:15:00 0.0
2017_11_21_S8 11/21/2017 23:20:00 0.0
2017_11_21_S8 11/21/2017 23:25:00 0.0
2017_11_21_S8 11/21/2017 23:30:00 0.0
2017_11_21_S8 11/21/2017 23:35:00 0.0
2017_11_21_S8 11/21/2017 23:40:00 0.0
2017_11_21_S8 11/21/2017 23:45:00 0.0
2017_11_21_S8 11/21/2017 23:50:00 0.0
2017_11_21_S8 11/21/2017 23:55:00 0.0
2017_11_21_S8 11/22/2017 00:00:00 0.0
2017_11_21_S8 11/22/2017 00:05:00 0.0
2017_11_21_S8 11/22/2017 00:10:00 0.0
2017_11_21_S8 11/22/2017 00:15:00 0.0
2017_11_21_S8 11/22/2017 00:20:00 0.0
2017_11_21_S8 11/22/2017 00:25:00 0.0
2017_11_21_S8 11/22/2017 00:30:00 0.0
2017_11_21_S8 11/22/2017 00:35:00 0.0
2017_11_21_S8 11/22/2017 00:40:00 0.0
2017_11_21_S8 11/22/2017 00:45:00 0.0
2017_11_21_S8 11/22/2017 00:50:00 0.0
2017_11_21_S8 11/22/2017 00:55:00 0.0
2017_11_21_S8 11/22/2017 01:00:00 0.0
2017_11_21_S8 11/22/2017 01:05:00 0.0
2017_11_21_S8 11/22/2017 01:10:00 0.0
2017_11_21_S8 11/22/2017 01:15:00 0.0
2017_11_21_S8 11/22/2017 01:20:00 0.0055
2017_11_21_S8 11/22/2017 01:25:00 0.0006
2017_11_21_S8 11/22/2017 01:30:00 0.0038
2017_11_21_S8 11/22/2017 01:35:00 0.0066
2017_11_21_S8 11/22/2017 01:40:00 0.0
2017_11_21_S8 11/22/2017 01:45:00 0.0209
2017_11_21_S8 11/22/2017 01:50:00 0.0
2017_11_21_S8 11/22/2017 01:55:00 0.0
2017_11_21_S8 11/22/2017 02:00:00 0.0
2017_11_21_S8 11/22/2017 02:05:00 0.0
2017_11_21_S8 11/22/2017 02:10:00 0.0
2017_11_21_S8 11/22/2017 02:15:00 0.0
2017_11_21_S8 11/22/2017 02:20:00 0.0
2017_11_21_S8 11/22/2017 02:25:00 0.0
2017_11_21_S8 11/22/2017 02:30:00 0.0
2017_11_21_S8 11/22/2017 02:35:00 0.0
2017_11_21_S8 11/22/2017 02:40:00 0.0
2017_11_21_S8 11/22/2017 02:45:00 0.0
2017_11_21_S8 11/22/2017 02:50:00 0.0
2017_11_21_S8 11/22/2017 02:55:00 0.0
2017_11_21_S8 11/22/2017 03:00:00 0.0
2017_11_21_S8 11/22/2017 03:05:00 0.0
2017_11_21_S8 11/22/2017 03:10:00 0.0
2017_11_21_S8 11/22/2017 03:15:00 0.0
2017_11_21_S8 11/22/2017 03:20:00 0.0
2017_11_21_S8 11/22/2017 03:25:00 0.0
2017_11_21_S8 11/22/2017 03:30:00 0.0
2017_11_21_S8 11/22/2017 03:35:00 0.0
2017_11_21_S8 11/22/2017 03:40:00 0.0
2017_11_21_S8 11/22/2017 03:45:00 0.0
2017_11_21_S8 11/22/2017 03:50:00 0.0
2017_11_21_S8 11/22/2017 03:55:00 0.0
2017_11_21_S8 11/22/2017 04:00:00 0.0
2017_11_21_S8 11/22/2017 04:05:00 0.0
2017_11_21_S8 11/22/2017 04:10:00 0.0
2017_11_21_S8 11/22/2017 04:15:00 0.0
2017_11_21_S8 11/22/2017 04:20:00 0.0
2017_11_21_S8 11/22/2017 04:25:00 0.0
2017_11_21_S8 11/22/2017 04:30:00 0.0
2017_11_21_S8 11/22/2017 04:35:00 0.0
2017_11_21_S8 11/22/2017 04:40:00 0.0
2017_11_21_S8 11/22/2017 04:45:00 0.0
2017_11_21_S8 11/22/2017 04:50:00 0.0
2017_11_21_S8 11/22/2017 04:55:00 0.0
2017_11_21_S8 11/22/2017 05:00:00 0.0
2017_11_21_S8 11/22/2017 05:05:00 0.0
2017_11_21_S8 11/22/2017 05:10:00 0.0
2017_11_21_S8 11/22/2017 05:15:00 0.0
2017_11_21_S8 11/22/2017 05:20:00 0.0
2017_11_21_S8 11/22/2017 05:25:00 0.0
2017_11_21_S8 11/22/2017 05:30:00 0.0
2017_11_21_S8 11/22/2017 05:35:00 0.0
2017_11_21_S8 11/22/2017 05:40:00 0.0
2017_11_21_S8 11/22/2017 05:45:00 0.0
2017_11_21_S8 11/22/2017 05:50:00 0.0
2017_11_21_S8 11/22/2017 05:55:00 0.0
2017_11_21_S8 11/22/2017 06:00:00 0.0
2017_11_21_S8 11/22/2017 06:05:00 0.0
2017_11_21_S8 11/22/2017 06:10:00 0.0
2017_11_21_S8 11/22/2017 06:15:00 0.0
2017_11_21_S8 11/22/2017 06:20:00 0.0
2017_11_21_S8 11/22/2017 06:25:00 0.0
2017_11_21_S8 11/22/2017 06:30:00 0.0
2017_11_21_S8 11/22/2017 06:35:00 0.0
2017_11_21_S8 11/22/2017 06:40:00 0.0
2017_11_21_S8 11/22/2017 06:45:00 0.0
2017_11_21_S8 11/22/2017 06:50:00 0.0
2017_11_21_S8 11/22/2017 06:55:00 0.0
2017_11_21_S8 11/22/2017 07:00:00 0.0
2017_11_21_S8 11/22/2017 07:05:00 0.0
2017_11_21_S8 11/22/2017 07:10:00 0.0
2017_11_21_S8 11/22/2017 07:15:00 0.0
2017_11_21_S8 11/22/2017 07:20:00 0.0
2017_11_21_S8 11/22/2017 07:25:00 0.0
2017_11_21_S8 11/22/2017 07:30:00 0.0
2017_11_21_S8 11/22/2017 07:35:00 0.0
2017_11_21_S8 11/22/2017 07:40:00 0.0
2017_11_21_S8 11/22/2017 07:45:00 0.0
2017_11_21_S8 11/22/2017 07:50:00 0.0
2017_11_21_S8 11/22/2017 07:55:00 0.0
2017_11_21_S8 11/22/2017 08:00:00 0.0

2017_11_21_S9 11/20/2017 22:55:00 0.0216
2017_11_21_S9 11/20/2017 23:00:00 0.0957
2017_11_21_S9 11/20/2017 23:05:00 0.0621
2017_11_21_S9 11/20/2017 23:10:00 0.0
2017_11_21_S9 11/20/2017 23:15:00 0.0
2017_11_21_S9 11/20/2017 23:20:00 0.0
2017_11_21_S9 11/20/2017 23:25:00 0.0
2017_11_21_S9 11/20/2017 23:30:00 0.0
2017_11_21_S9 11/20/2017 23:35:00 0.0
2017_11_21_S9 11/20/2017 23:40:00 0.0
2017_11_21_S9 11/20/2017 23:45:00 0.0
2017_11_21_S9 11/20/2017 23:50:00 0.0
2017_11_21_S9 11/20/2017 23:55:00 0.0
2017_11_21_S9 11/21/2017 00:00:00 0.0
2017_11_21_S9 11/21/2017 00:05:00 0.0
2017_11_21_S9 11/21/2017 00:10:00 0.0
2017_11_21_S9 11/21/2017 00:15:00 0.0
2017_11_21_S9 11/21/2017 00:20:00 0.0
2017_11_21_S9 11/21/2017 00:25:00 0.0
2017_11_21_S9 11/21/2017 00:30:00 0.0
2017_11_21_S9 11/21/2017 00:35:00 0.0
2017_11_21_S9 11/21/2017 00:40:00 0.0
2017_11_21_S9 11/21/2017 00:45:00 0.0
2017_11_21_S9 11/21/2017 00:50:00 0.019
2017_11_21_S9 11/21/2017 00:55:00 0.0
2017_11_21_S9 11/21/2017 01:00:00 0.0
2017_11_21_S9 11/21/2017 01:05:00 0.0
2017_11_21_S9 11/21/2017 01:10:00 0.0
2017_11_21_S9 11/21/2017 01:15:00 0.3826
2017_11_21_S9 11/21/2017 01:20:00 0.1386
2017_11_21_S9 11/21/2017 01:25:00 0.1246
2017_11_21_S9 11/21/2017 01:30:00 0.0855
2017_11_21_S9 11/21/2017 01:35:00 0.0113
2017_11_21_S9 11/21/2017 01:40:00 0.0
2017_11_21_S9 11/21/2017 01:45:00 0.0
2017_11_21_S9 11/21/2017 01:50:00 0.0
2017_11_21_S9 11/21/2017 01:55:00 0.0
2017_11_21_S9 11/21/2017 02:00:00 0.0
2017_11_21_S9 11/21/2017 02:05:00 0.0222
2017_11_21_S9 11/21/2017 02:10:00 0.0005
2017_11_21_S9 11/21/2017 02:15:00 0.2575
2017_11_21_S9 11/21/2017 02:20:00 0.0266
2017_11_21_S9 11/21/2017 02:25:00 0.1908
2017_11_21_S9 11/21/2017 02:30:00 0.022
2017_11_21_S9 11/21/2017 02:35:00 0.1139
2017_11_21_S9 11/21/2017 02:40:00 0.0662
2017_11_21_S9 11/21/2017 02:45:00 0.0
2017_11_21_S9 11/21/2017 02:50:00 0.0
2017_11_21_S9 11/21/2017 02:55:00 0.0
2017_11_21_S9 11/21/2017 03:00:00 0.0
2017_11_21_S9 11/21/2017 03:05:00 0.0018
2017_11_21_S9 11/21/2017 03:10:00 0.0
2017_11_21_S9 11/21/2017 03:15:00 0.0
2017_11_21_S9 11/21/2017 03:20:00 0.0088
2017_11_21_S9 11/21/2017 03:25:00 0.1292
2017_11_21_S9 11/21/2017 03:30:00 0.0072
2017_11_21_S9 11/21/2017 03:35:00 0.01
2017_11_21_S9 11/21/2017 03:40:00 0.0
2017_11_21_S9 11/21/2017 03:45:00 0.412
2017_11_21_S9 11/21/2017 03:50:00 0.092
2017_11_21_S9 11/21/2017 03:55:00 0.0689
2017_11_21_S9 11/21/2017 04:00:00 0.0208
2017_11_21_S9 11/21/2017 04:05:00 0.007
2017_11_21_S9 11/21/2017 04:10:00 0.0943
2017_11_21_S9 11/21/2017 04:15:00 0.0336
2017_11_21_S9 11/21/2017 04:20:00 0.0189
2017_11_21_S9 11/21/2017 04:25:00 0.0261
2017_11_21_S9 11/21/2017 04:30:00 6.5906
2017_11_21_S9 11/21/2017 04:35:00 0.2518
2017_11_21_S9 11/21/2017 04:40:00 0.0284
2017_11_21_S9 11/21/2017 04:45:00 0.0048
2017_11_21_S9 11/21/2017 04:50:00 0.0
2017_11_21_S9 11/21/2017 04:55:00 0.0
2017_11_21_S9 11/21/2017 05:00:00 0.0
2017_11_21_S9 11/21/2017 05:05:00 0.0002
2017_11_21_S9 11/21/2017 05:10:00 0.0119
2017_11_21_S9 11/21/2017 05:15:00 1.3634
2017_11_21_S9 11/21/2017 05:20:00 1.8682
2017_11_21_S9 11/21/2017 05:25:00 4.391
2017_11_21_S9 11/21/2017 05:30:00 0.6688
2017_11_21_S9 11/21/2017 05:35:00 0.0339
2017_11_21_S9 11/21/2017 05:40:00 0.011
2017_11_21_S9 11/21/2017 05:45:00 0.0
2017_11_21_S9 11/21/2017 05:50:00 0.0038
2017_11_21_S9 11/21/2017 05:55:00 0.0
2017_11_21_S9 11/21/2017 06:00:00 0.0
2017_11_21_S9 11/21/2017 06:05:00 0.0
2017_11_21_S9 11/21/2017 06:10:00 0.0
2017_11_21_S9 11/21/2017 06:15:00 0.0
2017_11_21_S9 11/21/2017 06:20:00 0.0
2017_11_21_S9 11/21/2017 06:25:00 0.0
2017_11_21_S9 11/21/2017 06:30:00 0.0
2017_11_21_S9 11/21/2017 06:35:00 0.0
2017_11_21_S9 11/21/2017 06:40:00 0.0
2017_11_21_S9 11/21/2017 06:45:00 0.0
2017_11_21_S9 11/21/2017 06:50:00 0.0
2017_11_21_S9 11/21/2017 06:55:00 0.0
2017_11_21_S9 11/21/2017 07:00:00 0.0
2017_11_21_S9 11/21/2017 07:05:00 0.0
2017_11_21_S9 11/21/2017 07:10:00 0.0
2017_11_21_S9 11/21/2017 07:15:00 0.0
2017_11_21_S9 11/21/2017 07:20:00 0.0
2017_11_21_S9 11/21/2017 07:25:00 0.0961
2017_11_21_S9 11/21/2017 07:30:00 0.0052
2017_11_21_S9 11/21/2017 07:35:00 0.0245
2017_11_21_S9 11/21/2017 07:40:00 0.0221
2017_11_21_S9 11/21/2017 07:45:00 0.0006
2017_11_21_S9 11/21/2017 07:50:00 0.0
2017_11_21_S9 11/21/2017 07:55:00 0.0
2017_11_21_S9 11/21/2017 08:00:00 0.0031
2017_11_21_S9 11/21/2017 08:05:00 0.3474
2017_11_21_S9 11/21/2017 08:10:00 0.0391
2017_11_21_S9 11/21/2017 08:15:00 0.0279
2017_11_21_S9 11/21/2017 08:20:00 0.0
2017_11_21_S9 11/21/2017 08:25:00 0.0094
2017_11_21_S9 11/21/2017 08:30:00 0.0847
2017_11_21_S9 11/21/2017 08:35:00 0.4377
2017_11_21_S9 11/21/2017 08:40:00 0.1864
2017_11_21_S9 11/21/2017 08:45:00 0.6836
2017_11_21_S9 11/21/2017 08:50:00 0.0003
2017_11_21_S9 11/21/2017 08:55:00 0.0
2017_11_21_S9 11/21/2017 09:00:00 0.0
2017_11_21_S9 11/21/2017 09:05:00 0.0
2017_11_21_S9 11/21/2017 09:10:00 0.0
2017_11_21_S9 11/21/2017 09:15:00 0.0
2017_11_21_S9 11/21/2017 09:20:00 0.0
2017_11_21_S9 11/21/2017 09:25:00 0.0
2017_11_21_S9 11/21/2017 09:30:00 0.0
2017_11_21_S9 11/21/2017 09:35:00 0.0
2017_11_21_S9 11/21/2017 09:40:00 0.0
2017_11_21_S9 11/21/2017 09:45:00 0.0083
2017_11_21_S9 11/21/2017 09:50:00 0.3823
2017_11_21_S9 11/21/2017 09:55:00 0.2214
2017_11_21_S9 11/21/2017 10:00:00 0.0089
2017_11_21_S9 11/21/2017 10:05:00 0.0
2017_11_21_S9 11/21/2017 10:10:00 0.0261
2017_11_21_S9 11/21/2017 10:15:00 0.0
2017_11_21_S9 11/21/2017 10:20:00 0.0
2017_11_21_S9 11/21/2017 10:25:00 0.0
2017_11_21_S9 11/21/2017 10:30:00 0.0032
2017_11_21_S9 11/21/2017 10:35:00 0.0063
2017_11_21_S9 11/21/2017 10:40:00 0.0095
2017_11_21_S9 11/21/2017 10:45:00 0.0
2017_11_21_S9 11/21/2017 10:50:00 0.0
2017_11_21_S9 11/21/2017 10:55:00 0.0
2017_11_21_S9 11/21/2017 11:00:00 0.0031
2017_11_21_S9 11/21/2017 11:05:00 0.0
2017_11_21_S9 11/21/2017 11:10:00 0.0
2017_11_21_S9 11/21/2017 11:15:00 0.0
2017_11_21_S9 11/21/2017 11:20:00 0.0
2017_11_21_S9 11/21/2017 11:25:00 0.0
2017_11_21_S9 11/21/2017 11:30:00 0.0
2017_11_21_S9 11/21/2017 11:35:00 0.0
2017_11_21_S9 11/21/2017 11:40:00 0.0
2017_11_21_S9 11/21/2017 11:45:00 0.0
2017_11_21_S9 11/21/2017 11:50:00 0.0
2017_11_21_S9 11/21/2017 11:55:00 0.0
2017_11_21_S9 11/21/2017 12:00:00 0.0
2017_11_21_S9 11/21/2017 12:05:00 0.0
2017_11_21_S9 11/21/2017 12:10:00 0.0
2017_11_21_S9 11/21/2017 12:15:00 0.0
2017_11_21_S9 11/21/2017 12:20:00 0.0
2017_11_21_S9 11/21/2017 12:25:00 0.0
2017_11_21_S9 11/21/2017 12:30:00 0.0
2017_11_21_S9 11/21/2017 12:35:00 0.0
2017_11_21_S9 11/21/2017 12:40:00 0.0
2017_11_21_S9 11/21/2017 12:45:00 0.0
2017_11_21_S9 11/21/2017 12:50:00 0.0
2017_11_21_S9 11/21/2017 12:55:00 0.0
2017_11_21_S9 11/21/2017 13:00:00 0.0
2017_11_21_S9 11/21/2017 13:05:00 0.0
2017_11_21_S9 11/21/2017 13:10:00 0.0
2017_11_21_S9 11/21/2017 13:15:00 0.0
2017_11_21_S9 11/21/2017 13:20:00 0.0
2017_11_21_S9 11/21/2017 13:25:00 0.0
2017_11_21_S9 11/21/2017 13:30:00 0.0
2017_11_21_S9 11/21/2017 13:35:00 0.0
2017_11_21_S9 11/21/2017 13:40:00 0.0
2017_11_21_S9 11/21/2017 13:45:00 0.0
2017_11_21_S9 11/21/2017 13:50:00 0.0
2017_11_21_S9 11/21/2017 13:55:00 0.0
2017_11_21_S9 11/21/2017 14:00:00 0.0
2017_11_21_S9 11/21/2017 14:05:00 0.0
2017_11_21_S9 11/21/2017 14:10:00 0.0
2017_11_21_S9 11/21/2017 14:15:00 0.0
2017_11_21_S9 11/21/2017 14:20:00 0.0
2017_11_21_S9 11/21/2017 14:25:00 0.0
2017_11_21_S9 11/21/2017 14:30:00 0.0
2017_11_21_S9 11/21/2017 14:35:00 0.0
2017_11_21_S9 11/21/2017 14:40:00 0.0
2017_11_21_S9 11/21/2017 14:45:00 0.0
2017_11_21_S9 11/21/2017 14:50:00 0.0
2017_11_21_S9 11/21/2017 14:55:00 0.0
2017_11_21_S9 11/21/2017 15:00:00 0.0
2017_11_21_S9 11/21/2017 15:05:00 0.0
2017_11_21_S9 11/21/2017 15:10:00 0.0
2017_11_21_S9 11/21/2017 15:15:00 0.0
2017_11_21_S9 11/21/2017 15:20:00 0.0
2017_11_21_S9 11/21/2017 15:25:00 0.0
2017_11_21_S9 11/21/2017 15:30:00 0.0
2017_11_21_S9 11/21/2017 15:35:00 0.0
2017_11_21_S9 11/21/2017 15:40:00 0.0
2017_11_21_S9 11/21/2017 15:45:00 0.0
2017_11_21_S9 11/21/2017 15:50:00 0.0
2017_11_21_S9 11/21/2017 15:55:00 0.0
2017_11_21_S9 11/21/2017 16:00:00 0.0
2017_11_21_S9 11/21/2017 16:05:00 0.0
2017_11_21_S9 11/21/2017 16:10:00 0.0
2017_11_21_S9 11/21/2017 16:15:00 0.0
2017_11_21_S9 11/21/2017 16:20:00 0.0
2017_11_21_S9 11/21/2017 16:25:00 0.0
2017_11_21_S9 11/21/2017 16:30:00 0.0
2017_11_21_S9 11/21/2017 16:35:00 0.0
2017_11_21_S9 11/21/2017 16:40:00 0.0
2017_11_21_S9 11/21/2017 16:45:00 0.0
2017_11_21_S9 11/21/2017 16:50:00 0.0
2017_11_21_S9 11/21/2017 16:55:00 0.0
2017_11_21_S9 11/21/2017 17:00:00 0.0
2017_11_21_S9 11/21/2017 17:05:00 0.0
2017_11_21_S9 11/21/2017 17:10:00 0.0
2017_11_21_S9 11/21/2017 17:15:00 0.0
2017_11_21_S9 11/21/2017 17:20:00 0.0
2017_11_21_S9 11/21/2017 17:25:00 0.0
2017_11_21_S9 11/21/2017 17:30:00 0.0
2017_11_21_S9 11/21/2017 17:35:00 0.0
2017_11_21_S9 11/21/2017 17:40:00 0.0
2017_11_21_S9 11/21/2017 17:45:00 0.0
2017_11_21_S9 11/21/2017 17:50:00 0.0
2017_11_21_S9 11/21/2017 17:55:00 0.0
2017_11_21_S9 11/21/2017 18:00:00 0.0
2017_11_21_S9 11/21/2017 18:05:00 0.0
2017_11_21_S9 11/21/2017 18:10:00 0.0
2017_11_21_S9 11/21/2017 18:15:00 0.0
2017_11_21_S9 11/21/2017 18:20:00 0.0
2017_11_21_S9 11/21/2017 18:25:00 0.0
2017_11_21_S9 11/21/2017 18:30:00 0.0
2017_11_21_S9 11/21/2017 18:35:00 0.0
2017_11_21_S9 11/21/2017 18:40:00 0.0
2017_11_21_S9 11/21/2017 18:45:00 0.0
2017_11_21_S9 11/21/2017 18:50:00 0.0
2017_11_21_S9 11/21/2017 18:55:00 0.0
2017_11_21_S9 11/21/2017 19:00:00 0.0
2017_11_21_S9 11/21/2017 19:05:00 0.0
2017_11_21_S9 11/21/2017 19:10:00 0.0
2017_11_21_S9 11/21/2017 19:15:00 0.0
2017_11_21_S9 11/21/2017 19:20:00 0.0
2017_11_21_S9 11/21/2017 19:25:00 0.0
2017_11_21_S9 11/21/2017 19:30:00 0.0
2017_11_21_S9 11/21/2017 19:35:00 0.0
2017_11_21_S9 11/21/2017 19:40:00 0.0
2017_11_21_S9 11/21/2017 19:45:00 0.0
2017_11_21_S9 11/21/2017 19:50:00 0.0
2017_11_21_S9 11/21/2017 19:55:00 0.0
2017_11_21_S9 11/21/2017 20:00:00 0.0
2017_11_21_S9 11/21/2017 20:05:00 0.0
2017_11_21_S9 11/21/2017 20:10:00 0.0
2017_11_21_S9 11/21/2017 20:15:00 0.0
2017_11_21_S9 11/21/2017 20:20:00 0.0
2017_11_21_S9 11/21/2017 20:25:00 0.0
2017_11_21_S9 11/21/2017 20:30:00 0.0
2017_11_21_S9 11/21/2017 20:35:00 0.0
2017_11_21_S9 11/21/2017 20:40:00 0.0
2017_11_21_S9 11/21/2017 20:45:00 0.0
2017_11_21_S9 11/21/2017 20:50:00 0.0
2017_11_21_S9 11/21/2017 20:55:00 0.0
2017_11_21_S9 11/21/2017 21:00:00 0.0
2017_11_21_S9 11/21/2017 21:05:00 0.0
2017_11_21_S9 11/21/2017 21:10:00 0.0
2017_11_21_S9 11/21/2017 21:15:00 0.0
2017_11_21_S9 11/21/2017 21:20:00 0.0
2017_11_21_S9 11/21/2017 21:25:00 0.0
2017_11_21_S9 11/21/2017 21:30:00 0.0
2017_11_21_S9 11/21/2017 21:35:00 0.0
2017_11_21_S9 11/21/2017 21:40:00 0.0
2017_11_21_S9 11/21/2017 21:45:00 0.0
2017_11_21_S9 11/21/2017 21:50:00 0.0
2017_11_21_S9 11/21/2017 21:55:00 0.0
2017_11_21_S9 11/21/2017 22:00:00 0.0
2017_11_21_S9 11/21/2017 22:05:00 0.0
2017_11_21_S9 11/21/2017 22:10:00 0.0
2017_11_21_S9 11/21/2017 22:15:00 0.0
2017_11_21_S9 11/21/2017 22:20:00 0.0
2017_11_21_S9 11/21/2017 22:25:00 0.0
2017_11_21_S9 11/21/2017 22:30:00 0.0
2017_11_21_S9 11/21/2017 22:35:00 0.0
2017_11_21_S9 11/21/2017 22:40:00 0.0031
2017_11_21_S9 11/21/2017 22:45:00 0.0
2017_11_21_S9 11/21/2017 22:50:00 0.0
2017_11_21_S9 11/21/2017 22:55:00 0.0001
2017_11_21_S9 11/21/2017 23:00:00 0.0
2017_11_21_S9 11/21/2017 23:05:00 0.0075
2017_11_21_S9 11/21/2017 23:10:00 0.0074
2017_11_21_S9 11/21/2017 23:15:00 0.0
2017_11_21_S9 11/21/2017 23:20:00 0.0
2017_11_21_S9 11/21/2017 23:25:00 0.0
2017_11_21_S9 11/21/2017 23:30:00 0.0
2017_11_21_S9 11/21/2017 23:35:00 0.0
2017_11_21_S9 11/21/2017 23:40:00 0.0
2017_11_21_S9 11/21/2017 23:45:00 0.0
2017_11_21_S9 11/21/2017 23:50:00 0.0
2017_11_21_S9 11/21/2017 23:55:00 0.0
2017_11_21_S9 11/22/2017 00:00:00 0.0
2017_11_21_S9 11/22/2017 00:05:00 0.0
2017_11_21_S9 11/22/2017 00:10:00 0.0
2017_11_21_S9 11/22/2017 00:15:00 0.0
2017_11_21_S9 11/22/2017 00:20:00 0.0
2017_11_21_S9 11/22/2017 00:25:00 0.0
2017_11_21_S9 11/22/2017 00:30:00 0.0
2017_11_21_S9 11/22/2017 00:35:00 0.0
2017_11_21_S9 11/22/2017 00:40:00 0.0
2017_11_21_S9 11/22/2017 00:45:00 0.0
2017_11_21_S9 11/22/2017 00:50:00 0.0
2017_11_21_S9 11/22/2017 00:55:00 0.0
2017_11_21_S9 11/22/2017 01:00:00 0.0
2017_11_21_S9 11/22/2017 01:05:00 0.0
2017_11_21_S9 11/22/2017 01:10:00 0.0
2017_11_21_S9 11/22/2017 01:15:00 0.0
2017_11_21_S9 11/22/2017 01:20:00 0.0024
2017_11_21_S9 11/22/2017 01:25:00 0.0
2017_11_21_S9 11/22/2017 01:30:00 0.0004
2017_11_21_S9 11/22/2017 01:35:00 0.0078
2017_11_21_S9 11/22/2017 01:40:00 0.0
2017_11_21_S9 11/22/2017 01:45:00 0.0211
2017_11_21_S9 11/22/2017 01:50:00 0.0
2017_11_21_S9 11/22/2017 01:55:00 0.0
2017_11_21_S9 11/22/2017 02:00:00 0.0
2017_11_21_S9 11/22/2017 02:05:00 0.0
2017_11_21_S9 11/22/2017 02:10:00 0.0
2017_11_21_S9 11/22/2017 02:15:00 0.0003
2017_11_21_S9 11/22/2017 02:20:00 0.0
2017_11_21_S9 11/22/2017 02:25:00 0.0
2017_11_21_S9 11/22/2017 02:30:00 0.0
2017_11_21_S9 11/22/2017 02:35:00 0.0
2017_11_21_S9 11/22/2017 02:40:00 0.0
2017_11_21_S9 11/22/2017 02:45:00 0.0
2017_11_21_S9 11/22/2017 02:50:00 0.0
2017_11_21_S9 11/22/2017 02:55:00 0.0
2017_11_21_S9 11/22/2017 03:00:00 0.0
2017_11_21_S9 11/22/2017 03:05:00 0.0
2017_11_21_S9 11/22/2017 03:10:00 0.0
2017_11_21_S9 11/22/2017 03:15:00 0.0
2017_11_21_S9 11/22/2017 03:20:00 0.0
2017_11_21_S9 11/22/2017 03:25:00 0.0
2017_11_21_S9 11/22/2017 03:30:00 0.0
2017_11_21_S9 11/22/2017 03:35:00 0.0
2017_11_21_S9 11/22/2017 03:40:00 0.0
2017_11_21_S9 11/22/2017 03:45:00 0.0
2017_11_21_S9 11/22/2017 03:50:00 0.0
2017_11_21_S9 11/22/2017 03:55:00 0.0
2017_11_21_S9 11/22/2017 04:00:00 0.0
2017_11_21_S9 11/22/2017 04:05:00 0.0
2017_11_21_S9 11/22/2017 04:10:00 0.0
2017_11_21_S9 11/22/2017 04:15:00 0.0
2017_11_21_S9 11/22/2017 04:20:00 0.0
2017_11_21_S9 11/22/2017 04:25:00 0.0
2017_11_21_S9 11/22/2017 04:30:00 0.0
2017_11_21_S9 11/22/2017 04:35:00 0.0
2017_11_21_S9 11/22/2017 04:40:00 0.0
2017_11_21_S9 11/22/2017 04:45:00 0.0
2017_11_21_S9 11/22/2017 04:50:00 0.0
2017_11_21_S9 11/22/2017 04:55:00 0.0
2017_11_21_S9 11/22/2017 05:00:00 0.0
2017_11_21_S9 11/22/2017 05:05:00 0.0
2017_11_21_S9 11/22/2017 05:10:00 0.0
2017_11_21_S9 11/22/2017 05:15:00 0.0
2017_11_21_S9 11/22/2017 05:20:00 0.0
2017_11_21_S9 11/22/2017 05:25:00 0.0
2017_11_21_S9 11/22/2017 05:30:00 0.0
2017_11_21_S9 11/22/2017 05:35:00 0.0
2017_11_21_S9 11/22/2017 05:40:00 0.0
2017_11_21_S9 11/22/2017 05:45:00 0.0
2017_11_21_S9 11/22/2017 05:50:00 0.0
2017_11_21_S9 11/22/2017 05:55:00 0.0
2017_11_21_S9 11/22/2017 06:00:00 0.0
2017_11_21_S9 11/22/2017 06:05:00 0.0
2017_11_21_S9 11/22/2017 06:10:00 0.0
2017_11_21_S9 11/22/2017 06:15:00 0.0
2017_11_21_S9 11/22/2017 06:20:00 0.0
2017_11_21_S9 11/22/2017 06:25:00 0.0
2017_11_21_S9 11/22/2017 06:30:00 0.0
2017_11_21_S9 11/22/2017 06:35:00 0.0
2017_11_21_S9 11/22/2017 06:40:00 0.0
2017_11_21_S9 11/22/2017 06:45:00 0.0
2017_11_21_S9 11/22/2017 06:50:00 0.0
2017_11_21_S9 11/22/2017 06:55:00 0.0
2017_11_21_S9 11/22/2017 07:00:00 0.0
2017_11_21_S9 11/22/2017 07:05:00 0.0
2017_11_21_S9 11/22/2017 07:10:00 0.0
2017_11_21_S9 11/22/2017 07:15:00 0.0
2017_11_21_S9 11/22/2017 07:20:00 0.0
2017_11_21_S9 11/22/2017 07:25:00 0.0
2017_11_21_S9 11/22/2017 07:30:00 0.0
2017_11_21_S9 11/22/2017 07:35:00 0.0
2017_11_21_S9 11/22/2017 07:40:00 0.0
2017_11_21_S9 11/22/2017 07:45:00 0.0
2017_11_21_S9 11/22/2017 07:50:00 0.0
2017_11_21_S9 11/22/2017 07:55:00 0.0
2017_11_21_S9 11/22/2017 08:00:00 0.0

2017_11_21_S10 11/20/2017 22:55:00 0.0293
2017_11_21_S10 11/20/2017 23:00:00 0.1096
2017_11_21_S10 11/20/2017 23:05:00 0.0587
2017_11_21_S10 11/20/2017 23:10:00 0.0
2017_11_21_S10 11/20/2017 23:15:00 0.0
2017_11_21_S10 11/20/2017 23:20:00 0.0
2017_11_21_S10 11/20/2017 23:25:00 0.0
2017_11_21_S10 11/20/2017 23:30:00 0.0
2017_11_21_S10 11/20/2017 23:35:00 0.0
2017_11_21_S10 11/20/2017 23:40:00 0.0
2017_11_21_S10 11/20/2017 23:45:00 0.0
2017_11_21_S10 11/20/2017 23:50:00 0.0
2017_11_21_S10 11/20/2017 23:55:00 0.0
2017_11_21_S10 11/21/2017 00:00:00 0.0
2017_11_21_S10 11/21/2017 00:05:00 0.0
2017_11_21_S10 11/21/2017 00:10:00 0.0
2017_11_21_S10 11/21/2017 00:15:00 0.0
2017_11_21_S10 11/21/2017 00:20:00 0.0
2017_11_21_S10 11/21/2017 00:25:00 0.0
2017_11_21_S10 11/21/2017 00:30:00 0.0
2017_11_21_S10 11/21/2017 00:35:00 0.0
2017_11_21_S10 11/21/2017 00:40:00 0.0
2017_11_21_S10 11/21/2017 00:45:00 0.0
2017_11_21_S10 11/21/2017 00:50:00 0.015
2017_11_21_S10 11/21/2017 00:55:00 0.0
2017_11_21_S10 11/21/2017 01:00:00 0.0
2017_11_21_S10 11/21/2017 01:05:00 0.0
2017_11_21_S10 11/21/2017 01:10:00 0.0
2017_11_21_S10 11/21/2017 01:15:00 0.4979
2017_11_21_S10 11/21/2017 01:20:00 0.084
2017_11_21_S10 11/21/2017 01:25:00 0.1052
2017_11_21_S10 11/21/2017 01:30:00 0.0527
2017_11_21_S10 11/21/2017 01:35:00 0.0081
2017_11_21_S10 11/21/2017 01:40:00 0.0
2017_11_21_S10 11/21/2017 01:45:00 0.0
2017_11_21_S10 11/21/2017 01:50:00 0.0
2017_11_21_S10 11/21/2017 01:55:00 0.0
2017_11_21_S10 11/21/2017 02:00:00 0.0
2017_11_21_S10 11/21/2017 02:05:00 0.0071
2017_11_21_S10 11/21/2017 02:10:00 0.0339
2017_11_21_S10 11/21/2017 02:15:00 0.2895
2017_11_21_S10 11/21/2017 02:20:00 0.0414
2017_11_21_S10 11/21/2017 02:25:00 0.0614
2017_11_21_S10 11/21/2017 02:30:00 0.0471
2017_11_21_S10 11/21/2017 02:35:00 0.172
2017_11_21_S10 11/21/2017 02:40:00 0.0339
2017_11_21_S10 11/21/2017 02:45:00 0.0
2017_11_21_S10 11/21/2017 02:50:00 0.0
2017_11_21_S10 11/21/2017 02:55:00 0.0
2017_11_21_S10 11/21/2017 03:00:00 0.0
2017_11_21_S10 11/21/2017 03:05:00 0.0
2017_11_21_S10 11/21/2017 03:10:00 0.0
2017_11_21_S10 11/21/2017 03:15:00 0.0
2017_11_21_S10 11/21/2017 03:20:00 0.0007
2017_11_21_S10 11/21/2017 03:25:00 0.0454
2017_11_21_S10 11/21/2017 03:30:00 0.0009
2017_11_21_S10 11/21/2017 03:35:00 0.005
2017_11_21_S10 11/21/2017 03:40:00 0.0045
2017_11_21_S10 11/21/2017 03:45:00 0.4183
2017_11_21_S10 11/21/2017 03:50:00 0.2051
2017_11_21_S10 11/21/2017 03:55:00 0.0468
2017_11_21_S10 11/21/2017 04:00:00 0.0274
2017_11_21_S10 11/21/2017 04:05:00 0.008
2017_11_21_S10 11/21/2017 04:10:00 0.1184
2017_11_21_S10 11/21/2017 04:15:00 0.0543
2017_11_21_S10 11/21/2017 04:20:00 0.0163
2017_11_21_S10 11/21/2017 04:25:00 0.014
2017_11_21_S10 11/21/2017 04:30:00 3.0543
2017_11_21_S10 11/21/2017 04:35:00 0.1361
2017_11_21_S10 11/21/2017 04:40:00 0.014
2017_11_21_S10 11/21/2017 04:45:00 0.0085
2017_11_21_S10 11/21/2017 04:50:00 0.0
2017_11_21_S10 11/21/2017 04:55:00 0.0
2017_11_21_S10 11/21/2017 05:00:00 0.0
2017_11_21_S10 11/21/2017 05:05:00 0.0001
2017_11_21_S10 11/21/2017 05:10:00 0.009
2017_11_21_S10 11/21/2017 05:15:00 2.0576
2017_11_21_S10 11/21/2017 05:20:00 1.0131
2017_11_21_S10 11/21/2017 05:25:00 4.6897
2017_11_21_S10 11/21/2017 05:30:00 0.2991
2017_11_21_S10 11/21/2017 05:35:00 0.0215
2017_11_21_S10 11/21/2017 05:40:00 0.0084
2017_11_21_S10 11/21/2017 05:45:00 0.0
2017_11_21_S10 11/21/2017 05:50:00 0.0068
2017_11_21_S10 11/21/2017 05:55:00 0.0
2017_11_21_S10 11/21/2017 06:00:00 0.0
2017_11_21_S10 11/21/2017 06:05:00 0.0
2017_11_21_S10 11/21/2017 06:10:00 0.0
2017_11_21_S10 11/21/2017 06:15:00 0.0
2017_11_21_S10 11/21/2017 06:20:00 0.0
2017_11_21_S10 11/21/2017 06:25:00 0.0
2017_11_21_S10 11/21/2017 06:30:00 0.0
2017_11_21_S10 11/21/2017 06:35:00 0.0
2017_11_21_S10 11/21/2017 06:40:00 0.0
2017_11_21_S10 11/21/2017 06:45:00 0.0
2017_11_21_S10 11/21/2017 06:50:00 0.0
2017_11_21_S10 11/21/2017 06:55:00 0.0
2017_11_21_S10 11/21/2017 07:00:00 0.0
2017_11_21_S10 11/21/2017 07:05:00 0.0
2017_11_21_S10 11/21/2017 07:10:00 0.0
2017_11_21_S10 11/21/2017 07:15:00 0.0
2017_11_21_S10 11/21/2017 07:20:00 0.0
2017_11_21_S10 11/21/2017 07:25:00 0.2744
2017_11_21_S10 11/21/2017 07:30:00 0.0027
2017_11_21_S10 11/21/2017 07:35:00 0.0171
2017_11_21_S10 11/21/2017 07:40:00 0.037
2017_11_21_S10 11/21/2017 07:45:00 0.0012
2017_11_21_S10 11/21/2017 07:50:00 0.0
2017_11_21_S10 11/21/2017 07:55:00 0.0
2017_11_21_S10 11/21/2017 08:00:00 0.0
2017_11_21_S10 11/21/2017 08:05:00 0.3364
2017_11_21_S10 11/21/2017 08:10:00 0.0054
2017_11_21_S10 11/21/2017 08:15:00 0.0317
2017_11_21_S10 11/21/2017 08:20:00 0.0
2017_11_21_S10 11/21/2017 08:25:00 0.0157
2017_11_21_S10 11/21/2017 08:30:00 0.0174
2017_11_21_S10 11/21/2017 08:35:00 0.1051
2017_11_21_S10 11/21/2017 08:40:00 0.2513
2017_11_21_S10 11/21/2017 08:45:00 1.1845
2017_11_21_S10 11/21/2017 08:50:00 0.0001
2017_11_21_S10 11/21/2017 08:55:00 0.0
2017_11_21_S10 11/21/2017 09:00:00 0.0
2017_11_21_S10 11/21/2017 09:05:00 0.0
2017_11_21_S10 11/21/2017 09:10:00 0.0
2017_11_21_S10 11/21/2017 09:15:00 0.0
2017_11_21_S10 11/21/2017 09:20:00 0.0
2017_11_21_S10 11/21/2017 09:25:00 0.0
2017_11_21_S10 11/21/2017 09:30:00 0.0
2017_11_21_S10 11/21/2017 09:35:00 0.0
2017_11_21_S10 11/21/2017 09:40:00 0.0
2017_11_21_S10 11/21/2017 09:45:00 0.0008
2017_11_21_S10 11/21/2017 09:50:00 0.7407
2017_11_21_S10 11/21/2017 09:55:00 0.2082
2017_11_21_S10 11/21/2017 10:00:00 0.0148
2017_11_21_S10 11/21/2017 10:05:00 0.0
2017_11_21_S10 11/21/2017 10:10:00 0.0425
2017_11_21_S10 11/21/2017 10:15:00 0.0
2017_11_21_S10 11/21/2017 10:20:00 0.0
2017_11_21_S10 11/21/2017 10:25:00 0.0
2017_11_21_S10 11/21/2017 10:30:00 0.0053
2017_11_21_S10 11/21/2017 10:35:00 0.0107
2017_11_21_S10 11/21/2017 10:40:00 0.016
2017_11_21_S10 11/21/2017 10:45:00 0.0
2017_11_21_S10 11/21/2017 10:50:00 0.0
2017_11_21_S10 11/21/2017 10:55:00 0.0
2017_11_21_S10 11/21/2017 11:00:00 0.0056
2017_11_21_S10 11/21/2017 11:05:00 0.0
2017_11_21_S10 11/21/2017 11:10:00 0.0
2017_11_21_S10 11/21/2017 11:15:00 0.0
2017_11_21_S10 11/21/2017 11:20:00 0.0
2017_11_21_S10 11/21/2017 11:25:00 0.0
2017_11_21_S10 11/21/2017 11:30:00 0.0
2017_11_21_S10 11/21/2017 11:35:00 0.0
2017_11_21_S10 11/21/2017 11:40:00 0.0
2017_11_21_S10 11/21/2017 11:45:00 0.0
2017_11_21_S10 11/21/2017 11:50:00 0.0
2017_11_21_S10 11/21/2017 11:55:00 0.0
2017_11_21_S10 11/21/2017 12:00:00 0.0
2017_11_21_S10 11/21/2017 12:05:00 0.0
2017_11_21_S10 11/21/2017 12:10:00 0.0
2017_11_21_S10 11/21/2017 12:15:00 0.0
2017_11_21_S10 11/21/2017 12:20:00 0.0
2017_11_21_S10 11/21/2017 12:25:00 0.0
2017_11_21_S10 11/21/2017 12:30:00 0.0
2017_11_21_S10 11/21/2017 12:35:00 0.0
2017_11_21_S10 11/21/2017 12:40:00 0.0
2017_11_21_S10 11/21/2017 12:45:00 0.0
2017_11_21_S10 11/21/2017 12:50:00 0.0
2017_11_21_S10 11/21/2017 12:55:00 0.0
2017_11_21_S10 11/21/2017 13:00:00 0.0
2017_11_21_S10 11/21/2017 13:05:00 0.0
2017_11_21_S10 11/21/2017 13:10:00 0.0
2017_11_21_S10 11/21/2017 13:15:00 0.0
2017_11_21_S10 11/21/2017 13:20:00 0.0
2017_11_21_S10 11/21/2017 13:25:00 0.0
2017_11_21_S10 11/21/2017 13:30:00 0.0
2017_11_21_S10 11/21/2017 13:35:00 0.0
2017_11_21_S10 11/21/2017 13:40:00 0.0
2017_11_21_S10 11/21/2017 13:45:00 0.0
2017_11_21_S10 11/21/2017 13:50:00 0.0
2017_11_21_S10 11/21/2017 13:55:00 0.0
2017_11_21_S10 11/21/2017 14:00:00 0.0
2017_11_21_S10 11/21/2017 14:05:00 0.0
2017_11_21_S10 11/21/2017 14:10:00 0.0
2017_11_21_S10 11/21/2017 14:15:00 0.0
2017_11_21_S10 11/21/2017 14:20:00 0.0
2017_11_21_S10 11/21/2017 14:25:00 0.0
2017_11_21_S10 11/21/2017 14:30:00 0.0
2017_11_21_S10 11/21/2017 14:35:00 0.0
2017_11_21_S10 11/21/2017 14:40:00 0.0
2017_11_21_S10 11/21/2017 14:45:00 0.0
2017_11_21_S10 11/21/2017 14:50:00 0.0
2017_11_21_S10 11/21/2017 14:55:00 0.0
2017_11_21_S10 11/21/2017 15:00:00 0.0
2017_11_21_S10 11/21/2017 15:05:00 0.0
2017_11_21_S10 11/21/2017 15:10:00 0.0
2017_11_21_S10 11/21/2017 15:15:00 0.0
2017_11_21_S10 11/21/2017 15:20:00 0.0
2017_11_21_S10 11/21/2017 15:25:00 0.0
2017_11_21_S10 11/21/2017 15:30:00 0.0
2017_11_21_S10 11/21/2017 15:35:00 0.0
2017_11_21_S10 11/21/2017 15:40:00 0.0
2017_11_21_S10 11/21/2017 15:45:00 0.0
2017_11_21_S10 11/21/2017 15:50:00 0.0
2017_11_21_S10 11/21/2017 15:55:00 0.0
2017_11_21_S10 11/21/2017 16:00:00 0.0
2017_11_21_S10 11/21/2017 16:05:00 0.0
2017_11_21_S10 11/21/2017 16:10:00 0.0
2017_11_21_S10 11/21/2017 16:15:00 0.0
2017_11_21_S10 11/21/2017 16:20:00 0.0
2017_11_21_S10 11/21/2017 16:25:00 0.0
2017_11_21_S10 11/21/2017 16:30:00 0.0
2017_11_21_S10 11/21/2017 16:35:00 0.0
2017_11_21_S10 11/21/2017 16:40:00 0.0
2017_11_21_S10 11/21/2017 16:45:00 0.0
2017_11_21_S10 11/21/2017 16:50:00 0.0
2017_11_21_S10 11/21/2017 16:55:00 0.0
2017_11_21_S10 11/21/2017 17:00:00 0.0
2017_11_21_S10 11/21/2017 17:05:00 0.0
2017_11_21_S10 11/21/2017 17:10:00 0.0
2017_11_21_S10 11/21/2017 17:15:00 0.0
2017_11_21_S10 11/21/2017 17:20:00 0.0
2017_11_21_S10 11/21/2017 17:25:00 0.0
2017_11_21_S10 11/21/2017 17:30:00 0.0
2017_11_21_S10 11/21/2017 17:35:00 0.0
2017_11_21_S10 11/21/2017 17:40:00 0.0
2017_11_21_S10 11/21/2017 17:45:00 0.0
2017_11_21_S10 11/21/2017 17:50:00 0.0
2017_11_21_S10 11/21/2017 17:55:00 0.0
2017_11_21_S10 11/21/2017 18:00:00 0.0
2017_11_21_S10 11/21/2017 18:05:00 0.0
2017_11_21_S10 11/21/2017 18:10:00 0.0
2017_11_21_S10 11/21/2017 18:15:00 0.0
2017_11_21_S10 11/21/2017 18:20:00 0.0
2017_11_21_S10 11/21/2017 18:25:00 0.0
2017_11_21_S10 11/21/2017 18:30:00 0.0
2017_11_21_S10 11/21/2017 18:35:00 0.0
2017_11_21_S10 11/21/2017 18:40:00 0.0
2017_11_21_S10 11/21/2017 18:45:00 0.0
2017_11_21_S10 11/21/2017 18:50:00 0.0
2017_11_21_S10 11/21/2017 18:55:00 0.0
2017_11_21_S10 11/21/2017 19:00:00 0.0
2017_11_21_S10 11/21/2017 19:05:00 0.0
2017_11_21_S10 11/21/2017 19:10:00 0.0
2017_11_21_S10 11/21/2017 19:15:00 0.0
2017_11_21_S10 11/21/2017 19:20:00 0.0
2017_11_21_S10 11/21/2017 19:25:00 0.0
2017_11_21_S10 11/21/2017 19:30:00 0.0
2017_11_21_S10 11/21/2017 19:35:00 0.0
2017_11_21_S10 11/21/2017 19:40:00 0.0
2017_11_21_S10 11/21/2017 19:45:00 0.0
2017_11_21_S10 11/21/2017 19:50:00 0.0
2017_11_21_S10 11/21/2017 19:55:00 0.0
2017_11_21_S10 11/21/2017 20:00:00 0.0
2017_11_21_S10 11/21/2017 20:05:00 0.0
2017_11_21_S10 11/21/2017 20:10:00 0.0
2017_11_21_S10 11/21/2017 20:15:00 0.0
2017_11_21_S10 11/21/2017 20:20:00 0.0
2017_11_21_S10 11/21/2017 20:25:00 0.0
2017_11_21_S10 11/21/2017 20:30:00 0.0
2017_11_21_S10 11/21/2017 20:35:00 0.0
2017_11_21_S10 11/21/2017 20:40:00 0.0
2017_11_21_S10 11/21/2017 20:45:00 0.0
2017_11_21_S10 11/21/2017 20:50:00 0.0
2017_11_21_S10 11/21/2017 20:55:00 0.0
2017_11_21_S10 11/21/2017 21:00:00 0.0
2017_11_21_S10 11/21/2017 21:05:00 0.0
2017_11_21_S10 11/21/2017 21:10:00 0.0
2017_11_21_S10 11/21/2017 21:15:00 0.0
2017_11_21_S10 11/21/2017 21:20:00 0.0
2017_11_21_S10 11/21/2017 21:25:00 0.0
2017_11_21_S10 11/21/2017 21:30:00 0.0
2017_11_21_S10 11/21/2017 21:35:00 0.0
2017_11_21_S10 11/21/2017 21:40:00 0.0
2017_11_21_S10 11/21/2017 21:45:00 0.0
2017_11_21_S10 11/21/2017 21:50:00 0.0
2017_11_21_S10 11/21/2017 21:55:00 0.0
2017_11_21_S10 11/21/2017 22:00:00 0.0
2017_11_21_S10 11/21/2017 22:05:00 0.0
2017_11_21_S10 11/21/2017 22:10:00 0.0
2017_11_21_S10 11/21/2017 22:15:00 0.0
2017_11_21_S10 11/21/2017 22:20:00 0.0
2017_11_21_S10 11/21/2017 22:25:00 0.0
2017_11_21_S10 11/21/2017 22:30:00 0.0
2017_11_21_S10 11/21/2017 22:35:00 0.0
2017_11_21_S10 11/21/2017 22:40:00 0.0001
2017_11_21_S10 11/21/2017 22:45:00 0.0
2017_11_21_S10 11/21/2017 22:50:00 0.0
2017_11_21_S10 11/21/2017 22:55:00 0.0061
2017_11_21_S10 11/21/2017 23:00:00 0.0
2017_11_21_S10 11/21/2017 23:05:00 0.0016
2017_11_21_S10 11/21/2017 23:10:00 0.0058
2017_11_21_S10 11/21/2017 23:15:00 0.0
2017_11_21_S10 11/21/2017 23:20:00 0.0
2017_11_21_S10 11/21/2017 23:25:00 0.0
2017_11_21_S10 11/21/2017 23:30:00 0.0
2017_11_21_S10 11/21/2017 23:35:00 0.0
2017_11_21_S10 11/21/2017 23:40:00 0.0
2017_11_21_S10 11/21/2017 23:45:00 0.0
2017_11_21_S10 11/21/2017 23:50:00 0.0
2017_11_21_S10 11/21/2017 23:55:00 0.0
2017_11_21_S10 11/22/2017 00:00:00 0.0
2017_11_21_S10 11/22/2017 00:05:00 0.0
2017_11_21_S10 11/22/2017 00:10:00 0.0
2017_11_21_S10 11/22/2017 00:15:00 0.0
2017_11_21_S10 11/22/2017 00:20:00 0.0
2017_11_21_S10 11/22/2017 00:25:00 0.0
2017_11_21_S10 11/22/2017 00:30:00 0.0
2017_11_21_S10 11/22/2017 00:35:00 0.0
2017_11_21_S10 11/22/2017 00:40:00 0.0
2017_11_21_S10 11/22/2017 00:45:00 0.0
2017_11_21_S10 11/22/2017 00:50:00 0.0
2017_11_21_S10 11/22/2017 00:55:00 0.0
2017_11_21_S10 11/22/2017 01:00:00 0.0
2017_11_21_S10 11/22/2017 01:05:00 0.0
2017_11_21_S10 11/22/2017 01:10:00 0.0
2017_11_21_S10 11/22/2017 01:15:00 0.0
2017_11_21_S10 11/22/2017 01:20:00 0.0009
2017_11_21_S10 11/22/2017 01:25:00 0.0
2017_11_21_S10 11/22/2017 01:30:00 0.0001
2017_11_21_S10 11/22/2017 01:35:00 0.0091
2017_11_21_S10 11/22/2017 01:40:00 0.0
2017_11_21_S10 11/22/2017 01:45:00 0.0011
2017_11_21_S10 11/22/2017 01:50:00 0.0
2017_11_21_S10 11/22/2017 01:55:00 0.0
2017_11_21_S10 11/22/2017 02:00:00 0.0
2017_11_21_S10 11/22/2017 02:05:00 0.0
2017_11_21_S10 11/22/2017 02:10:00 0.0
2017_11_21_S10 11/22/2017 02:15:00 0.0001
2017_11_21_S10 11/22/2017 02:20:00 0.0
2017_11_21_S10 11/22/2017 02:25:00 0.0
2017_11_21_S10 11/22/2017 02:30:00 0.0
2017_11_21_S10 11/22/2017 02:35:00 0.0
2017_11_21_S10 11/22/2017 02:40:00 0.0
2017_11_21_S10 11/22/2017 02:45:00 0.0
2017_11_21_S10 11/22/2017 02:50:00 0.0
2017_11_21_S10 11/22/2017 02:55:00 0.0
2017_11_21_S10 11/22/2017 03:00:00 0.0
2017_11_21_S10 11/22/2017 03:05:00 0.0
2017_11_21_S10 11/22/2017 03:10:00 0.0
2017_11_21_S10 11/22/2017 03:15:00 0.0
2017_11_21_S10 11/22/2017 03:20:00 0.0
2017_11_21_S10 11/22/2017 03:25:00 0.0
2017_11_21_S10 11/22/2017 03:30:00 0.0
2017_11_21_S10 11/22/2017 03:35:00 0.0
2017_11_21_S10 11/22/2017 03:40:00 0.0
2017_11_21_S10 11/22/2017 03:45:00 0.0
2017_11_21_S10 11/22/2017 03:50:00 0.0
2017_11_21_S10 11/22/2017 03:55:00 0.0
2017_11_21_S10 11/22/2017 04:00:00 0.0
2017_11_21_S10 11/22/2017 04:05:00 0.0
2017_11_21_S10 11/22/2017 04:10:00 0.0
2017_11_21_S10 11/22/2017 04:15:00 0.0
2017_11_21_S10 11/22/2017 04:20:00 0.0
2017_11_21_S10 11/22/2017 04:25:00 0.0
2017_11_21_S10 11/22/2017 04:30:00 0.0
2017_11_21_S10 11/22/2017 04:35:00 0.0
2017_11_21_S10 11/22/2017 04:40:00 0.0
2017_11_21_S10 11/22/2017 04:45:00 0.0
2017_11_21_S10 11/22/2017 04:50:00 0.0
2017_11_21_S10 11/22/2017 04:55:00 0.0
2017_11_21_S10 11/22/2017 05:00:00 0.0
2017_11_21_S10 11/22/2017 05:05:00 0.0
2017_11_21_S10 11/22/2017 05:10:00 0.0
2017_11_21_S10 11/22/2017 05:15:00 0.0
2017_11_21_S10 11/22/2017 05:20:00 0.0
2017_11_21_S10 11/22/2017 05:25:00 0.0
2017_11_21_S10 11/22/2017 05:30:00 0.0
2017_11_21_S10 11/22/2017 05:35:00 0.0
2017_11_21_S10 11/22/2017 05:40:00 0.0
2017_11_21_S10 11/22/2017 05:45:00 0.0
2017_11_21_S10 11/22/2017 05:50:00 0.0
2017_11_21_S10 11/22/2017 05:55:00 0.0
2017_11_21_S10 11/22/2017 06:00:00 0.0
2017_11_21_S10 11/22/2017 06:05:00 0.0
2017_11_21_S10 11/22/2017 06:10:00 0.0
2017_11_21_S10 11/22/2017 06:15:00 0.0
2017_11_21_S10 11/22/2017 06:20:00 0.0
2017_11_21_S10 11/22/2017 06:25:00 0.0
2017_11_21_S10 11/22/2017 06:30:00 0.0
2017_11_21_S10 11/22/2017 06:35:00 0.0
2017_11_21_S10 11/22/2017 06:40:00 0.0
2017_11_21_S10 11/22/2017 06:45:00 0.0
2017_11_21_S10 11/22/2017 06:50:00 0.0
2017_11_21_S10 11/22/2017 06:55:00 0.0
2017_11_21_S10 11/22/2017 07:00:00 0.0
2017_11_21_S10 11/22/2017 07:05:00 0.0
2017_11_21_S10 11/22/2017 07:10:00 0.0
2017_11_21_S10 11/22/2017 07:15:00 0.0
2017_11_21_S10 11/22/2017 07:20:00 0.0
2017_11_21_S10 11/22/2017 07:25:00 0.0
2017_11_21_S10 11/22/2017 07:30:00 0.0
2017_11_21_S10 11/22/2017 07:35:00 0.0
2017_11_21_S10 11/22/2017 07:40:00 0.0
2017_11_21_S10 11/22/2017 07:45:00 0.0
2017_11_21_S10 11/22/2017 07:50:00 0.0
2017_11_21_S10 11/22/2017 07:55:00 0.0
2017_11_21_S10 11/22/2017 08:00:00 0.0

2017_11_21_S11 11/20/2017 22:55:00 0.0426
2017_11_21_S11 11/20/2017 23:00:00 0.1674
2017_11_21_S11 11/20/2017 23:05:00 0.2684
2017_11_21_S11 11/20/2017 23:10:00 0.0022
2017_11_21_S11 11/20/2017 23:15:00 0.0
2017_11_21_S11 11/20/2017 23:20:00 0.0
2017_11_21_S11 11/20/2017 23:25:00 0.0
2017_11_21_S11 11/20/2017 23:30:00 0.0
2017_11_21_S11 11/20/2017 23:35:00 0.0
2017_11_21_S11 11/20/2017 23:40:00 0.0
2017_11_21_S11 11/20/2017 23:45:00 0.0
2017_11_21_S11 11/20/2017 23:50:00 0.0
2017_11_21_S11 11/20/2017 23:55:00 0.0
2017_11_21_S11 11/21/2017 00:00:00 0.0
2017_11_21_S11 11/21/2017 00:05:00 0.0
2017_11_21_S11 11/21/2017 00:10:00 0.0
2017_11_21_S11 11/21/2017 00:15:00 0.0
2017_11_21_S11 11/21/2017 00:20:00 0.0
2017_11_21_S11 11/21/2017 00:25:00 0.0
2017_11_21_S11 11/21/2017 00:30:00 0.0056
2017_11_21_S11 11/21/2017 00:35:00 0.0327
2017_11_21_S11 11/21/2017 00:40:00 0.0
2017_11_21_S11 11/21/2017 00:45:00 0.0
2017_11_21_S11 11/21/2017 00:50:00 0.0147
2017_11_21_S11 11/21/2017 00:55:00 0.0
2017_11_21_S11 11/21/2017 01:00:00 0.0
2017_11_21_S11 11/21/2017 01:05:00 0.0
2017_11_21_S11 11/21/2017 01:10:00 0.0
2017_11_21_S11 11/21/2017 01:15:00 0.4637
2017_11_21_S11 11/21/2017 01:20:00 0.1786
2017_11_21_S11 11/21/2017 01:25:00 0.0601
2017_11_21_S11 11/21/2017 01:30:00 0.0302
2017_11_21_S11 11/21/2017 01:35:00 0.0084
2017_11_21_S11 11/21/2017 01:40:00 0.0
2017_11_21_S11 11/21/2017 01:45:00 0.0
2017_11_21_S11 11/21/2017 01:50:00 0.0
2017_11_21_S11 11/21/2017 01:55:00 0.0
2017_11_21_S11 11/21/2017 02:00:00 0.0
2017_11_21_S11 11/21/2017 02:05:00 0.0239
2017_11_21_S11 11/21/2017 02:10:00 0.0004
2017_11_21_S11 11/21/2017 02:15:00 0.3643
2017_11_21_S11 11/21/2017 02:20:00 0.0535
2017_11_21_S11 11/21/2017 02:25:00 0.0515
2017_11_21_S11 11/21/2017 02:30:00 0.0119
2017_11_21_S11 11/21/2017 02:35:00 0.1522
2017_11_21_S11 11/21/2017 02:40:00 0.0467
2017_11_21_S11 11/21/2017 02:45:00 0.0
2017_11_21_S11 11/21/2017 02:50:00 0.0
2017_11_21_S11 11/21/2017 02:55:00 0.0
2017_11_21_S11 11/21/2017 03:00:00 0.0
2017_11_21_S11 11/21/2017 03:05:00 0.0
2017_11_21_S11 11/21/2017 03:10:00 0.0
2017_11_21_S11 11/21/2017 03:15:00 0.0
2017_11_21_S11 11/21/2017 03:20:00 0.0
2017_11_21_S11 11/21/2017 03:25:00 0.0036
2017_11_21_S11 11/21/2017 03:30:00 0.0
2017_11_21_S11 11/21/2017 03:35:00 0.003
2017_11_21_S11 11/21/2017 03:40:00 0.0016
2017_11_21_S11 11/21/2017 03:45:00 0.2538
2017_11_21_S11 11/21/2017 03:50:00 0.4025
2017_11_21_S11 11/21/2017 03:55:00 0.1388
2017_11_21_S11 11/21/2017 04:00:00 0.0183
2017_11_21_S11 11/21/2017 04:05:00 0.0001
2017_11_21_S11 11/21/2017 04:10:00 0.1081
2017_11_21_S11 11/21/2017 04:15:00 0.0597
2017_11_21_S11 11/21/2017 04:20:00 0.0259
2017_11_21_S11 11/21/2017 04:25:00 0.0651
2017_11_21_S11 11/21/2017 04:30:00 2.8039
2017_11_21_S11 11/21/2017 04:35:00 0.0963
2017_11_21_S11 11/21/2017 04:40:00 0.0226
2017_11_21_S11 11/21/2017 04:45:00 0.0461
2017_11_21_S11 11/21/2017 04:50:00 0.0
2017_11_21_S11 11/21/2017 04:55:00 0.0
2017_11_21_S11 11/21/2017 05:00:00 0.0
2017_11_21_S11 11/21/2017 05:05:00 0.0012
2017_11_21_S11 11/21/2017 05:10:00 0.0033
2017_11_21_S11 11/21/2017 05:15:00 0.7964
2017_11_21_S11 11/21/2017 05:20:00 0.7303
2017_11_21_S11 11/21/2017 05:25:00 1.3691
2017_11_21_S11 11/21/2017 05:30:00 0.5516
2017_11_21_S11 11/21/2017 05:35:00 0.0202
2017_11_21_S11 11/21/2017 05:40:00 0.0158
2017_11_21_S11 11/21/2017 05:45:00 0.0
2017_11_21_S11 11/21/2017 05:50:00 0.0047
2017_11_21_S11 11/21/2017 05:55:00 0.0
2017_11_21_S11 11/21/2017 06:00:00 0.0
2017_11_21_S11 11/21/2017 06:05:00 0.0
2017_11_21_S11 11/21/2017 06:10:00 0.0
2017_11_21_S11 11/21/2017 06:15:00 0.0
2017_11_21_S11 11/21/2017 06:20:00 0.0
2017_11_21_S11 11/21/2017 06:25:00 0.0
2017_11_21_S11 11/21/2017 06:30:00 0.0
2017_11_21_S11 11/21/2017 06:35:00 0.0
2017_11_21_S11 11/21/2017 06:40:00 0.0
2017_11_21_S11 11/21/2017 06:45:00 0.0
2017_11_21_S11 11/21/2017 06:50:00 0.0
2017_11_21_S11 11/21/2017 06:55:00 0.0
2017_11_21_S11 11/21/2017 07:00:00 0.0
2017_11_21_S11 11/21/2017 07:05:00 0.0
2017_11_21_S11 11/21/2017 07:10:00 0.0
2017_11_21_S11 11/21/2017 07:15:00 0.0
2017_11_21_S11 11/21/2017 07:20:00 0.0
2017_11_21_S11 11/21/2017 07:25:00 0.5253
2017_11_21_S11 11/21/2017 07:30:00 0.4414
2017_11_21_S11 11/21/2017 07:35:00 0.0313
2017_11_21_S11 11/21/2017 07:40:00 0.0403
2017_11_21_S11 11/21/2017 07:45:00 0.0156
2017_11_21_S11 11/21/2017 07:50:00 0.0
2017_11_21_S11 11/21/2017 07:55:00 0.0
2017_11_21_S11 11/21/2017 08:00:00 0.0
2017_11_21_S11 11/21/2017 08:05:00 0.3529
2017_11_21_S11 11/21/2017 08:10:00 0.003
2017_11_21_S11 11/21/2017 08:15:00 0.0215
2017_11_21_S11 11/21/2017 08:20:00 0.0068
2017_11_21_S11 11/21/2017 08:25:00 0.0347
2017_11_21_S11 11/21/2017 08:30:00 0.0156
2017_11_21_S11 11/21/2017 08:35:00 0.0168
2017_11_21_S11 11/21/2017 08:40:00 0.2477
2017_11_21_S11 11/21/2017 08:45:00 0.9551
2017_11_21_S11 11/21/2017 08:50:00 0.0027
2017_11_21_S11 11/21/2017 08:55:00 0.0
2017_11_21_S11 11/21/2017 09:00:00 0.0
2017_11_21_S11 11/21/2017 09:05:00 0.0
2017_11_21_S11 11/21/2017 09:10:00 0.0
2017_11_21_S11 11/21/2017 09:15:00 0.0
2017_11_21_S11 11/21/2017 09:20:00 0.0
2017_11_21_S11 11/21/2017 09:25:00 0.0
2017_11_21_S11 11/21/2017 09:30:00 0.0
2017_11_21_S11 11/21/2017 09:35:00 0.0
2017_11_21_S11 11/21/2017 09:40:00 0.0
2017_11_21_S11 11/21/2017 09:45:00 0.0
2017_11_21_S11 11/21/2017 09:50:00 0.3658
2017_11_21_S11 11/21/2017 09:55:00 0.4719
2017_11_21_S11 11/21/2017 10:00:00 0.0159
2017_11_21_S11 11/21/2017 10:05:00 0.0
2017_11_21_S11 11/21/2017 10:10:00 0.0102
2017_11_21_S11 11/21/2017 10:15:00 0.0
2017_11_21_S11 11/21/2017 10:20:00 0.0
2017_11_21_S11 11/21/2017 10:25:00 0.0
2017_11_21_S11 11/21/2017 10:30:00 0.0033
2017_11_21_S11 11/21/2017 10:35:00 0.0067
2017_11_21_S11 11/21/2017 10:40:00 0.01
2017_11_21_S11 11/21/2017 10:45:00 0.0
2017_11_21_S11 11/21/2017 10:50:00 0.0
2017_11_21_S11 11/21/2017 10:55:00 0.0
2017_11_21_S11 11/21/2017 11:00:00 0.004
2017_11_21_S11 11/21/2017 11:05:00 0.0
2017_11_21_S11 11/21/2017 11:10:00 0.0
2017_11_21_S11 11/21/2017 11:15:00 0.0
2017_11_21_S11 11/21/2017 11:20:00 0.0
2017_11_21_S11 11/21/2017 11:25:00 0.0
2017_11_21_S11 11/21/2017 11:30:00 0.0
2017_11_21_S11 11/21/2017 11:35:00 0.0
2017_11_21_S11 11/21/2017 11:40:00 0.0
2017_11_21_S11 11/21/2017 11:45:00 0.0
2017_11_21_S11 11/21/2017 11:50:00 0.0
2017_11_21_S11 11/21/2017 11:55:00 0.0
2017_11_21_S11 11/21/2017 12:00:00 0.0
2017_11_21_S11 11/21/2017 12:05:00 0.0
2017_11_21_S11 11/21/2017 12:10:00 0.0
2017_11_21_S11 11/21/2017 12:15:00 0.0
2017_11_21_S11 11/21/2017 12:20:00 0.0
2017_11_21_S11 11/21/2017 12:25:00 0.0
2017_11_21_S11 11/21/2017 12:30:00 0.0
2017_11_21_S11 11/21/2017 12:35:00 0.0
2017_11_21_S11 11/21/2017 12:40:00 0.0
2017_11_21_S11 11/21/2017 12:45:00 0.0
2017_11_21_S11 11/21/2017 12:50:00 0.0
2017_11_21_S11 11/21/2017 12:55:00 0.0
2017_11_21_S11 11/21/2017 13:00:00 0.0
2017_11_21_S11 11/21/2017 13:05:00 0.0
2017_11_21_S11 11/21/2017 13:10:00 0.0
2017_11_21_S11 11/21/2017 13:15:00 0.0
2017_11_21_S11 11/21/2017 13:20:00 0.0
2017_11_21_S11 11/21/2017 13:25:00 0.0
2017_11_21_S11 11/21/2017 13:30:00 0.0
2017_11_21_S11 11/21/2017 13:35:00 0.0
2017_11_21_S11 11/21/2017 13:40:00 0.0
2017_11_21_S11 11/21/2017 13:45:00 0.0
2017_11_21_S11 11/21/2017 13:50:00 0.0
2017_11_21_S11 11/21/2017 13:55:00 0.0
2017_11_21_S11 11/21/2017 14:00:00 0.0
2017_11_21_S11 11/21/2017 14:05:00 0.0
2017_11_21_S11 11/21/2017 14:10:00 0.0
2017_11_21_S11 11/21/2017 14:15:00 0.0
2017_11_21_S11 11/21/2017 14:20:00 0.0
2017_11_21_S11 11/21/2017 14:25:00 0.0
2017_11_21_S11 11/21/2017 14:30:00 0.0
2017_11_21_S11 11/21/2017 14:35:00 0.0
2017_11_21_S11 11/21/2017 14:40:00 0.0
2017_11_21_S11 11/21/2017 14:45:00 0.0
2017_11_21_S11 11/21/2017 14:50:00 0.0
2017_11_21_S11 11/21/2017 14:55:00 0.0
2017_11_21_S11 11/21/2017 15:00:00 0.0
2017_11_21_S11 11/21/2017 15:05:00 0.0
2017_11_21_S11 11/21/2017 15:10:00 0.0
2017_11_21_S11 11/21/2017 15:15:00 0.0
2017_11_21_S11 11/21/2017 15:20:00 0.0
2017_11_21_S11 11/21/2017 15:25:00 0.0
2017_11_21_S11 11/21/2017 15:30:00 0.0
2017_11_21_S11 11/21/2017 15:35:00 0.0
2017_11_21_S11 11/21/2017 15:40:00 0.0
2017_11_21_S11 11/21/2017 15:45:00 0.0
2017_11_21_S11 11/21/2017 15:50:00 0.0
2017_11_21_S11 11/21/2017 15:55:00 0.0
2017_11_21_S11 11/21/2017 16:00:00 0.0
2017_11_21_S11 11/21/2017 16:05:00 0.0
2017_11_21_S11 11/21/2017 16:10:00 0.0
2017_11_21_S11 11/21/2017 16:15:00 0.0
2017_11_21_S11 11/21/2017 16:20:00 0.0
2017_11_21_S11 11/21/2017 16:25:00 0.0
2017_11_21_S11 11/21/2017 16:30:00 0.0
2017_11_21_S11 11/21/2017 16:35:00 0.0
2017_11_21_S11 11/21/2017 16:40:00 0.0
2017_11_21_S11 11/21/2017 16:45:00 0.0
2017_11_21_S11 11/21/2017 16:50:00 0.0
2017_11_21_S11 11/21/2017 16:55:00 0.0
2017_11_21_S11 11/21/2017 17:00:00 0.0
2017_11_21_S11 11/21/2017 17:05:00 0.0
2017_11_21_S11 11/21/2017 17:10:00 0.0
2017_11_21_S11 11/21/2017 17:15:00 0.0
2017_11_21_S11 11/21/2017 17:20:00 0.0
2017_11_21_S11 11/21/2017 17:25:00 0.0
2017_11_21_S11 11/21/2017 17:30:00 0.0
2017_11_21_S11 11/21/2017 17:35:00 0.0
2017_11_21_S11 11/21/2017 17:40:00 0.0
2017_11_21_S11 11/21/2017 17:45:00 0.0
2017_11_21_S11 11/21/2017 17:50:00 0.0
2017_11_21_S11 11/21/2017 17:55:00 0.0
2017_11_21_S11 11/21/2017 18:00:00 0.0
2017_11_21_S11 11/21/2017 18:05:00 0.0
2017_11_21_S11 11/21/2017 18:10:00 0.0
2017_11_21_S11 11/21/2017 18:15:00 0.0
2017_11_21_S11 11/21/2017 18:20:00 0.0
2017_11_21_S11 11/21/2017 18:25:00 0.0
2017_11_21_S11 11/21/2017 18:30:00 0.0
2017_11_21_S11 11/21/2017 18:35:00 0.0
2017_11_21_S11 11/21/2017 18:40:00 0.0
2017_11_21_S11 11/21/2017 18:45:00 0.0
2017_11_21_S11 11/21/2017 18:50:00 0.0
2017_11_21_S11 11/21/2017 18:55:00 0.0
2017_11_21_S11 11/21/2017 19:00:00 0.0
2017_11_21_S11 11/21/2017 19:05:00 0.0
2017_11_21_S11 11/21/2017 19:10:00 0.0
2017_11_21_S11 11/21/2017 19:15:00 0.0
2017_11_21_S11 11/21/2017 19:20:00 0.0
2017_11_21_S11 11/21/2017 19:25:00 0.0
2017_11_21_S11 11/21/2017 19:30:00 0.0
2017_11_21_S11 11/21/2017 19:35:00 0.0
2017_11_21_S11 11/21/2017 19:40:00 0.0
2017_11_21_S11 11/21/2017 19:45:00 0.0
2017_11_21_S11 11/21/2017 19:50:00 0.0
2017_11_21_S11 11/21/2017 19:55:00 0.0
2017_11_21_S11 11/21/2017 20:00:00 0.0
2017_11_21_S11 11/21/2017 20:05:00 0.0
2017_11_21_S11 11/21/2017 20:10:00 0.0
2017_11_21_S11 11/21/2017 20:15:00 0.0
2017_11_21_S11 11/21/2017 20:20:00 0.0
2017_11_21_S11 11/21/2017 20:25:00 0.0
2017_11_21_S11 11/21/2017 20:30:00 0.0
2017_11_21_S11 11/21/2017 20:35:00 0.0
2017_11_21_S11 11/21/2017 20:40:00 0.0
2017_11_21_S11 11/21/2017 20:45:00 0.0
2017_11_21_S11 11/21/2017 20:50:00 0.0
2017_11_21_S11 11/21/2017 20:55:00 0.0
2017_11_21_S11 11/21/2017 21:00:00 0.0
2017_11_21_S11 11/21/2017 21:05:00 0.0
2017_11_21_S11 11/21/2017 21:10:00 0.0
2017_11_21_S11 11/21/2017 21:15:00 0.0
2017_11_21_S11 11/21/2017 21:20:00 0.0
2017_11_21_S11 11/21/2017 21:25:00 0.0
2017_11_21_S11 11/21/2017 21:30:00 0.0
2017_11_21_S11 11/21/2017 21:35:00 0.0
2017_11_21_S11 11/21/2017 21:40:00 0.0
2017_11_21_S11 11/21/2017 21:45:00 0.0
2017_11_21_S11 11/21/2017 21:50:00 0.0
2017_11_21_S11 11/21/2017 21:55:00 0.0
2017_11_21_S11 11/21/2017 22:00:00 0.0
2017_11_21_S11 11/21/2017 22:05:00 0.0
2017_11_21_S11 11/21/2017 22:10:00 0.0
2017_11_21_S11 11/21/2017 22:15:00 0.0
2017_11_21_S11 11/21/2017 22:20:00 0.0
2017_11_21_S11 11/21/2017 22:25:00 0.0
2017_11_21_S11 11/21/2017 22:30:00 0.0
2017_11_21_S11 11/21/2017 22:35:00 0.0
2017_11_21_S11 11/21/2017 22:40:00 0.0036
2017_11_21_S11 11/21/2017 22:45:00 0.001
2017_11_21_S11 11/21/2017 22:50:00 0.0
2017_11_21_S11 11/21/2017 22:55:00 0.0015
2017_11_21_S11 11/21/2017 23:00:00 0.0
2017_11_21_S11 11/21/2017 23:05:00 0.004
2017_11_21_S11 11/21/2017 23:10:00 0.0001
2017_11_21_S11 11/21/2017 23:15:00 0.0
2017_11_21_S11 11/21/2017 23:20:00 0.0
2017_11_21_S11 11/21/2017 23:25:00 0.0
2017_11_21_S11 11/21/2017 23:30:00 0.0
2017_11_21_S11 11/21/2017 23:35:00 0.0
2017_11_21_S11 11/21/2017 23:40:00 0.0
2017_11_21_S11 11/21/2017 23:45:00 0.0
2017_11_21_S11 11/21/2017 23:50:00 0.0
2017_11_21_S11 11/21/2017 23:55:00 0.0
2017_11_21_S11 11/22/2017 00:00:00 0.0
2017_11_21_S11 11/22/2017 00:05:00 0.0
2017_11_21_S11 11/22/2017 00:10:00 0.0
2017_11_21_S11 11/22/2017 00:15:00 0.0
2017_11_21_S11 11/22/2017 00:20:00 0.0
2017_11_21_S11 11/22/2017 00:25:00 0.0
2017_11_21_S11 11/22/2017 00:30:00 0.0
2017_11_21_S11 11/22/2017 00:35:00 0.0
2017_11_21_S11 11/22/2017 00:40:00 0.0
2017_11_21_S11 11/22/2017 00:45:00 0.0
2017_11_21_S11 11/22/2017 00:50:00 0.0
2017_11_21_S11 11/22/2017 00:55:00 0.0
2017_11_21_S11 11/22/2017 01:00:00 0.0
2017_11_21_S11 11/22/2017 01:05:00 0.0
2017_11_21_S11 11/22/2017 01:10:00 0.0
2017_11_21_S11 11/22/2017 01:15:00 0.0
2017_11_21_S11 11/22/2017 01:20:00 0.0046
2017_11_21_S11 11/22/2017 01:25:00 0.0027
2017_11_21_S11 11/22/2017 01:30:00 0.0037
2017_11_21_S11 11/22/2017 01:35:00 0.0076
2017_11_21_S11 11/22/2017 01:40:00 0.0012
2017_11_21_S11 11/22/2017 01:45:00 0.0
2017_11_21_S11 11/22/2017 01:50:00 0.0
2017_11_21_S11 11/22/2017 01:55:00 0.0
2017_11_21_S11 11/22/2017 02:00:00 0.0
2017_11_21_S11 11/22/2017 02:05:00 0.0
2017_11_21_S11 11/22/2017 02:10:00 0.0
2017_11_21_S11 11/22/2017 02:15:00 0.0012
2017_11_21_S11 11/22/2017 02:20:00 0.0
2017_11_21_S11 11/22/2017 02:25:00 0.0
2017_11_21_S11 11/22/2017 02:30:00 0.0
2017_11_21_S11 11/22/2017 02:35:00 0.0
2017_11_21_S11 11/22/2017 02:40:00 0.0
2017_11_21_S11 11/22/2017 02:45:00 0.0
2017_11_21_S11 11/22/2017 02:50:00 0.0
2017_11_21_S11 11/22/2017 02:55:00 0.0
2017_11_21_S11 11/22/2017 03:00:00 0.0
2017_11_21_S11 11/22/2017 03:05:00 0.0
2017_11_21_S11 11/22/2017 03:10:00 0.0
2017_11_21_S11 11/22/2017 03:15:00 0.0
2017_11_21_S11 11/22/2017 03:20:00 0.0
2017_11_21_S11 11/22/2017 03:25:00 0.0
2017_11_21_S11 11/22/2017 03:30:00 0.0
2017_11_21_S11 11/22/2017 03:35:00 0.0
2017_11_21_S11 11/22/2017 03:40:00 0.0
2017_11_21_S11 11/22/2017 03:45:00 0.0
2017_11_21_S11 11/22/2017 03:50:00 0.0
2017_11_21_S11 11/22/2017 03:55:00 0.0
2017_11_21_S11 11/22/2017 04:00:00 0.0
2017_11_21_S11 11/22/2017 04:05:00 0.0
2017_11_21_S11 11/22/2017 04:10:00 0.0
2017_11_21_S11 11/22/2017 04:15:00 0.0
2017_11_21_S11 11/22/2017 04:20:00 0.0
2017_11_21_S11 11/22/2017 04:25:00 0.0
2017_11_21_S11 11/22/2017 04:30:00 0.0
2017_11_21_S11 11/22/2017 04:35:00 0.0
2017_11_21_S11 11/22/2017 04:40:00 0.0
2017_11_21_S11 11/22/2017 04:45:00 0.0
2017_11_21_S11 11/22/2017 04:50:00 0.0
2017_11_21_S11 11/22/2017 04:55:00 0.0
2017_11_21_S11 11/22/2017 05:00:00 0.0
2017_11_21_S11 11/22/2017 05:05:00 0.0
2017_11_21_S11 11/22/2017 05:10:00 0.0
2017_11_21_S11 11/22/2017 05:15:00 0.0
2017_11_21_S11 11/22/2017 05:20:00 0.0
2017_11_21_S11 11/22/2017 05:25:00 0.0
2017_11_21_S11 11/22/2017 05:30:00 0.0
2017_11_21_S11 11/22/2017 05:35:00 0.0
2017_11_21_S11 11/22/2017 05:40:00 0.0
2017_11_21_S11 11/22/2017 05:45:00 0.0
2017_11_21_S11 11/22/2017 05:50:00 0.0
2017_11_21_S11 11/22/2017 05:55:00 0.0
2017_11_21_S11 11/22/2017 06:00:00 0.0
2017_11_21_S11 11/22/2017 06:05:00 0.0
2017_11_21_S11 11/22/2017 06:10:00 0.0
2017_11_21_S11 11/22/2017 06:15:00 0.0
2017_11_21_S11 11/22/2017 06:20:00 0.0
2017_11_21_S11 11/22/2017 06:25:00 0.0
2017_11_21_S11 11/22/2017 06:30:00 0.0
2017_11_21_S11 11/22/2017 06:35:00 0.0
2017_11_21_S11 11/22/2017 06:40:00 0.0
2017_11_21_S11 11/22/2017 06:45:00 0.0
2017_11_21_S11 11/22/2017 06:50:00 0.0
2017_11_21_S11 11/22/2017 06:55:00 0.0
2017_11_21_S11 11/22/2017 07:00:00 0.0
2017_11_21_S11 11/22/2017 07:05:00 0.0
2017_11_21_S11 11/22/2017 07:10:00 0.0
2017_11_21_S11 11/22/2017 07:15:00 0.0
2017_11_21_S11 11/22/2017 07:20:00 0.0
2017_11_21_S11 11/22/2017 07:25:00 0.0
2017_11_21_S11 11/22/2017 07:30:00 0.0
2017_11_21_S11 11/22/2017 07:35:00 0.0
2017_11_21_S11 11/22/2017 07:40:00 0.0
2017_11_21_S11 11/22/2017 07:45:00 0.0
2017_11_21_S11 11/22/2017 07:50:00 0.0
2017_11_21_S11 11/22/2017 07:55:00 0.0
2017_11_21_S11 11/22/2017 08:00:00 0.0

2017_11_21_S12 11/20/2017 22:55:00 0.0641
2017_11_21_S12 11/20/2017 23:00:00 0.1327
2017_11_21_S12 11/20/2017 23:05:00 0.5981
2017_11_21_S12 11/20/2017 23:10:00 0.0057
2017_11_21_S12 11/20/2017 23:15:00 0.0
2017_11_21_S12 11/20/2017 23:20:00 0.0
2017_11_21_S12 11/20/2017 23:25:00 0.0
2017_11_21_S12 11/20/2017 23:30:00 0.0
2017_11_21_S12 11/20/2017 23:35:00 0.0
2017_11_21_S12 11/20/2017 23:40:00 0.0
2017_11_21_S12 11/20/2017 23:45:00 0.0
2017_11_21_S12 11/20/2017 23:50:00 0.0
2017_11_21_S12 11/20/2017 23:55:00 0.0
2017_11_21_S12 11/21/2017 00:00:00 0.0
2017_11_21_S12 11/21/2017 00:05:00 0.0
2017_11_21_S12 11/21/2017 00:10:00 0.0
2017_11_21_S12 11/21/2017 00:15:00 0.0
2017_11_21_S12 11/21/2017 00:20:00 0.0
2017_11_21_S12 11/21/2017 00:25:00 0.0
2017_11_21_S12 11/21/2017 00:30:00 0.0583
2017_11_21_S12 11/21/2017 00:35:00 0.1272
2017_11_21_S12 11/21/2017 00:40:00 0.0
2017_11_21_S12 11/21/2017 00:45:00 0.0
2017_11_21_S12 11/21/2017 00:50:00 0.001
2017_11_21_S12 11/21/2017 00:55:00 0.0
2017_11_21_S12 11/21/2017 01:00:00 0.0
2017_11_21_S12 11/21/2017 01:05:00 0.0
2017_11_21_S12 11/21/2017 01:10:00 0.0
2017_11_21_S12 11/21/2017 01:15:00 0.471
2017_11_21_S12 11/21/2017 01:20:00 0.1608
2017_11_21_S12 11/21/2017 01:25:00 0.0214
2017_11_21_S12 11/21/2017 01:30:00 0.0183
2017_11_21_S12 11/21/2017 01:35:00 0.0016
2017_11_21_S12 11/21/2017 01:40:00 0.0
2017_11_21_S12 11/21/2017 01:45:00 0.0
2017_11_21_S12 11/21/2017 01:50:00 0.0
2017_11_21_S12 11/21/2017 01:55:00 0.0
2017_11_21_S12 11/21/2017 02:00:00 0.0
2017_11_21_S12 11/21/2017 02:05:00 0.016
2017_11_21_S12 11/21/2017 02:10:00 0.0316
2017_11_21_S12 11/21/2017 02:15:00 0.2953
2017_11_21_S12 11/21/2017 02:20:00 0.0289
2017_11_21_S12 11/21/2017 02:25:00 0.03
2017_11_21_S12 11/21/2017 02:30:00 0.0238
2017_11_21_S12 11/21/2017 02:35:00 0.2542
2017_11_21_S12 11/21/2017 02:40:00 0.0559
2017_11_21_S12 11/21/2017 02:45:00 0.0052
2017_11_21_S12 11/21/2017 02:50:00 0.0
2017_11_21_S12 11/21/2017 02:55:00 0.0
2017_11_21_S12 11/21/2017 03:00:00 0.0
2017_11_21_S12 11/21/2017 03:05:00 0.0
2017_11_21_S12 11/21/2017 03:10:00 0.0
2017_11_21_S12 11/21/2017 03:15:00 0.0
2017_11_21_S12 11/21/2017 03:20:00 0.0
2017_11_21_S12 11/21/2017 03:25:00 0.0
2017_11_21_S12 11/21/2017 03:30:00 0.0
2017_11_21_S12 11/21/2017 03:35:00 0.0
2017_11_21_S12 11/21/2017 03:40:00 0.0
2017_11_21_S12 11/21/2017 03:45:00 0.0569
2017_11_21_S12 11/21/2017 03:50:00 0.5215
2017_11_21_S12 11/21/2017 03:55:00 0.1167
2017_11_21_S12 11/21/2017 04:00:00 0.0023
2017_11_21_S12 11/21/2017 04:05:00 0.0
2017_11_21_S12 11/21/2017 04:10:00 0.0856
2017_11_21_S12 11/21/2017 04:15:00 0.1081
2017_11_21_S12 11/21/2017 04:20:00 0.0296
2017_11_21_S12 11/21/2017 04:25:00 0.1721
2017_11_21_S12 11/21/2017 04:30:00 0.959
2017_11_21_S12 11/21/2017 04:35:00 0.1229
2017_11_21_S12 11/21/2017 04:40:00 0.0127
2017_11_21_S12 11/21/2017 04:45:00 0.0653
2017_11_21_S12 11/21/2017 04:50:00 0.0
2017_11_21_S12 11/21/2017 04:55:00 0.0
2017_11_21_S12 11/21/2017 05:00:00 0.0
2017_11_21_S12 11/21/2017 05:05:00 0.0
2017_11_21_S12 11/21/2017 05:10:00 0.0101
2017_11_21_S12 11/21/2017 05:15:00 0.1658
2017_11_21_S12 11/21/2017 05:20:00 0.108
2017_11_21_S12 11/21/2017 05:25:00 0.4009
2017_11_21_S12 11/21/2017 05:30:00 0.141
2017_11_21_S12 11/21/2017 05:35:00 0.0267
2017_11_21_S12 11/21/2017 05:40:00 0.0293
2017_11_21_S12 11/21/2017 05:45:00 0.0
2017_11_21_S12 11/21/2017 05:50:00 0.0
2017_11_21_S12 11/21/2017 05:55:00 0.0
2017_11_21_S12 11/21/2017 06:00:00 0.0
2017_11_21_S12 11/21/2017 06:05:00 0.0
2017_11_21_S12 11/21/2017 06:10:00 0.0
2017_11_21_S12 11/21/2017 06:15:00 0.0
2017_11_21_S12 11/21/2017 06:20:00 0.0
2017_11_21_S12 11/21/2017 06:25:00 0.0
2017_11_21_S12 11/21/2017 06:30:00 0.0
2017_11_21_S12 11/21/2017 06:35:00 0.0
2017_11_21_S12 11/21/2017 06:40:00 0.0
2017_11_21_S12 11/21/2017 06:45:00 0.0
2017_11_21_S12 11/21/2017 06:50:00 0.0
2017_11_21_S12 11/21/2017 06:55:00 0.0
2017_11_21_S12 11/21/2017 07:00:00 0.0
2017_11_21_S12 11/21/2017 07:05:00 0.0
2017_11_21_S12 11/21/2017 07:10:00 0.0
2017_11_21_S12 11/21/2017 07:15:00 0.0
2017_11_21_S12 11/21/2017 07:20:00 0.0
2017_11_21_S12 11/21/2017 07:25:00 1.3342
2017_11_21_S12 11/21/2017 07:30:00 2.3567
2017_11_21_S12 11/21/2017 07:35:00 0.0538
2017_11_21_S12 11/21/2017 07:40:00 0.0606
2017_11_21_S12 11/21/2017 07:45:00 0.0154
2017_11_21_S12 11/21/2017 07:50:00 0.0
2017_11_21_S12 11/21/2017 07:55:00 0.0
2017_11_21_S12 11/21/2017 08:00:00 0.0
2017_11_21_S12 11/21/2017 08:05:00 0.1776
2017_11_21_S12 11/21/2017 08:10:00 0.0006
2017_11_21_S12 11/21/2017 08:15:00 0.0139
2017_11_21_S12 11/21/2017 08:20:00 0.0212
2017_11_21_S12 11/21/2017 08:25:00 0.1105
2017_11_21_S12 11/21/2017 08:30:00 0.0053
2017_11_21_S12 11/21/2017 08:35:00 0.0
2017_11_21_S12 11/21/2017 08:40:00 0.1582
2017_11_21_S12 11/21/2017 08:45:00 0.311
2017_11_21_S12 11/21/2017 08:50:00 0.0
2017_11_21_S12 11/21/2017 08:55:00 0.0
2017_11_21_S12 11/21/2017 09:00:00 0.0
2017_11_21_S12 11/21/2017 09:05:00 0.0
2017_11_21_S12 11/21/2017 09:10:00 0.0
2017_11_21_S12 11/21/2017 09:15:00 0.0
2017_11_21_S12 11/21/2017 09:20:00 0.0
2017_11_21_S12 11/21/2017 09:25:00 0.0
2017_11_21_S12 11/21/2017 09:30:00 0.0
2017_11_21_S12 11/21/2017 09:35:00 0.0
2017_11_21_S12 11/21/2017 09:40:00 0.0
2017_11_21_S12 11/21/2017 09:45:00 0.0
2017_11_21_S12 11/21/2017 09:50:00 0.3883
2017_11_21_S12 11/21/2017 09:55:00 1.1843
2017_11_21_S12 11/21/2017 10:00:00 0.0238
2017_11_21_S12 11/21/2017 10:05:00 0.0
2017_11_21_S12 11/21/2017 10:10:00 0.0023
2017_11_21_S12 11/21/2017 10:15:00 0.0
2017_11_21_S12 11/21/2017 10:20:00 0.0
2017_11_21_S12 11/21/2017 10:25:00 0.0
2017_11_21_S12 11/21/2017 10:30:00 0.0025
2017_11_21_S12 11/21/2017 10:35:00 0.0051
2017_11_21_S12 11/21/2017 10:40:00 0.0076
2017_11_21_S12 11/21/2017 10:45:00 0.0
2017_11_21_S12 11/21/2017 10:50:00 0.0
2017_11_21_S12 11/21/2017 10:55:00 0.0
2017_11_21_S12 11/21/2017 11:00:00 0.0049
2017_11_21_S12 11/21/2017 11:05:00 0.0
2017_11_21_S12 11/21/2017 11:10:00 0.0
2017_11_21_S12 11/21/2017 11:15:00 0.0
2017_11_21_S12 11/21/2017 11:20:00 0.0
2017_11_21_S12 11/21/2017 11:25:00 0.0
2017_11_21_S12 11/21/2017 11:30:00 0.0
2017_11_21_S12 11/21/2017 11:35:00 0.0
2017_11_21_S12 11/21/2017 11:40:00 0.0
2017_11_21_S12 11/21/2017 11:45:00 0.0
2017_11_21_S12 11/21/2017 11:50:00 0.0
2017_11_21_S12 11/21/2017 11:55:00 0.0
2017_11_21_S12 11/21/2017 12:00:00 0.0
2017_11_21_S12 11/21/2017 12:05:00 0.0
2017_11_21_S12 11/21/2017 12:10:00 0.0
2017_11_21_S12 11/21/2017 12:15:00 0.0
2017_11_21_S12 11/21/2017 12:20:00 0.0
2017_11_21_S12 11/21/2017 12:25:00 0.0
2017_11_21_S12 11/21/2017 12:30:00 0.0
2017_11_21_S12 11/21/2017 12:35:00 0.0
2017_11_21_S12 11/21/2017 12:40:00 0.0
2017_11_21_S12 11/21/2017 12:45:00 0.0
2017_11_21_S12 11/21/2017 12:50:00 0.0
2017_11_21_S12 11/21/2017 12:55:00 0.0
2017_11_21_S12 11/21/2017 13:00:00 0.0
2017_11_21_S12 11/21/2017 13:05:00 0.0
2017_11_21_S12 11/21/2017 13:10:00 0.0
2017_11_21_S12 11/21/2017 13:15:00 0.0
2017_11_21_S12 11/21/2017 13:20:00 0.0
2017_11_21_S12 11/21/2017 13:25:00 0.0
2017_11_21_S12 11/21/2017 13:30:00 0.0
2017_11_21_S12 11/21/2017 13:35:00 0.0
2017_11_21_S12 11/21/2017 13:40:00 0.0
2017_11_21_S12 11/21/2017 13:45:00 0.0
2017_11_21_S12 11/21/2017 13:50:00 0.0
2017_11_21_S12 11/21/2017 13:55:00 0.0
2017_11_21_S12 11/21/2017 14:00:00 0.0
2017_11_21_S12 11/21/2017 14:05:00 0.0
2017_11_21_S12 11/21/2017 14:10:00 0.0
2017_11_21_S12 11/21/2017 14:15:00 0.0
2017_11_21_S12 11/21/2017 14:20:00 0.0
2017_11_21_S12 11/21/2017 14:25:00 0.0
2017_11_21_S12 11/21/2017 14:30:00 0.0
2017_11_21_S12 11/21/2017 14:35:00 0.0
2017_11_21_S12 11/21/2017 14:40:00 0.0
2017_11_21_S12 11/21/2017 14:45:00 0.0
2017_11_21_S12 11/21/2017 14:50:00 0.0
2017_11_21_S12 11/21/2017 14:55:00 0.0
2017_11_21_S12 11/21/2017 15:00:00 0.0
2017_11_21_S12 11/21/2017 15:05:00 0.0
2017_11_21_S12 11/21/2017 15:10:00 0.0
2017_11_21_S12 11/21/2017 15:15:00 0.0
2017_11_21_S12 11/21/2017 15:20:00 0.0
2017_11_21_S12 11/21/2017 15:25:00 0.0
2017_11_21_S12 11/21/2017 15:30:00 0.0
2017_11_21_S12 11/21/2017 15:35:00 0.0
2017_11_21_S12 11/21/2017 15:40:00 0.0
2017_11_21_S12 11/21/2017 15:45:00 0.0
2017_11_21_S12 11/21/2017 15:50:00 0.0
2017_11_21_S12 11/21/2017 15:55:00 0.0
2017_11_21_S12 11/21/2017 16:00:00 0.0
2017_11_21_S12 11/21/2017 16:05:00 0.0
2017_11_21_S12 11/21/2017 16:10:00 0.0
2017_11_21_S12 11/21/2017 16:15:00 0.0
2017_11_21_S12 11/21/2017 16:20:00 0.0
2017_11_21_S12 11/21/2017 16:25:00 0.0
2017_11_21_S12 11/21/2017 16:30:00 0.0
2017_11_21_S12 11/21/2017 16:35:00 0.0
2017_11_21_S12 11/21/2017 16:40:00 0.0
2017_11_21_S12 11/21/2017 16:45:00 0.0
2017_11_21_S12 11/21/2017 16:50:00 0.0
2017_11_21_S12 11/21/2017 16:55:00 0.0
2017_11_21_S12 11/21/2017 17:00:00 0.0
2017_11_21_S12 11/21/2017 17:05:00 0.0
2017_11_21_S12 11/21/2017 17:10:00 0.0
2017_11_21_S12 11/21/2017 17:15:00 0.0
2017_11_21_S12 11/21/2017 17:20:00 0.0
2017_11_21_S12 11/21/2017 17:25:00 0.0
2017_11_21_S12 11/21/2017 17:30:00 0.0
2017_11_21_S12 11/21/2017 17:35:00 0.0
2017_11_21_S12 11/21/2017 17:40:00 0.0
2017_11_21_S12 11/21/2017 17:45:00 0.0
2017_11_21_S12 11/21/2017 17:50:00 0.0
2017_11_21_S12 11/21/2017 17:55:00 0.0
2017_11_21_S12 11/21/2017 18:00:00 0.0
2017_11_21_S12 11/21/2017 18:05:00 0.0
2017_11_21_S12 11/21/2017 18:10:00 0.0
2017_11_21_S12 11/21/2017 18:15:00 0.0
2017_11_21_S12 11/21/2017 18:20:00 0.0
2017_11_21_S12 11/21/2017 18:25:00 0.0
2017_11_21_S12 11/21/2017 18:30:00 0.0
2017_11_21_S12 11/21/2017 18:35:00 0.0
2017_11_21_S12 11/21/2017 18:40:00 0.0
2017_11_21_S12 11/21/2017 18:45:00 0.0
2017_11_21_S12 11/21/2017 18:50:00 0.0
2017_11_21_S12 11/21/2017 18:55:00 0.0
2017_11_21_S12 11/21/2017 19:00:00 0.0
2017_11_21_S12 11/21/2017 19:05:00 0.0
2017_11_21_S12 11/21/2017 19:10:00 0.0
2017_11_21_S12 11/21/2017 19:15:00 0.0
2017_11_21_S12 11/21/2017 19:20:00 0.0
2017_11_21_S12 11/21/2017 19:25:00 0.0
2017_11_21_S12 11/21/2017 19:30:00 0.0
2017_11_21_S12 11/21/2017 19:35:00 0.0
2017_11_21_S12 11/21/2017 19:40:00 0.0
2017_11_21_S12 11/21/2017 19:45:00 0.0
2017_11_21_S12 11/21/2017 19:50:00 0.0
2017_11_21_S12 11/21/2017 19:55:00 0.0
2017_11_21_S12 11/21/2017 20:00:00 0.0
2017_11_21_S12 11/21/2017 20:05:00 0.0
2017_11_21_S12 11/21/2017 20:10:00 0.0
2017_11_21_S12 11/21/2017 20:15:00 0.0
2017_11_21_S12 11/21/2017 20:20:00 0.0
2017_11_21_S12 11/21/2017 20:25:00 0.0
2017_11_21_S12 11/21/2017 20:30:00 0.0
2017_11_21_S12 11/21/2017 20:35:00 0.0
2017_11_21_S12 11/21/2017 20:40:00 0.0
2017_11_21_S12 11/21/2017 20:45:00 0.0
2017_11_21_S12 11/21/2017 20:50:00 0.0
2017_11_21_S12 11/21/2017 20:55:00 0.0
2017_11_21_S12 11/21/2017 21:00:00 0.0
2017_11_21_S12 11/21/2017 21:05:00 0.0
2017_11_21_S12 11/21/2017 21:10:00 0.0
2017_11_21_S12 11/21/2017 21:15:00 0.0
2017_11_21_S12 11/21/2017 21:20:00 0.0
2017_11_21_S12 11/21/2017 21:25:00 0.0
2017_11_21_S12 11/21/2017 21:30:00 0.0
2017_11_21_S12 11/21/2017 21:35:00 0.0
2017_11_21_S12 11/21/2017 21:40:00 0.0
2017_11_21_S12 11/21/2017 21:45:00 0.0
2017_11_21_S12 11/21/2017 21:50:00 0.0
2017_11_21_S12 11/21/2017 21:55:00 0.0
2017_11_21_S12 11/21/2017 22:00:00 0.0
2017_11_21_S12 11/21/2017 22:05:00 0.0
2017_11_21_S12 11/21/2017 22:10:00 0.0
2017_11_21_S12 11/21/2017 22:15:00 0.0
2017_11_21_S12 11/21/2017 22:20:00 0.0
2017_11_21_S12 11/21/2017 22:25:00 0.0
2017_11_21_S12 11/21/2017 22:30:00 0.0
2017_11_21_S12 11/21/2017 22:35:00 0.0
2017_11_21_S12 11/21/2017 22:40:00 0.0013
2017_11_21_S12 11/21/2017 22:45:00 0.0008
2017_11_21_S12 11/21/2017 22:50:00 0.0025
2017_11_21_S12 11/21/2017 22:55:00 0.0
2017_11_21_S12 11/21/2017 23:00:00 0.0
2017_11_21_S12 11/21/2017 23:05:00 0.0
2017_11_21_S12 11/21/2017 23:10:00 0.0051
2017_11_21_S12 11/21/2017 23:15:00 0.0
2017_11_21_S12 11/21/2017 23:20:00 0.0
2017_11_21_S12 11/21/2017 23:25:00 0.0
2017_11_21_S12 11/21/2017 23:30:00 0.0
2017_11_21_S12 11/21/2017 23:35:00 0.0
2017_11_21_S12 11/21/2017 23:40:00 0.0
2017_11_21_S12 11/21/2017 23:45:00 0.0
2017_11_21_S12 11/21/2017 23:50:00 0.0
2017_11_21_S12 11/21/2017 23:55:00 0.0
2017_11_21_S12 11/22/2017 00:00:00 0.0
2017_11_21_S12 11/22/2017 00:05:00 0.0
2017_11_21_S12 11/22/2017 00:10:00 0.0
2017_11_21_S12 11/22/2017 00:15:00 0.0
2017_11_21_S12 11/22/2017 00:20:00 0.0
2017_11_21_S12 11/22/2017 00:25:00 0.0
2017_11_21_S12 11/22/2017 00:30:00 0.0
2017_11_21_S12 11/22/2017 00:35:00 0.0
2017_11_21_S12 11/22/2017 00:40:00 0.0
2017_11_21_S12 11/22/2017 00:45:00 0.0
2017_11_21_S12 11/22/2017 00:50:00 0.0
2017_11_21_S12 11/22/2017 00:55:00 0.0
2017_11_21_S12 11/22/2017 01:00:00 0.0
2017_11_21_S12 11/22/2017 01:05:00 0.0
2017_11_21_S12 11/22/2017 01:10:00 0.0
2017_11_21_S12 11/22/2017 01:15:00 0.0
2017_11_21_S12 11/22/2017 01:20:00 0.0069
2017_11_21_S12 11/22/2017 01:25:00 0.0065
2017_11_21_S12 11/22/2017 01:30:00 0.0039
2017_11_21_S12 11/22/2017 01:35:00 0.0046
2017_11_21_S12 11/22/2017 01:40:00 0.0246
2017_11_21_S12 11/22/2017 01:45:00 0.0
2017_11_21_S12 11/22/2017 01:50:00 0.0
2017_11_21_S12 11/22/2017 01:55:00 0.0
2017_11_21_S12 11/22/2017 02:00:00 0.0
2017_11_21_S12 11/22/2017 02:05:00 0.0
2017_11_21_S12 11/22/2017 02:10:00 0.0
2017_11_21_S12 11/22/2017 02:15:00 0.0
2017_11_21_S12 11/22/2017 02:20:00 0.0
2017_11_21_S12 11/22/2017 02:25:00 0.0
2017_11_21_S12 11/22/2017 02:30:00 0.0
2017_11_21_S12 11/22/2017 02:35:00 0.0
2017_11_21_S12 11/22/2017 02:40:00 0.0
2017_11_21_S12 11/22/2017 02:45:00 0.0
2017_11_21_S12 11/22/2017 02:50:00 0.0
2017_11_21_S12 11/22/2017 02:55:00 0.0
2017_11_21_S12 11/22/2017 03:00:00 0.0
2017_11_21_S12 11/22/2017 03:05:00 0.0
2017_11_21_S12 11/22/2017 03:10:00 0.0
2017_11_21_S12 11/22/2017 03:15:00 0.0
2017_11_21_S12 11/22/2017 03:20:00 0.0
2017_11_21_S12 11/22/2017 03:25:00 0.0
2017_11_21_S12 11/22/2017 03:30:00 0.0
2017_11_21_S12 11/22/2017 03:35:00 0.0
2017_11_21_S12 11/22/2017 03:40:00 0.0
2017_11_21_S12 11/22/2017 03:45:00 0.0
2017_11_21_S12 11/22/2017 03:50:00 0.0
2017_11_21_S12 11/22/2017 03:55:00 0.0
2017_11_21_S12 11/22/2017 04:00:00 0.0
2017_11_21_S12 11/22/2017 04:05:00 0.0
2017_11_21_S12 11/22/2017 04:10:00 0.0
2017_11_21_S12 11/22/2017 04:15:00 0.0
2017_11_21_S12 11/22/2017 04:20:00 0.0
2017_11_21_S12 11/22/2017 04:25:00 0.0
2017_11_21_S12 11/22/2017 04:30:00 0.0
2017_11_21_S12 11/22/2017 04:35:00 0.0
2017_11_21_S12 11/22/2017 04:40:00 0.0
2017_11_21_S12 11/22/2017 04:45:00 0.0
2017_11_21_S12 11/22/2017 04:50:00 0.0
2017_11_21_S12 11/22/2017 04:55:00 0.0
2017_11_21_S12 11/22/2017 05:00:00 0.0
2017_11_21_S12 11/22/2017 05:05:00 0.0
2017_11_21_S12 11/22/2017 05:10:00 0.0
2017_11_21_S12 11/22/2017 05:15:00 0.0
2017_11_21_S12 11/22/2017 05:20:00 0.0
2017_11_21_S12 11/22/2017 05:25:00 0.0
2017_11_21_S12 11/22/2017 05:30:00 0.0
2017_11_21_S12 11/22/2017 05:35:00 0.0
2017_11_21_S12 11/22/2017 05:40:00 0.0
2017_11_21_S12 11/22/2017 05:45:00 0.0
2017_11_21_S12 11/22/2017 05:50:00 0.0
2017_11_21_S12 11/22/2017 05:55:00 0.0
2017_11_21_S12 11/22/2017 06:00:00 0.0
2017_11_21_S12 11/22/2017 06:05:00 0.0
2017_11_21_S12 11/22/2017 06:10:00 0.0
2017_11_21_S12 11/22/2017 06:15:00 0.0
2017_11_21_S12 11/22/2017 06:20:00 0.0
2017_11_21_S12 11/22/2017 06:25:00 0.0
2017_11_21_S12 11/22/2017 06:30:00 0.0
2017_11_21_S12 11/22/2017 06:35:00 0.0
2017_11_21_S12 11/22/2017 06:40:00 0.0
2017_11_21_S12 11/22/2017 06:45:00 0.0
2017_11_21_S12 11/22/2017 06:50:00 0.0
2017_11_21_S12 11/22/2017 06:55:00 0.0
2017_11_21_S12 11/22/2017 07:00:00 0.0
2017_11_21_S12 11/22/2017 07:05:00 0.0
2017_11_21_S12 11/22/2017 07:10:00 0.0
2017_11_21_S12 11/22/2017 07:15:00 0.0
2017_11_21_S12 11/22/2017 07:20:00 0.0
2017_11_21_S12 11/22/2017 07:25:00 0.0
2017_11_21_S12 11/22/2017 07:30:00 0.0
2017_11_21_S12 11/22/2017 07:35:00 0.0
2017_11_21_S12 11/22/2017 07:40:00 0.0
2017_11_21_S12 11/22/2017 07:45:00 0.0
2017_11_21_S12 11/22/2017 07:50:00 0.0
2017_11_21_S12 11/22/2017 07:55:00 0.0
2017_11_21_S12 11/22/2017 08:00:00 0.0

2017_11_21_S13 11/20/2017 22:55:00 0.051
2017_11_21_S13 11/20/2017 23:00:00 0.1327
2017_11_21_S13 11/20/2017 23:05:00 0.1603
2017_11_21_S13 11/20/2017 23:10:00 0.0339
2017_11_21_S13 11/20/2017 23:15:00 0.0
2017_11_21_S13 11/20/2017 23:20:00 0.0
2017_11_21_S13 11/20/2017 23:25:00 0.0
2017_11_21_S13 11/20/2017 23:30:00 0.0
2017_11_21_S13 11/20/2017 23:35:00 0.0
2017_11_21_S13 11/20/2017 23:40:00 0.0
2017_11_21_S13 11/20/2017 23:45:00 0.0
2017_11_21_S13 11/20/2017 23:50:00 0.0
2017_11_21_S13 11/20/2017 23:55:00 0.0
2017_11_21_S13 11/21/2017 00:00:00 0.0
2017_11_21_S13 11/21/2017 00:05:00 0.0
2017_11_21_S13 11/21/2017 00:10:00 0.0
2017_11_21_S13 11/21/2017 00:15:00 0.0
2017_11_21_S13 11/21/2017 00:20:00 0.0
2017_11_21_S13 11/21/2017 00:25:00 0.0
2017_11_21_S13 11/21/2017 00:30:00 0.0023
2017_11_21_S13 11/21/2017 00:35:00 0.1114
2017_11_21_S13 11/21/2017 00:40:00 0.0
2017_11_21_S13 11/21/2017 00:45:00 0.0
2017_11_21_S13 11/21/2017 00:50:00 0.0262
2017_11_21_S13 11/21/2017 00:55:00 0.0001
2017_11_21_S13 11/21/2017 01:00:00 0.0
2017_11_21_S13 11/21/2017 01:05:00 0.0
2017_11_21_S13 11/21/2017 01:10:00 0.0
2017_11_21_S13 11/21/2017 01:15:00 0.1211
2017_11_21_S13 11/21/2017 01:20:00 0.7647
2017_11_21_S13 11/21/2017 01:25:00 0.0814
2017_11_21_S13 11/21/2017 01:30:00 0.032
2017_11_21_S13 11/21/2017 01:35:00 0.0166
2017_11_21_S13 11/21/2017 01:40:00 0.0
2017_11_21_S13 11/21/2017 01:45:00 0.0
2017_11_21_S13 11/21/2017 01:50:00 0.0
2017_11_21_S13 11/21/2017 01:55:00 0.0
2017_11_21_S13 11/21/2017 02:00:00 0.0
2017_11_21_S13 11/21/2017 02:05:00 0.0531
2017_11_21_S13 11/21/2017 02:10:00 0.0056
2017_11_21_S13 11/21/2017 02:15:00 0.2836
2017_11_21_S13 11/21/2017 02:20:00 0.0628
2017_11_21_S13 11/21/2017 02:25:00 0.178
2017_11_21_S13 11/21/2017 02:30:00 0.0059
2017_11_21_S13 11/21/2017 02:35:00 0.0907
2017_11_21_S13 11/21/2017 02:40:00 0.0503
2017_11_21_S13 11/21/2017 02:45:00 0.0016
2017_11_21_S13 11/21/2017 02:50:00 0.0
2017_11_21_S13 11/21/2017 02:55:00 0.0
2017_11_21_S13 11/21/2017 03:00:00 0.0
2017_11_21_S13 11/21/2017 03:05:00 0.0
2017_11_21_S13 11/21/2017 03:10:00 0.0
2017_11_21_S13 11/21/2017 03:15:00 0.0
2017_11_21_S13 11/21/2017 03:20:00 0.0
2017_11_21_S13 11/21/2017 03:25:00 0.0097
2017_11_21_S13 11/21/2017 03:30:00 0.0
2017_11_21_S13 11/21/2017 03:35:00 0.0014
2017_11_21_S13 11/21/2017 03:40:00 0.0
2017_11_21_S13 11/21/2017 03:45:00 0.2084
2017_11_21_S13 11/21/2017 03:50:00 0.2014
2017_11_21_S13 11/21/2017 03:55:00 0.1856
2017_11_21_S13 11/21/2017 04:00:00 0.0153
2017_11_21_S13 11/21/2017 04:05:00 0.0021
2017_11_21_S13 11/21/2017 04:10:00 0.0562
2017_11_21_S13 11/21/2017 04:15:00 0.0317
2017_11_21_S13 11/21/2017 04:20:00 0.0422
2017_11_21_S13 11/21/2017 04:25:00 0.0245
2017_11_21_S13 11/21/2017 04:30:00 2.3335
2017_11_21_S13 11/21/2017 04:35:00 0.1695
2017_11_21_S13 11/21/2017 04:40:00 0.0537
2017_11_21_S13 11/21/2017 04:45:00 0.0382
2017_11_21_S13 11/21/2017 04:50:00 0.0
2017_11_21_S13 11/21/2017 04:55:00 0.0
2017_11_21_S13 11/21/2017 05:00:00 0.0
2017_11_21_S13 11/21/2017 05:05:00 0.0004
2017_11_21_S13 11/21/2017 05:10:00 0.0018
2017_11_21_S13 11/21/2017 05:15:00 0.3381
2017_11_21_S13 11/21/2017 05:20:00 1.5791
2017_11_21_S13 11/21/2017 05:25:00 1.3313
2017_11_21_S13 11/21/2017 05:30:00 0.8536
2017_11_21_S13 11/21/2017 05:35:00 0.0335
2017_11_21_S13 11/21/2017 05:40:00 0.0167
2017_11_21_S13 11/21/2017 05:45:00 0.0
2017_11_21_S13 11/21/2017 05:50:00 0.0046
2017_11_21_S13 11/21/2017 05:55:00 0.0001
2017_11_21_S13 11/21/2017 06:00:00 0.0
2017_11_21_S13 11/21/2017 06:05:00 0.0
2017_11_21_S13 11/21/2017 06:10:00 0.0
2017_11_21_S13 11/21/2017 06:15:00 0.0
2017_11_21_S13 11/21/2017 06:20:00 0.0
2017_11_21_S13 11/21/2017 06:25:00 0.0
2017_11_21_S13 11/21/2017 06:30:00 0.0
2017_11_21_S13 11/21/2017 06:35:00 0.0
2017_11_21_S13 11/21/2017 06:40:00 0.0
2017_11_21_S13 11/21/2017 06:45:00 0.0
2017_11_21_S13 11/21/2017 06:50:00 0.0
2017_11_21_S13 11/21/2017 06:55:00 0.0
2017_11_21_S13 11/21/2017 07:00:00 0.0
2017_11_21_S13 11/21/2017 07:05:00 0.0
2017_11_21_S13 11/21/2017 07:10:00 0.0
2017_11_21_S13 11/21/2017 07:15:00 0.0
2017_11_21_S13 11/21/2017 07:20:00 0.0
2017_11_21_S13 11/21/2017 07:25:00 0.3062
2017_11_21_S13 11/21/2017 07:30:00 0.5094
2017_11_21_S13 11/21/2017 07:35:00 0.1309
2017_11_21_S13 11/21/2017 07:40:00 0.0372
2017_11_21_S13 11/21/2017 07:45:00 0.0138
2017_11_21_S13 11/21/2017 07:50:00 0.0
2017_11_21_S13 11/21/2017 07:55:00 0.0
2017_11_21_S13 11/21/2017 08:00:00 0.0005
2017_11_21_S13 11/21/2017 08:05:00 0.3261
2017_11_21_S13 11/21/2017 08:10:00 0.013
2017_11_21_S13 11/21/2017 08:15:00 0.0322
2017_11_21_S13 11/21/2017 08:20:00 0.0063
2017_11_21_S13 11/21/2017 08:25:00 0.0684
2017_11_21_S13 11/21/2017 08:30:00 0.0348
2017_11_21_S13 11/21/2017 08:35:00 0.0363
2017_11_21_S13 11/21/2017 08:40:00 0.1088
2017_11_21_S13 11/21/2017 08:45:00 0.9644
2017_11_21_S13 11/21/2017 08:50:00 0.0344
2017_11_21_S13 11/21/2017 08:55:00 0.0
2017_11_21_S13 11/21/2017 09:00:00 0.0
2017_11_21_S13 11/21/2017 09:05:00 0.0
2017_11_21_S13 11/21/2017 09:10:00 0.0
2017_11_21_S13 11/21/2017 09:15:00 0.0
2017_11_21_S13 11/21/2017 09:20:00 0.0
2017_11_21_S13 11/21/2017 09:25:00 0.0
2017_11_21_S13 11/21/2017 09:30:00 0.0
2017_11_21_S13 11/21/2017 09:35:00 0.0
2017_11_21_S13 11/21/2017 09:40:00 0.0
2017_11_21_S13 11/21/2017 09:45:00 0.0
2017_11_21_S13 11/21/2017 09:50:00 0.2392
2017_11_21_S13 11/21/2017 09:55:00 0.8213
2017_11_21_S13 11/21/2017 10:00:00 0.0178
2017_11_21_S13 11/21/2017 10:05:00 0.0053
2017_11_21_S13 11/21/2017 10:10:00 0.0024
2017_11_21_S13 11/21/2017 10:15:00 0.0319
2017_11_21_S13 11/21/2017 10:20:00 0.0
2017_11_21_S13 11/21/2017 10:25:00 0.0
2017_11_21_S13 11/21/2017 10:30:00 0.0065
2017_11_21_S13 11/21/2017 10:35:00 0.0131
2017_11_21_S13 11/21/2017 10:40:00 0.0196
2017_11_21_S13 11/21/2017 10:45:00 0.0
2017_11_21_S13 11/21/2017 10:50:00 0.0
2017_11_21_S13 11/21/2017 10:55:00 0.0
2017_11_21_S13 11/21/2017 11:00:00 0.0013
2017_11_21_S13 11/21/2017 11:05:00 0.0
2017_11_21_S13 11/21/2017 11:10:00 0.0
2017_11_21_S13 11/21/2017 11:15:00 0.0
2017_11_21_S13 11/21/2017 11:20:00 0.0
2017_11_21_S13 11/21/2017 11:25:00 0.0
2017_11_21_S13 11/21/2017 11:30:00 0.0
2017_11_21_S13 11/21/2017 11:35:00 0.0
2017_11_21_S13 11/21/2017 11:40:00 0.0
2017_11_21_S13 11/21/2017 11:45:00 0.0
2017_11_21_S13 11/21/2017 11:50:00 0.0
2017_11_21_S13 11/21/2017 11:55:00 0.0
2017_11_21_S13 11/21/2017 12:00:00 0.0
2017_11_21_S13 11/21/2017 12:05:00 0.0
2017_11_21_S13 11/21/2017 12:10:00 0.0
2017_11_21_S13 11/21/2017 12:15:00 0.0
2017_11_21_S13 11/21/2017 12:20:00 0.0
2017_11_21_S13 11/21/2017 12:25:00 0.0
2017_11_21_S13 11/21/2017 12:30:00 0.0
2017_11_21_S13 11/21/2017 12:35:00 0.0
2017_11_21_S13 11/21/2017 12:40:00 0.0
2017_11_21_S13 11/21/2017 12:45:00 0.0
2017_11_21_S13 11/21/2017 12:50:00 0.0
2017_11_21_S13 11/21/2017 12:55:00 0.0
2017_11_21_S13 11/21/2017 13:00:00 0.0
2017_11_21_S13 11/21/2017 13:05:00 0.0
2017_11_21_S13 11/21/2017 13:10:00 0.0
2017_11_21_S13 11/21/2017 13:15:00 0.0
2017_11_21_S13 11/21/2017 13:20:00 0.0
2017_11_21_S13 11/21/2017 13:25:00 0.0
2017_11_21_S13 11/21/2017 13:30:00 0.0
2017_11_21_S13 11/21/2017 13:35:00 0.0
2017_11_21_S13 11/21/2017 13:40:00 0.0
2017_11_21_S13 11/21/2017 13:45:00 0.0
2017_11_21_S13 11/21/2017 13:50:00 0.0
2017_11_21_S13 11/21/2017 13:55:00 0.0
2017_11_21_S13 11/21/2017 14:00:00 0.0
2017_11_21_S13 11/21/2017 14:05:00 0.0
2017_11_21_S13 11/21/2017 14:10:00 0.0
2017_11_21_S13 11/21/2017 14:15:00 0.0
2017_11_21_S13 11/21/2017 14:20:00 0.0
2017_11_21_S13 11/21/2017 14:25:00 0.0
2017_11_21_S13 11/21/2017 14:30:00 0.0
2017_11_21_S13 11/21/2017 14:35:00 0.0
2017_11_21_S13 11/21/2017 14:40:00 0.0
2017_11_21_S13 11/21/2017 14:45:00 0.0
2017_11_21_S13 11/21/2017 14:50:00 0.0
2017_11_21_S13 11/21/2017 14:55:00 0.0
2017_11_21_S13 11/21/2017 15:00:00 0.0
2017_11_21_S13 11/21/2017 15:05:00 0.0
2017_11_21_S13 11/21/2017 15:10:00 0.0
2017_11_21_S13 11/21/2017 15:15:00 0.0
2017_11_21_S13 11/21/2017 15:20:00 0.0
2017_11_21_S13 11/21/2017 15:25:00 0.0
2017_11_21_S13 11/21/2017 15:30:00 0.0
2017_11_21_S13 11/21/2017 15:35:00 0.0
2017_11_21_S13 11/21/2017 15:40:00 0.0
2017_11_21_S13 11/21/2017 15:45:00 0.0
2017_11_21_S13 11/21/2017 15:50:00 0.0
2017_11_21_S13 11/21/2017 15:55:00 0.0
2017_11_21_S13 11/21/2017 16:00:00 0.0
2017_11_21_S13 11/21/2017 16:05:00 0.0
2017_11_21_S13 11/21/2017 16:10:00 0.0
2017_11_21_S13 11/21/2017 16:15:00 0.0
2017_11_21_S13 11/21/2017 16:20:00 0.0
2017_11_21_S13 11/21/2017 16:25:00 0.0
2017_11_21_S13 11/21/2017 16:30:00 0.0
2017_11_21_S13 11/21/2017 16:35:00 0.0
2017_11_21_S13 11/21/2017 16:40:00 0.0
2017_11_21_S13 11/21/2017 16:45:00 0.0
2017_11_21_S13 11/21/2017 16:50:00 0.0
2017_11_21_S13 11/21/2017 16:55:00 0.0
2017_11_21_S13 11/21/2017 17:00:00 0.0
2017_11_21_S13 11/21/2017 17:05:00 0.0
2017_11_21_S13 11/21/2017 17:10:00 0.0
2017_11_21_S13 11/21/2017 17:15:00 0.0
2017_11_21_S13 11/21/2017 17:20:00 0.0
2017_11_21_S13 11/21/2017 17:25:00 0.0
2017_11_21_S13 11/21/2017 17:30:00 0.0
2017_11_21_S13 11/21/2017 17:35:00 0.0
2017_11_21_S13 11/21/2017 17:40:00 0.0
2017_11_21_S13 11/21/2017 17:45:00 0.0
2017_11_21_S13 11/21/2017 17:50:00 0.0
2017_11_21_S13 11/21/2017 17:55:00 0.0
2017_11_21_S13 11/21/2017 18:00:00 0.0
2017_11_21_S13 11/21/2017 18:05:00 0.0
2017_11_21_S13 11/21/2017 18:10:00 0.0
2017_11_21_S13 11/21/2017 18:15:00 0.0
2017_11_21_S13 11/21/2017 18:20:00 0.0
2017_11_21_S13 11/21/2017 18:25:00 0.0
2017_11_21_S13 11/21/2017 18:30:00 0.0
2017_11_21_S13 11/21/2017 18:35:00 0.0
2017_11_21_S13 11/21/2017 18:40:00 0.0
2017_11_21_S13 11/21/2017 18:45:00 0.0
2017_11_21_S13 11/21/2017 18:50:00 0.0
2017_11_21_S13 11/21/2017 18:55:00 0.0
2017_11_21_S13 11/21/2017 19:00:00 0.0
2017_11_21_S13 11/21/2017 19:05:00 0.0
2017_11_21_S13 11/21/2017 19:10:00 0.0
2017_11_21_S13 11/21/2017 19:15:00 0.0
2017_11_21_S13 11/21/2017 19:20:00 0.0
2017_11_21_S13 11/21/2017 19:25:00 0.0
2017_11_21_S13 11/21/2017 19:30:00 0.0
2017_11_21_S13 11/21/2017 19:35:00 0.0
2017_11_21_S13 11/21/2017 19:40:00 0.0
2017_11_21_S13 11/21/2017 19:45:00 0.0
2017_11_21_S13 11/21/2017 19:50:00 0.0
2017_11_21_S13 11/21/2017 19:55:00 0.0
2017_11_21_S13 11/21/2017 20:00:00 0.0
2017_11_21_S13 11/21/2017 20:05:00 0.0
2017_11_21_S13 11/21/2017 20:10:00 0.0
2017_11_21_S13 11/21/2017 20:15:00 0.0
2017_11_21_S13 11/21/2017 20:20:00 0.0
2017_11_21_S13 11/21/2017 20:25:00 0.0
2017_11_21_S13 11/21/2017 20:30:00 0.0
2017_11_21_S13 11/21/2017 20:35:00 0.0
2017_11_21_S13 11/21/2017 20:40:00 0.0
2017_11_21_S13 11/21/2017 20:45:00 0.0
2017_11_21_S13 11/21/2017 20:50:00 0.0
2017_11_21_S13 11/21/2017 20:55:00 0.0
2017_11_21_S13 11/21/2017 21:00:00 0.0
2017_11_21_S13 11/21/2017 21:05:00 0.0
2017_11_21_S13 11/21/2017 21:10:00 0.0
2017_11_21_S13 11/21/2017 21:15:00 0.0
2017_11_21_S13 11/21/2017 21:20:00 0.0
2017_11_21_S13 11/21/2017 21:25:00 0.0
2017_11_21_S13 11/21/2017 21:30:00 0.0
2017_11_21_S13 11/21/2017 21:35:00 0.0
2017_11_21_S13 11/21/2017 21:40:00 0.0
2017_11_21_S13 11/21/2017 21:45:00 0.0
2017_11_21_S13 11/21/2017 21:50:00 0.0
2017_11_21_S13 11/21/2017 21:55:00 0.0
2017_11_21_S13 11/21/2017 22:00:00 0.0
2017_11_21_S13 11/21/2017 22:05:00 0.0
2017_11_21_S13 11/21/2017 22:10:00 0.0
2017_11_21_S13 11/21/2017 22:15:00 0.0
2017_11_21_S13 11/21/2017 22:20:00 0.0
2017_11_21_S13 11/21/2017 22:25:00 0.0
2017_11_21_S13 11/21/2017 22:30:00 0.0
2017_11_21_S13 11/21/2017 22:35:00 0.0
2017_11_21_S13 11/21/2017 22:40:00 0.0026
2017_11_21_S13 11/21/2017 22:45:00 0.0
2017_11_21_S13 11/21/2017 22:50:00 0.0004
2017_11_21_S13 11/21/2017 22:55:00 0.0
2017_11_21_S13 11/21/2017 23:00:00 0.0008
2017_11_21_S13 11/21/2017 23:05:00 0.0027
2017_11_21_S13 11/21/2017 23:10:00 0.0005
2017_11_21_S13 11/21/2017 23:15:00 0.0
2017_11_21_S13 11/21/2017 23:20:00 0.0
2017_11_21_S13 11/21/2017 23:25:00 0.0
2017_11_21_S13 11/21/2017 23:30:00 0.0
2017_11_21_S13 11/21/2017 23:35:00 0.0
2017_11_21_S13 11/21/2017 23:40:00 0.0
2017_11_21_S13 11/21/2017 23:45:00 0.0
2017_11_21_S13 11/21/2017 23:50:00 0.0
2017_11_21_S13 11/21/2017 23:55:00 0.0
2017_11_21_S13 11/22/2017 00:00:00 0.0
2017_11_21_S13 11/22/2017 00:05:00 0.0
2017_11_21_S13 11/22/2017 00:10:00 0.0
2017_11_21_S13 11/22/2017 00:15:00 0.0
2017_11_21_S13 11/22/2017 00:20:00 0.0
2017_11_21_S13 11/22/2017 00:25:00 0.0
2017_11_21_S13 11/22/2017 00:30:00 0.0
2017_11_21_S13 11/22/2017 00:35:00 0.0
2017_11_21_S13 11/22/2017 00:40:00 0.0
2017_11_21_S13 11/22/2017 00:45:00 0.0
2017_11_21_S13 11/22/2017 00:50:00 0.0
2017_11_21_S13 11/22/2017 00:55:00 0.0
2017_11_21_S13 11/22/2017 01:00:00 0.0
2017_11_21_S13 11/22/2017 01:05:00 0.0
2017_11_21_S13 11/22/2017 01:10:00 0.0
2017_11_21_S13 11/22/2017 01:15:00 0.0
2017_11_21_S13 11/22/2017 01:20:00 0.0042
2017_11_21_S13 11/22/2017 01:25:00 0.0016
2017_11_21_S13 11/22/2017 01:30:00 0.0011
2017_11_21_S13 11/22/2017 01:35:00 0.0067
2017_11_21_S13 11/22/2017 01:40:00 0.0029
2017_11_21_S13 11/22/2017 01:45:00 0.0017
2017_11_21_S13 11/22/2017 01:50:00 0.0
2017_11_21_S13 11/22/2017 01:55:00 0.0
2017_11_21_S13 11/22/2017 02:00:00 0.0
2017_11_21_S13 11/22/2017 02:05:00 0.0
2017_11_21_S13 11/22/2017 02:10:00 0.0
2017_11_21_S13 11/22/2017 02:15:00 0.0019
2017_11_21_S13 11/22/2017 02:20:00 0.0
2017_11_21_S13 11/22/2017 02:25:00 0.0
2017_11_21_S13 11/22/2017 02:30:00 0.0
2017_11_21_S13 11/22/2017 02:35:00 0.0
2017_11_21_S13 11/22/2017 02:40:00 0.0
2017_11_21_S13 11/22/2017 02:45:00 0.0
2017_11_21_S13 11/22/2017 02:50:00 0.0
2017_11_21_S13 11/22/2017 02:55:00 0.0
2017_11_21_S13 11/22/2017 03:00:00 0.0
2017_11_21_S13 11/22/2017 03:05:00 0.0
2017_11_21_S13 11/22/2017 03:10:00 0.0
2017_11_21_S13 11/22/2017 03:15:00 0.0
2017_11_21_S13 11/22/2017 03:20:00 0.0
2017_11_21_S13 11/22/2017 03:25:00 0.0
2017_11_21_S13 11/22/2017 03:30:00 0.0
2017_11_21_S13 11/22/2017 03:35:00 0.0
2017_11_21_S13 11/22/2017 03:40:00 0.0
2017_11_21_S13 11/22/2017 03:45:00 0.0
2017_11_21_S13 11/22/2017 03:50:00 0.0
2017_11_21_S13 11/22/2017 03:55:00 0.0
2017_11_21_S13 11/22/2017 04:00:00 0.0
2017_11_21_S13 11/22/2017 04:05:00 0.0
2017_11_21_S13 11/22/2017 04:10:00 0.0
2017_11_21_S13 11/22/2017 04:15:00 0.0
2017_11_21_S13 11/22/2017 04:20:00 0.0
2017_11_21_S13 11/22/2017 04:25:00 0.0
2017_11_21_S13 11/22/2017 04:30:00 0.0
2017_11_21_S13 11/22/2017 04:35:00 0.0
2017_11_21_S13 11/22/2017 04:40:00 0.0
2017_11_21_S13 11/22/2017 04:45:00 0.0
2017_11_21_S13 11/22/2017 04:50:00 0.0
2017_11_21_S13 11/22/2017 04:55:00 0.0
2017_11_21_S13 11/22/2017 05:00:00 0.0
2017_11_21_S13 11/22/2017 05:05:00 0.0
2017_11_21_S13 11/22/2017 05:10:00 0.0
2017_11_21_S13 11/22/2017 05:15:00 0.0
2017_11_21_S13 11/22/2017 05:20:00 0.0
2017_11_21_S13 11/22/2017 05:25:00 0.0
2017_11_21_S13 11/22/2017 05:30:00 0.0
2017_11_21_S13 11/22/2017 05:35:00 0.0
2017_11_21_S13 11/22/2017 05:40:00 0.0
2017_11_21_S13 11/22/2017 05:45:00 0.0
2017_11_21_S13 11/22/2017 05:50:00 0.0
2017_11_21_S13 11/22/2017 05:55:00 0.0
2017_11_21_S13 11/22/2017 06:00:00 0.0
2017_11_21_S13 11/22/2017 06:05:00 0.0
2017_11_21_S13 11/22/2017 06:10:00 0.0
2017_11_21_S13 11/22/2017 06:15:00 0.0
2017_11_21_S13 11/22/2017 06:20:00 0.0
2017_11_21_S13 11/22/2017 06:25:00 0.0
2017_11_21_S13 11/22/2017 06:30:00 0.0
2017_11_21_S13 11/22/2017 06:35:00 0.0
2017_11_21_S13 11/22/2017 06:40:00 0.0
2017_11_21_S13 11/22/2017 06:45:00 0.0
2017_11_21_S13 11/22/2017 06:50:00 0.0
2017_11_21_S13 11/22/2017 06:55:00 0.0
2017_11_21_S13 11/22/2017 07:00:00 0.0005
2017_11_21_S13 11/22/2017 07:05:00 0.0
2017_11_21_S13 11/22/2017 07:10:00 0.0
2017_11_21_S13 11/22/2017 07:15:00 0.0
2017_11_21_S13 11/22/2017 07:20:00 0.0
2017_11_21_S13 11/22/2017 07:25:00 0.0
2017_11_21_S13 11/22/2017 07:30:00 0.0
2017_11_21_S13 11/22/2017 07:35:00 0.0
2017_11_21_S13 11/22/2017 07:40:00 0.0
2017_11_21_S13 11/22/2017 07:45:00 0.0
2017_11_21_S13 11/22/2017 07:50:00 0.0
2017_11_21_S13 11/22/2017 07:55:00 0.0
2017_11_21_S13 11/22/2017 08:00:00 0.0

2017_11_21_S14 11/20/2017 22:55:00 0.0168
2017_11_21_S14 11/20/2017 23:00:00 0.0591
2017_11_21_S14 11/20/2017 23:05:00 0.0874
2017_11_21_S14 11/20/2017 23:10:00 0.0
2017_11_21_S14 11/20/2017 23:15:00 0.0
2017_11_21_S14 11/20/2017 23:20:00 0.0
2017_11_21_S14 11/20/2017 23:25:00 0.0
2017_11_21_S14 11/20/2017 23:30:00 0.0
2017_11_21_S14 11/20/2017 23:35:00 0.0
2017_11_21_S14 11/20/2017 23:40:00 0.0
2017_11_21_S14 11/20/2017 23:45:00 0.0
2017_11_21_S14 11/20/2017 23:50:00 0.0
2017_11_21_S14 11/20/2017 23:55:00 0.0
2017_11_21_S14 11/21/2017 00:00:00 0.0
2017_11_21_S14 11/21/2017 00:05:00 0.0
2017_11_21_S14 11/21/2017 00:10:00 0.0
2017_11_21_S14 11/21/2017 00:15:00 0.0
2017_11_21_S14 11/21/2017 00:20:00 0.0
2017_11_21_S14 11/21/2017 00:25:00 0.0
2017_11_21_S14 11/21/2017 00:30:00 0.0
2017_11_21_S14 11/21/2017 00:35:00 0.0
2017_11_21_S14 11/21/2017 00:40:00 0.0
2017_11_21_S14 11/21/2017 00:45:00 0.0
2017_11_21_S14 11/21/2017 00:50:00 0.0443
2017_11_21_S14 11/21/2017 00:55:00 0.0052
2017_11_21_S14 11/21/2017 01:00:00 0.0
2017_11_21_S14 11/21/2017 01:05:00 0.0
2017_11_21_S14 11/21/2017 01:10:00 0.0
2017_11_21_S14 11/21/2017 01:15:00 0.1735
2017_11_21_S14 11/21/2017 01:20:00 1.262
2017_11_21_S14 11/21/2017 01:25:00 0.1985
2017_11_21_S14 11/21/2017 01:30:00 0.0195
2017_11_21_S14 11/21/2017 01:35:00 0.0219
2017_11_21_S14 11/21/2017 01:40:00 0.0
2017_11_21_S14 11/21/2017 01:45:00 0.0
2017_11_21_S14 11/21/2017 01:50:00 0.0
2017_11_21_S14 11/21/2017 01:55:00 0.0
2017_11_21_S14 11/21/2017 02:00:00 0.0
2017_11_21_S14 11/21/2017 02:05:00 0.0505
2017_11_21_S14 11/21/2017 02:10:00 0.0011
2017_11_21_S14 11/21/2017 02:15:00 0.5192
2017_11_21_S14 11/21/2017 02:20:00 0.0926
2017_11_21_S14 11/21/2017 02:25:00 0.2696
2017_11_21_S14 11/21/2017 02:30:00 0.0066
2017_11_21_S14 11/21/2017 02:35:00 0.0977
2017_11_21_S14 11/21/2017 02:40:00 0.0539
2017_11_21_S14 11/21/2017 02:45:00 0.0001
2017_11_21_S14 11/21/2017 02:50:00 0.0
2017_11_21_S14 11/21/2017 02:55:00 0.0
2017_11_21_S14 11/21/2017 03:00:00 0.0
2017_11_21_S14 11/21/2017 03:05:00 0.0
2017_11_21_S14 11/21/2017 03:10:00 0.0
2017_11_21_S14 11/21/2017 03:15:00 0.0
2017_11_21_S14 11/21/2017 03:20:00 0.0
2017_11_21_S14 11/21/2017 03:25:00 0.0378
2017_11_21_S14 11/21/2017 03:30:00 0.0
2017_11_21_S14 11/21/2017 03:35:00 0.0031
2017_11_21_S14 11/21/2017 03:40:00 0.0
2017_11_21_S14 11/21/2017 03:45:00 0.3623
2017_11_21_S14 11/21/2017 03:50:00 0.0524
2017_11_21_S14 11/21/2017 03:55:00 0.1823
2017_11_21_S14 11/21/2017 04:00:00 0.021
2017_11_21_S14 11/21/2017 04:05:00 0.0087
2017_11_21_S14 11/21/2017 04:10:00 0.0218
2017_11_21_S14 11/21/2017 04:15:00 0.0123
2017_11_21_S14 11/21/2017 04:20:00 0.0553
2017_11_21_S14 11/21/2017 04:25:00 0.009
2017_11_21_S14 11/21/2017 04:30:00 2.2884
2017_11_21_S14 11/21/2017 04:35:00 0.7923
2017_11_21_S14 11/21/2017 04:40:00 0.067
2017_11_21_S14 11/21/2017 04:45:00 0.0197
2017_11_21_S14 11/21/2017 04:50:00 0.0
2017_11_21_S14 11/21/2017 04:55:00 0.0
2017_11_21_S14 11/21/2017 05:00:00 0.0
2017_11_21_S14 11/21/2017 05:05:00 0.0
2017_11_21_S14 11/21/2017 05:10:00 0.003
2017_11_21_S14 11/21/2017 05:15:00 0.2866
2017_11_21_S14 11/21/2017 05:20:00 3.1647
2017_11_21_S14 11/21/2017 05:25:00 3.0522
2017_11_21_S14 11/21/2017 05:30:00 1.3224
2017_11_21_S14 11/21/2017 05:35:00 0.0684
2017_11_21_S14 11/21/2017 05:40:00 0.0136
2017_11_21_S14 11/21/2017 05:45:00 0.0
2017_11_21_S14 11/21/2017 05:50:00 0.0
2017_11_21_S14 11/21/2017 05:55:00 0.0056
2017_11_21_S14 11/21/2017 06:00:00 0.0
2017_11_21_S14 11/21/2017 06:05:00 0.0
2017_11_21_S14 11/21/2017 06:10:00 0.0
2017_11_21_S14 11/21/2017 06:15:00 0.0
2017_11_21_S14 11/21/2017 06:20:00 0.0
2017_11_21_S14 11/21/2017 06:25:00 0.0
2017_11_21_S14 11/21/2017 06:30:00 0.0
2017_11_21_S14 11/21/2017 06:35:00 0.0
2017_11_21_S14 11/21/2017 06:40:00 0.0
2017_11_21_S14 11/21/2017 06:45:00 0.0
2017_11_21_S14 11/21/2017 06:50:00 0.0
2017_11_21_S14 11/21/2017 06:55:00 0.0
2017_11_21_S14 11/21/2017 07:00:00 0.0
2017_11_21_S14 11/21/2017 07:05:00 0.0
2017_11_21_S14 11/21/2017 07:10:00 0.0
2017_11_21_S14 11/21/2017 07:15:00 0.0
2017_11_21_S14 11/21/2017 07:20:00 0.0
2017_11_21_S14 11/21/2017 07:25:00 0.0452
2017_11_21_S14 11/21/2017 07:30:00 0.0547
2017_11_21_S14 11/21/2017 07:35:00 0.0081
2017_11_21_S14 11/21/2017 07:40:00 0.0129
2017_11_21_S14 11/21/2017 07:45:00 0.0
2017_11_21_S14 11/21/2017 07:50:00 0.0
2017_11_21_S14 11/21/2017 07:55:00 0.0
2017_11_21_S14 11/21/2017 08:00:00 0.0
2017_11_21_S14 11/21/2017 08:05:00 0.1621
2017_11_21_S14 11/21/2017 08:10:00 0.0051
2017_11_21_S14 11/21/2017 08:15:00 0.0541
2017_11_21_S14 11/21/2017 08:20:00 0.0018
2017_11_21_S14 11/21/2017 08:25:00 0.0335
2017_11_21_S14 11/21/2017 08:30:00 0.0253
2017_11_21_S14 11/21/2017 08:35:00 0.0955
2017_11_21_S14 11/21/2017 08:40:00 0.6139
2017_11_21_S14 11/21/2017 08:45:00 0.3262
2017_11_21_S14 11/21/2017 08:50:00 0.1983
2017_11_21_S14 11/21/2017 08:55:00 0.0
2017_11_21_S14 11/21/2017 09:00:00 0.0
2017_11_21_S14 11/21/2017 09:05:00 0.0
2017_11_21_S14 11/21/2017 09:10:00 0.0
2017_11_21_S14 11/21/2017 09:15:00 0.0
2017_11_21_S14 11/21/2017 09:20:00 0.0
2017_11_21_S14 11/21/2017 09:25:00 0.0
2017_11_21_S14 11/21/2017 09:30:00 0.0
2017_11_21_S14 11/21/2017 09:35:00 0.0
2017_11_21_S14 11/21/2017 09:40:00 0.0
2017_11_21_S14 11/21/2017 09:45:00 0.0006
2017_11_21_S14 11/21/2017 09:50:00 0.2373
2017_11_21_S14 11/21/2017 09:55:00 0.6243
2017_11_21_S14 11/21/2017 10:00:00 0.0286
2017_11_21_S14 11/21/2017 10:05:00 0.0084
2017_11_21_S14 11/21/2017 10:10:00 0.0028
2017_11_21_S14 11/21/2017 10:15:00 0.0298
2017_11_21_S14 11/21/2017 10:20:00 0.0
2017_11_21_S14 11/21/2017 10:25:00 0.0
2017_11_21_S14 11/21/2017 10:30:00 0.0027
2017_11_21_S14 11/21/2017 10:35:00 0.0053
2017_11_21_S14 11/21/2017 10:40:00 0.008
2017_11_21_S14 11/21/2017 10:45:00 0.0
2017_11_21_S14 11/21/2017 10:50:00 0.0
2017_11_21_S14 11/21/2017 10:55:00 0.0
2017_11_21_S14 11/21/2017 11:00:00 0.0005
2017_11_21_S14 11/21/2017 11:05:00 0.0
2017_11_21_S14 11/21/2017 11:10:00 0.0
2017_11_21_S14 11/21/2017 11:15:00 0.0
2017_11_21_S14 11/21/2017 11:20:00 0.0
2017_11_21_S14 11/21/2017 11:25:00 0.0
2017_11_21_S14 11/21/2017 11:30:00 0.0
2017_11_21_S14 11/21/2017 11:35:00 0.0
2017_11_21_S14 11/21/2017 11:40:00 0.0
2017_11_21_S14 11/21/2017 11:45:00 0.0
2017_11_21_S14 11/21/2017 11:50:00 0.0
2017_11_21_S14 11/21/2017 11:55:00 0.0
2017_11_21_S14 11/21/2017 12:00:00 0.0
2017_11_21_S14 11/21/2017 12:05:00 0.0
2017_11_21_S14 11/21/2017 12:10:00 0.0
2017_11_21_S14 11/21/2017 12:15:00 0.0
2017_11_21_S14 11/21/2017 12:20:00 0.0
2017_11_21_S14 11/21/2017 12:25:00 0.0
2017_11_21_S14 11/21/2017 12:30:00 0.0
2017_11_21_S14 11/21/2017 12:35:00 0.0
2017_11_21_S14 11/21/2017 12:40:00 0.0
2017_11_21_S14 11/21/2017 12:45:00 0.0
2017_11_21_S14 11/21/2017 12:50:00 0.0
2017_11_21_S14 11/21/2017 12:55:00 0.0
2017_11_21_S14 11/21/2017 13:00:00 0.0
2017_11_21_S14 11/21/2017 13:05:00 0.0
2017_11_21_S14 11/21/2017 13:10:00 0.0
2017_11_21_S14 11/21/2017 13:15:00 0.0
2017_11_21_S14 11/21/2017 13:20:00 0.0
2017_11_21_S14 11/21/2017 13:25:00 0.0
2017_11_21_S14 11/21/2017 13:30:00 0.0
2017_11_21_S14 11/21/2017 13:35:00 0.0
2017_11_21_S14 11/21/2017 13:40:00 0.0
2017_11_21_S14 11/21/2017 13:45:00 0.0
2017_11_21_S14 11/21/2017 13:50:00 0.0
2017_11_21_S14 11/21/2017 13:55:00 0.0
2017_11_21_S14 11/21/2017 14:00:00 0.0
2017_11_21_S14 11/21/2017 14:05:00 0.0
2017_11_21_S14 11/21/2017 14:10:00 0.0
2017_11_21_S14 11/21/2017 14:15:00 0.0
2017_11_21_S14 11/21/2017 14:20:00 0.0
2017_11_21_S14 11/21/2017 14:25:00 0.0
2017_11_21_S14 11/21/2017 14:30:00 0.0
2017_11_21_S14 11/21/2017 14:35:00 0.0
2017_11_21_S14 11/21/2017 14:40:00 0.0
2017_11_21_S14 11/21/2017 14:45:00 0.0
2017_11_21_S14 11/21/2017 14:50:00 0.0
2017_11_21_S14 11/21/2017 14:55:00 0.0
2017_11_21_S14 11/21/2017 15:00:00 0.0
2017_11_21_S14 11/21/2017 15:05:00 0.0
2017_11_21_S14 11/21/2017 15:10:00 0.0
2017_11_21_S14 11/21/2017 15:15:00 0.0
2017_11_21_S14 11/21/2017 15:20:00 0.0
2017_11_21_S14 11/21/2017 15:25:00 0.0
2017_11_21_S14 11/21/2017 15:30:00 0.0
2017_11_21_S14 11/21/2017 15:35:00 0.0
2017_11_21_S14 11/21/2017 15:40:00 0.0
2017_11_21_S14 11/21/2017 15:45:00 0.0
2017_11_21_S14 11/21/2017 15:50:00 0.0
2017_11_21_S14 11/21/2017 15:55:00 0.0
2017_11_21_S14 11/21/2017 16:00:00 0.0
2017_11_21_S14 11/21/2017 16:05:00 0.0
2017_11_21_S14 11/21/2017 16:10:00 0.0
2017_11_21_S14 11/21/2017 16:15:00 0.0
2017_11_21_S14 11/21/2017 16:20:00 0.0
2017_11_21_S14 11/21/2017 16:25:00 0.0
2017_11_21_S14 11/21/2017 16:30:00 0.0
2017_11_21_S14 11/21/2017 16:35:00 0.0
2017_11_21_S14 11/21/2017 16:40:00 0.0
2017_11_21_S14 11/21/2017 16:45:00 0.0
2017_11_21_S14 11/21/2017 16:50:00 0.0
2017_11_21_S14 11/21/2017 16:55:00 0.0
2017_11_21_S14 11/21/2017 17:00:00 0.0
2017_11_21_S14 11/21/2017 17:05:00 0.0
2017_11_21_S14 11/21/2017 17:10:00 0.0
2017_11_21_S14 11/21/2017 17:15:00 0.0
2017_11_21_S14 11/21/2017 17:20:00 0.0
2017_11_21_S14 11/21/2017 17:25:00 0.0
2017_11_21_S14 11/21/2017 17:30:00 0.0
2017_11_21_S14 11/21/2017 17:35:00 0.0
2017_11_21_S14 11/21/2017 17:40:00 0.0
2017_11_21_S14 11/21/2017 17:45:00 0.0
2017_11_21_S14 11/21/2017 17:50:00 0.0
2017_11_21_S14 11/21/2017 17:55:00 0.0
2017_11_21_S14 11/21/2017 18:00:00 0.0
2017_11_21_S14 11/21/2017 18:05:00 0.0
2017_11_21_S14 11/21/2017 18:10:00 0.0
2017_11_21_S14 11/21/2017 18:15:00 0.0
2017_11_21_S14 11/21/2017 18:20:00 0.0
2017_11_21_S14 11/21/2017 18:25:00 0.0
2017_11_21_S14 11/21/2017 18:30:00 0.0
2017_11_21_S14 11/21/2017 18:35:00 0.0
2017_11_21_S14 11/21/2017 18:40:00 0.0
2017_11_21_S14 11/21/2017 18:45:00 0.0
2017_11_21_S14 11/21/2017 18:50:00 0.0
2017_11_21_S14 11/21/2017 18:55:00 0.0
2017_11_21_S14 11/21/2017 19:00:00 0.0
2017_11_21_S14 11/21/2017 19:05:00 0.0
2017_11_21_S14 11/21/2017 19:10:00 0.0
2017_11_21_S14 11/21/2017 19:15:00 0.0
2017_11_21_S14 11/21/2017 19:20:00 0.0
2017_11_21_S14 11/21/2017 19:25:00 0.0
2017_11_21_S14 11/21/2017 19:30:00 0.0
2017_11_21_S14 11/21/2017 19:35:00 0.0
2017_11_21_S14 11/21/2017 19:40:00 0.0
2017_11_21_S14 11/21/2017 19:45:00 0.0
2017_11_21_S14 11/21/2017 19:50:00 0.0
2017_11_21_S14 11/21/2017 19:55:00 0.0
2017_11_21_S14 11/21/2017 20:00:00 0.0
2017_11_21_S14 11/21/2017 20:05:00 0.0
2017_11_21_S14 11/21/2017 20:10:00 0.0
2017_11_21_S14 11/21/2017 20:15:00 0.0
2017_11_21_S14 11/21/2017 20:20:00 0.0
2017_11_21_S14 11/21/2017 20:25:00 0.0
2017_11_21_S14 11/21/2017 20:30:00 0.0
2017_11_21_S14 11/21/2017 20:35:00 0.0
2017_11_21_S14 11/21/2017 20:40:00 0.0
2017_11_21_S14 11/21/2017 20:45:00 0.0
2017_11_21_S14 11/21/2017 20:50:00 0.0
2017_11_21_S14 11/21/2017 20:55:00 0.0
2017_11_21_S14 11/21/2017 21:00:00 0.0
2017_11_21_S14 11/21/2017 21:05:00 0.0
2017_11_21_S14 11/21/2017 21:10:00 0.0
2017_11_21_S14 11/21/2017 21:15:00 0.0
2017_11_21_S14 11/21/2017 21:20:00 0.0
2017_11_21_S14 11/21/2017 21:25:00 0.0
2017_11_21_S14 11/21/2017 21:30:00 0.0
2017_11_21_S14 11/21/2017 21:35:00 0.0
2017_11_21_S14 11/21/2017 21:40:00 0.0
2017_11_21_S14 11/21/2017 21:45:00 0.0
2017_11_21_S14 11/21/2017 21:50:00 0.0
2017_11_21_S14 11/21/2017 21:55:00 0.0
2017_11_21_S14 11/21/2017 22:00:00 0.0
2017_11_21_S14 11/21/2017 22:05:00 0.0
2017_11_21_S14 11/21/2017 22:10:00 0.0
2017_11_21_S14 11/21/2017 22:15:00 0.0
2017_11_21_S14 11/21/2017 22:20:00 0.0
2017_11_21_S14 11/21/2017 22:25:00 0.0
2017_11_21_S14 11/21/2017 22:30:00 0.0
2017_11_21_S14 11/21/2017 22:35:00 0.0
2017_11_21_S14 11/21/2017 22:40:00 0.0068
2017_11_21_S14 11/21/2017 22:45:00 0.0
2017_11_21_S14 11/21/2017 22:50:00 0.0
2017_11_21_S14 11/21/2017 22:55:00 0.0
2017_11_21_S14 11/21/2017 23:00:00 0.0
2017_11_21_S14 11/21/2017 23:05:00 0.0027
2017_11_21_S14 11/21/2017 23:10:00 0.0
2017_11_21_S14 11/21/2017 23:15:00 0.0
2017_11_21_S14 11/21/2017 23:20:00 0.0
2017_11_21_S14 11/21/2017 23:25:00 0.0
2017_11_21_S14 11/21/2017 23:30:00 0.0
2017_11_21_S14 11/21/2017 23:35:00 0.0
2017_11_21_S14 11/21/2017 23:40:00 0.0
2017_11_21_S14 11/21/2017 23:45:00 0.0
2017_11_21_S14 11/21/2017 23:50:00 0.0
2017_11_21_S14 11/21/2017 23:55:00 0.0
2017_11_21_S14 11/22/2017 00:00:00 0.0
2017_11_21_S14 11/22/2017 00:05:00 0.0
2017_11_21_S14 11/22/2017 00:10:00 0.0
2017_11_21_S14 11/22/2017 00:15:00 0.0
2017_11_21_S14 11/22/2017 00:20:00 0.0
2017_11_21_S14 11/22/2017 00:25:00 0.0
2017_11_21_S14 11/22/2017 00:30:00 0.0
2017_11_21_S14 11/22/2017 00:35:00 0.0
2017_11_21_S14 11/22/2017 00:40:00 0.0
2017_11_21_S14 11/22/2017 00:45:00 0.0
2017_11_21_S14 11/22/2017 00:50:00 0.0
2017_11_21_S14 11/22/2017 00:55:00 0.0
2017_11_21_S14 11/22/2017 01:00:00 0.0
2017_11_21_S14 11/22/2017 01:05:00 0.0
2017_11_21_S14 11/22/2017 01:10:00 0.0
2017_11_21_S14 11/22/2017 01:15:00 0.0
2017_11_21_S14 11/22/2017 01:20:00 0.0053
2017_11_21_S14 11/22/2017 01:25:00 0.001
2017_11_21_S14 11/22/2017 01:30:00 0.0052
2017_11_21_S14 11/22/2017 01:35:00 0.0018
2017_11_21_S14 11/22/2017 01:40:00 0.0
2017_11_21_S14 11/22/2017 01:45:00 0.0028
2017_11_21_S14 11/22/2017 01:50:00 0.0
2017_11_21_S14 11/22/2017 01:55:00 0.0
2017_11_21_S14 11/22/2017 02:00:00 0.0
2017_11_21_S14 11/22/2017 02:05:00 0.0
2017_11_21_S14 11/22/2017 02:10:00 0.0
2017_11_21_S14 11/22/2017 02:15:00 0.0
2017_11_21_S14 11/22/2017 02:20:00 0.0
2017_11_21_S14 11/22/2017 02:25:00 0.0
2017_11_21_S14 11/22/2017 02:30:00 0.0
2017_11_21_S14 11/22/2017 02:35:00 0.0
2017_11_21_S14 11/22/2017 02:40:00 0.0
2017_11_21_S14 11/22/2017 02:45:00 0.0
2017_11_21_S14 11/22/2017 02:50:00 0.0
2017_11_21_S14 11/22/2017 02:55:00 0.0
2017_11_21_S14 11/22/2017 03:00:00 0.0
2017_11_21_S14 11/22/2017 03:05:00 0.0
2017_11_21_S14 11/22/2017 03:10:00 0.0
2017_11_21_S14 11/22/2017 03:15:00 0.0
2017_11_21_S14 11/22/2017 03:20:00 0.0
2017_11_21_S14 11/22/2017 03:25:00 0.0
2017_11_21_S14 11/22/2017 03:30:00 0.0
2017_11_21_S14 11/22/2017 03:35:00 0.0
2017_11_21_S14 11/22/2017 03:40:00 0.0
2017_11_21_S14 11/22/2017 03:45:00 0.0
2017_11_21_S14 11/22/2017 03:50:00 0.0
2017_11_21_S14 11/22/2017 03:55:00 0.0
2017_11_21_S14 11/22/2017 04:00:00 0.0
2017_11_21_S14 11/22/2017 04:05:00 0.0
2017_11_21_S14 11/22/2017 04:10:00 0.0
2017_11_21_S14 11/22/2017 04:15:00 0.0
2017_11_21_S14 11/22/2017 04:20:00 0.0
2017_11_21_S14 11/22/2017 04:25:00 0.0
2017_11_21_S14 11/22/2017 04:30:00 0.0
2017_11_21_S14 11/22/2017 04:35:00 0.0
2017_11_21_S14 11/22/2017 04:40:00 0.0
2017_11_21_S14 11/22/2017 04:45:00 0.0
2017_11_21_S14 11/22/2017 04:50:00 0.0
2017_11_21_S14 11/22/2017 04:55:00 0.0
2017_11_21_S14 11/22/2017 05:00:00 0.0
2017_11_21_S14 11/22/2017 05:05:00 0.0
2017_11_21_S14 11/22/2017 05:10:00 0.0
2017_11_21_S14 11/22/2017 05:15:00 0.0
2017_11_21_S14 11/22/2017 05:20:00 0.0
2017_11_21_S14 11/22/2017 05:25:00 0.0
2017_11_21_S14 11/22/2017 05:30:00 0.0
2017_11_21_S14 11/22/2017 05:35:00 0.0
2017_11_21_S14 11/22/2017 05:40:00 0.0
2017_11_21_S14 11/22/2017 05:45:00 0.0
2017_11_21_S14 11/22/2017 05:50:00 0.0
2017_11_21_S14 11/22/2017 05:55:00 0.0
2017_11_21_S14 11/22/2017 06:00:00 0.0
2017_11_21_S14 11/22/2017 06:05:00 0.0
2017_11_21_S14 11/22/2017 06:10:00 0.0
2017_11_21_S14 11/22/2017 06:15:00 0.0
2017_11_21_S14 11/22/2017 06:20:00 0.0
2017_11_21_S14 11/22/2017 06:25:00 0.0
2017_11_21_S14 11/22/2017 06:30:00 0.0
2017_11_21_S14 11/22/2017 06:35:00 0.0
2017_11_21_S14 11/22/2017 06:40:00 0.0
2017_11_21_S14 11/22/2017 06:45:00 0.0
2017_11_21_S14 11/22/2017 06:50:00 0.0
2017_11_21_S14 11/22/2017 06:55:00 0.0
2017_11_21_S14 11/22/2017 07:00:00 0.0
2017_11_21_S14 11/22/2017 07:05:00 0.0
2017_11_21_S14 11/22/2017 07:10:00 0.0
2017_11_21_S14 11/22/2017 07:15:00 0.0
2017_11_21_S14 11/22/2017 07:20:00 0.0
2017_11_21_S14 11/22/2017 07:25:00 0.0
2017_11_21_S14 11/22/2017 07:30:00 0.0
2017_11_21_S14 11/22/2017 07:35:00 0.0
2017_11_21_S14 11/22/2017 07:40:00 0.0
2017_11_21_S14 11/22/2017 07:45:00 0.0
2017_11_21_S14 11/22/2017 07:50:00 0.0
2017_11_21_S14 11/22/2017 07:55:00 0.0
2017_11_21_S14 11/22/2017 08:00:00 0.0

2017_11_21_S15 11/20/2017 22:55:00 0.0469
2017_11_21_S15 11/20/2017 23:00:00 0.0663
2017_11_21_S15 11/20/2017 23:05:00 0.1982
2017_11_21_S15 11/20/2017 23:10:00 0.0574
2017_11_21_S15 11/20/2017 23:15:00 0.0
2017_11_21_S15 11/20/2017 23:20:00 0.0
2017_11_21_S15 11/20/2017 23:25:00 0.0
2017_11_21_S15 11/20/2017 23:30:00 0.0
2017_11_21_S15 11/20/2017 23:35:00 0.0
2017_11_21_S15 11/20/2017 23:40:00 0.0
2017_11_21_S15 11/20/2017 23:45:00 0.0
2017_11_21_S15 11/20/2017 23:50:00 0.0
2017_11_21_S15 11/20/2017 23:55:00 0.0
2017_11_21_S15 11/21/2017 00:00:00 0.0
2017_11_21_S15 11/21/2017 00:05:00 0.0
2017_11_21_S15 11/21/2017 00:10:00 0.0
2017_11_21_S15 11/21/2017 00:15:00 0.0
2017_11_21_S15 11/21/2017 00:20:00 0.0
2017_11_21_S15 11/21/2017 00:25:00 0.0
2017_11_21_S15 11/21/2017 00:30:00 0.0
2017_11_21_S15 11/21/2017 00:35:00 0.0916
2017_11_21_S15 11/21/2017 00:40:00 0.0018
2017_11_21_S15 11/21/2017 00:45:00 0.0
2017_11_21_S15 11/21/2017 00:50:00 0.0026
2017_11_21_S15 11/21/2017 00:55:00 0.0012
2017_11_21_S15 11/21/2017 01:00:00 0.0
2017_11_21_S15 11/21/2017 01:05:00 0.0
2017_11_21_S15 11/21/2017 01:10:00 0.0
2017_11_21_S15 11/21/2017 01:15:00 0.0155
2017_11_21_S15 11/21/2017 01:20:00 1.7734
2017_11_21_S15 11/21/2017 01:25:00 0.0924
2017_11_21_S15 11/21/2017 01:30:00 0.0292
2017_11_21_S15 11/21/2017 01:35:00 0.0253
2017_11_21_S15 11/21/2017 01:40:00 0.0
2017_11_21_S15 11/21/2017 01:45:00 0.0
2017_11_21_S15 11/21/2017 01:50:00 0.0
2017_11_21_S15 11/21/2017 01:55:00 0.0
2017_11_21_S15 11/21/2017 02:00:00 0.0
2017_11_21_S15 11/21/2017 02:05:00 0.0177
2017_11_21_S15 11/21/2017 02:10:00 0.0013
2017_11_21_S15 11/21/2017 02:15:00 0.2481
2017_11_21_S15 11/21/2017 02:20:00 0.1208
2017_11_21_S15 11/21/2017 02:25:00 0.1213
2017_11_21_S15 11/21/2017 02:30:00 0.0095
2017_11_21_S15 11/21/2017 02:35:00 0.0529
2017_11_21_S15 11/21/2017 02:40:00 0.0471
2017_11_21_S15 11/21/2017 02:45:00 0.0206
2017_11_21_S15 11/21/2017 02:50:00 0.0
2017_11_21_S15 11/21/2017 02:55:00 0.0
2017_11_21_S15 11/21/2017 03:00:00 0.0
2017_11_21_S15 11/21/2017 03:05:00 0.0
2017_11_21_S15 11/21/2017 03:10:00 0.0
2017_11_21_S15 11/21/2017 03:15:00 0.0
2017_11_21_S15 11/21/2017 03:20:00 0.0
2017_11_21_S15 11/21/2017 03:25:00 0.0008
2017_11_21_S15 11/21/2017 03:30:00 0.0005
2017_11_21_S15 11/21/2017 03:35:00 0.0
2017_11_21_S15 11/21/2017 03:40:00 0.0
2017_11_21_S15 11/21/2017 03:45:00 0.0991
2017_11_21_S15 11/21/2017 03:50:00 0.1157
2017_11_21_S15 11/21/2017 03:55:00 0.1545
2017_11_21_S15 11/21/2017 04:00:00 0.011
2017_11_21_S15 11/21/2017 04:05:00 0.0078
2017_11_21_S15 11/21/2017 04:10:00 0.0177
2017_11_21_S15 11/21/2017 04:15:00 0.0246
2017_11_21_S15 11/21/2017 04:20:00 0.0536
2017_11_21_S15 11/21/2017 04:25:00 0.0003
2017_11_21_S15 11/21/2017 04:30:00 0.3954
2017_11_21_S15 11/21/2017 04:35:00 0.7947
2017_11_21_S15 11/21/2017 04:40:00 0.0348
2017_11_21_S15 11/21/2017 04:45:00 0.0182
2017_11_21_S15 11/21/2017 04:50:00 0.0
2017_11_21_S15 11/21/2017 04:55:00 0.0
2017_11_21_S15 11/21/2017 05:00:00 0.0
2017_11_21_S15 11/21/2017 05:05:00 0.0
2017_11_21_S15 11/21/2017 05:10:00 0.0
2017_11_21_S15 11/21/2017 05:15:00 0.0931
2017_11_21_S15 11/21/2017 05:20:00 1.3569
2017_11_21_S15 11/21/2017 05:25:00 1.683
2017_11_21_S15 11/21/2017 05:30:00 1.4371
2017_11_21_S15 11/21/2017 05:35:00 0.0684
2017_11_21_S15 11/21/2017 05:40:00 0.012
2017_11_21_S15 11/21/2017 05:45:00 0.0001
2017_11_21_S15 11/21/2017 05:50:00 0.0044
2017_11_21_S15 11/21/2017 05:55:00 0.0059
2017_11_21_S15 11/21/2017 06:00:00 0.0
2017_11_21_S15 11/21/2017 06:05:00 0.0025
2017_11_21_S15 11/21/2017 06:10:00 0.0
2017_11_21_S15 11/21/2017 06:15:00 0.0
2017_11_21_S15 11/21/2017 06:20:00 0.0
2017_11_21_S15 11/21/2017 06:25:00 0.0
2017_11_21_S15 11/21/2017 06:30:00 0.0
2017_11_21_S15 11/21/2017 06:35:00 0.0
2017_11_21_S15 11/21/2017 06:40:00 0.0
2017_11_21_S15 11/21/2017 06:45:00 0.0
2017_11_21_S15 11/21/2017 06:50:00 0.0
2017_11_21_S15 11/21/2017 06:55:00 0.0
2017_11_21_S15 11/21/2017 07:00:00 0.0
2017_11_21_S15 11/21/2017 07:05:00 0.0
2017_11_21_S15 11/21/2017 07:10:00 0.0
2017_11_21_S15 11/21/2017 07:15:00 0.0
2017_11_21_S15 11/21/2017 07:20:00 0.0
2017_11_21_S15 11/21/2017 07:25:00 0.0442
2017_11_21_S15 11/21/2017 07:30:00 0.3692
2017_11_21_S15 11/21/2017 07:35:00 0.1543
2017_11_21_S15 11/21/2017 07:40:00 0.0304
2017_11_21_S15 11/21/2017 07:45:00 0.0152
2017_11_21_S15 11/21/2017 07:50:00 0.0
2017_11_21_S15 11/21/2017 07:55:00 0.0
2017_11_21_S15 11/21/2017 08:00:00 0.0
2017_11_21_S15 11/21/2017 08:05:00 0.0988
2017_11_21_S15 11/21/2017 08:10:00 0.0652
2017_11_21_S15 11/21/2017 08:15:00 0.0204
2017_11_21_S15 11/21/2017 08:20:00 0.0
2017_11_21_S15 11/21/2017 08:25:00 0.1012
2017_11_21_S15 11/21/2017 08:30:00 0.0238
2017_11_21_S15 11/21/2017 08:35:00 0.0167
2017_11_21_S15 11/21/2017 08:40:00 0.5009
2017_11_21_S15 11/21/2017 08:45:00 0.4017
2017_11_21_S15 11/21/2017 08:50:00 0.8009
2017_11_21_S15 11/21/2017 08:55:00 0.0
2017_11_21_S15 11/21/2017 09:00:00 0.0
2017_11_21_S15 11/21/2017 09:05:00 0.0
2017_11_21_S15 11/21/2017 09:10:00 0.0
2017_11_21_S15 11/21/2017 09:15:00 0.0
2017_11_21_S15 11/21/2017 09:20:00 0.0
2017_11_21_S15 11/21/2017 09:25:00 0.0
2017_11_21_S15 11/21/2017 09:30:00 0.0
2017_11_21_S15 11/21/2017 09:35:00 0.0
2017_11_21_S15 11/21/2017 09:40:00 0.0
2017_11_21_S15 11/21/2017 09:45:00 0.0
2017_11_21_S15 11/21/2017 09:50:00 0.1677
2017_11_21_S15 11/21/2017 09:55:00 0.6958
2017_11_21_S15 11/21/2017 10:00:00 0.0403
2017_11_21_S15 11/21/2017 10:05:00 0.0129
2017_11_21_S15 11/21/2017 10:10:00 0.0
2017_11_21_S15 11/21/2017 10:15:00 0.1323
2017_11_21_S15 11/21/2017 10:20:00 0.0
2017_11_21_S15 11/21/2017 10:25:00 0.0
2017_11_21_S15 11/21/2017 10:30:00 0.0035
2017_11_21_S15 11/21/2017 10:35:00 0.007
2017_11_21_S15 11/21/2017 10:40:00 0.0105
2017_11_21_S15 11/21/2017 10:45:00 0.0119
2017_11_21_S15 11/21/2017 10:50:00 0.0
2017_11_21_S15 11/21/2017 10:55:00 0.0
2017_11_21_S15 11/21/2017 11:00:00 0.0
2017_11_21_S15 11/21/2017 11:05:00 0.0
2017_11_21_S15 11/21/2017 11:10:00 0.0
2017_11_21_S15 11/21/2017 11:15:00 0.0
2017_11_21_S15 11/21/2017 11:20:00 0.0
2017_11_21_S15 11/21/2017 11:25:00 0.0
2017_11_21_S15 11/21/2017 11:30:00 0.0
2017_11_21_S15 11/21/2017 11:35:00 0.0
2017_11_21_S15 11/21/2017 11:40:00 0.0
2017_11_21_S15 11/21/2017 11:45:00 0.0
2017_11_21_S15 11/21/2017 11:50:00 0.0
2017_11_21_S15 11/21/2017 11:55:00 0.0
2017_11_21_S15 11/21/2017 12:00:00 0.0
2017_11_21_S15 11/21/2017 12:05:00 0.0
2017_11_21_S15 11/21/2017 12:10:00 0.0
2017_11_21_S15 11/21/2017 12:15:00 0.0
2017_11_21_S15 11/21/2017 12:20:00 0.0
2017_11_21_S15 11/21/2017 12:25:00 0.0
2017_11_21_S15 11/21/2017 12:30:00 0.0
2017_11_21_S15 11/21/2017 12:35:00 0.0
2017_11_21_S15 11/21/2017 12:40:00 0.0
2017_11_21_S15 11/21/2017 12:45:00 0.0
2017_11_21_S15 11/21/2017 12:50:00 0.0
2017_11_21_S15 11/21/2017 12:55:00 0.0
2017_11_21_S15 11/21/2017 13:00:00 0.0
2017_11_21_S15 11/21/2017 13:05:00 0.0
2017_11_21_S15 11/21/2017 13:10:00 0.0
2017_11_21_S15 11/21/2017 13:15:00 0.0
2017_11_21_S15 11/21/2017 13:20:00 0.0
2017_11_21_S15 11/21/2017 13:25:00 0.0
2017_11_21_S15 11/21/2017 13:30:00 0.0
2017_11_21_S15 11/21/2017 13:35:00 0.0
2017_11_21_S15 11/21/2017 13:40:00 0.0
2017_11_21_S15 11/21/2017 13:45:00 0.0
2017_11_21_S15 11/21/2017 13:50:00 0.0
2017_11_21_S15 11/21/2017 13:55:00 0.0
2017_11_21_S15 11/21/2017 14:00:00 0.0
2017_11_21_S15 11/21/2017 14:05:00 0.0
2017_11_21_S15 11/21/2017 14:10:00 0.0
2017_11_21_S15 11/21/2017 14:15:00 0.0
2017_11_21_S15 11/21/2017 14:20:00 0.0
2017_11_21_S15 11/21/2017 14:25:00 0.0
2017_11_21_S15 11/21/2017 14:30:00 0.0
2017_11_21_S15 11/21/2017 14:35:00 0.0
2017_11_21_S15 11/21/2017 14:40:00 0.0
2017_11_21_S15 11/21/2017 14:45:00 0.0
2017_11_21_S15 11/21/2017 14:50:00 0.0
2017_11_21_S15 11/21/2017 14:55:00 0.0
2017_11_21_S15 11/21/2017 15:00:00 0.0
2017_11_21_S15 11/21/2017 15:05:00 0.0
2017_11_21_S15 11/21/2017 15:10:00 0.0
2017_11_21_S15 11/21/2017 15:15:00 0.0
2017_11_21_S15 11/21/2017 15:20:00 0.0
2017_11_21_S15 11/21/2017 15:25:00 0.0
2017_11_21_S15 11/21/2017 15:30:00 0.0
2017_11_21_S15 11/21/2017 15:35:00 0.0
2017_11_21_S15 11/21/2017 15:40:00 0.0
2017_11_21_S15 11/21/2017 15:45:00 0.0
2017_11_21_S15 11/21/2017 15:50:00 0.0
2017_11_21_S15 11/21/2017 15:55:00 0.0
2017_11_21_S15 11/21/2017 16:00:00 0.0
2017_11_21_S15 11/21/2017 16:05:00 0.0
2017_11_21_S15 11/21/2017 16:10:00 0.0
2017_11_21_S15 11/21/2017 16:15:00 0.0
2017_11_21_S15 11/21/2017 16:20:00 0.0
2017_11_21_S15 11/21/2017 16:25:00 0.0
2017_11_21_S15 11/21/2017 16:30:00 0.0
2017_11_21_S15 11/21/2017 16:35:00 0.0
2017_11_21_S15 11/21/2017 16:40:00 0.0
2017_11_21_S15 11/21/2017 16:45:00 0.0
2017_11_21_S15 11/21/2017 16:50:00 0.0
2017_11_21_S15 11/21/2017 16:55:00 0.0
2017_11_21_S15 11/21/2017 17:00:00 0.0
2017_11_21_S15 11/21/2017 17:05:00 0.0
2017_11_21_S15 11/21/2017 17:10:00 0.0
2017_11_21_S15 11/21/2017 17:15:00 0.0
2017_11_21_S15 11/21/2017 17:20:00 0.0
2017_11_21_S15 11/21/2017 17:25:00 0.0
2017_11_21_S15 11/21/2017 17:30:00 0.0
2017_11_21_S15 11/21/2017 17:35:00 0.0
2017_11_21_S15 11/21/2017 17:40:00 0.0
2017_11_21_S15 11/21/2017 17:45:00 0.0
2017_11_21_S15 11/21/2017 17:50:00 0.0
2017_11_21_S15 11/21/2017 17:55:00 0.0
2017_11_21_S15 11/21/2017 18:00:00 0.0
2017_11_21_S15 11/21/2017 18:05:00 0.0
2017_11_21_S15 11/21/2017 18:10:00 0.0
2017_11_21_S15 11/21/2017 18:15:00 0.0
2017_11_21_S15 11/21/2017 18:20:00 0.0
2017_11_21_S15 11/21/2017 18:25:00 0.0
2017_11_21_S15 11/21/2017 18:30:00 0.0
2017_11_21_S15 11/21/2017 18:35:00 0.0
2017_11_21_S15 11/21/2017 18:40:00 0.0
2017_11_21_S15 11/21/2017 18:45:00 0.0
2017_11_21_S15 11/21/2017 18:50:00 0.0
2017_11_21_S15 11/21/2017 18:55:00 0.0
2017_11_21_S15 11/21/2017 19:00:00 0.0
2017_11_21_S15 11/21/2017 19:05:00 0.0
2017_11_21_S15 11/21/2017 19:10:00 0.0
2017_11_21_S15 11/21/2017 19:15:00 0.0
2017_11_21_S15 11/21/2017 19:20:00 0.0
2017_11_21_S15 11/21/2017 19:25:00 0.0
2017_11_21_S15 11/21/2017 19:30:00 0.0
2017_11_21_S15 11/21/2017 19:35:00 0.0
2017_11_21_S15 11/21/2017 19:40:00 0.0
2017_11_21_S15 11/21/2017 19:45:00 0.0
2017_11_21_S15 11/21/2017 19:50:00 0.0
2017_11_21_S15 11/21/2017 19:55:00 0.0
2017_11_21_S15 11/21/2017 20:00:00 0.0
2017_11_21_S15 11/21/2017 20:05:00 0.0
2017_11_21_S15 11/21/2017 20:10:00 0.0
2017_11_21_S15 11/21/2017 20:15:00 0.0
2017_11_21_S15 11/21/2017 20:20:00 0.0
2017_11_21_S15 11/21/2017 20:25:00 0.0
2017_11_21_S15 11/21/2017 20:30:00 0.0
2017_11_21_S15 11/21/2017 20:35:00 0.0
2017_11_21_S15 11/21/2017 20:40:00 0.0
2017_11_21_S15 11/21/2017 20:45:00 0.0
2017_11_21_S15 11/21/2017 20:50:00 0.0
2017_11_21_S15 11/21/2017 20:55:00 0.0
2017_11_21_S15 11/21/2017 21:00:00 0.0
2017_11_21_S15 11/21/2017 21:05:00 0.0
2017_11_21_S15 11/21/2017 21:10:00 0.0
2017_11_21_S15 11/21/2017 21:15:00 0.0
2017_11_21_S15 11/21/2017 21:20:00 0.0
2017_11_21_S15 11/21/2017 21:25:00 0.0
2017_11_21_S15 11/21/2017 21:30:00 0.0
2017_11_21_S15 11/21/2017 21:35:00 0.0
2017_11_21_S15 11/21/2017 21:40:00 0.0
2017_11_21_S15 11/21/2017 21:45:00 0.0
2017_11_21_S15 11/21/2017 21:50:00 0.0
2017_11_21_S15 11/21/2017 21:55:00 0.0
2017_11_21_S15 11/21/2017 22:00:00 0.0
2017_11_21_S15 11/21/2017 22:05:00 0.0
2017_11_21_S15 11/21/2017 22:10:00 0.0
2017_11_21_S15 11/21/2017 22:15:00 0.0
2017_11_21_S15 11/21/2017 22:20:00 0.0
2017_11_21_S15 11/21/2017 22:25:00 0.0
2017_11_21_S15 11/21/2017 22:30:00 0.0
2017_11_21_S15 11/21/2017 22:35:00 0.0
2017_11_21_S15 11/21/2017 22:40:00 0.0003
2017_11_21_S15 11/21/2017 22:45:00 0.0
2017_11_21_S15 11/21/2017 22:50:00 0.0
2017_11_21_S15 11/21/2017 22:55:00 0.0
2017_11_21_S15 11/21/2017 23:00:00 0.0042
2017_11_21_S15 11/21/2017 23:05:00 0.0009
2017_11_21_S15 11/21/2017 23:10:00 0.0043
2017_11_21_S15 11/21/2017 23:15:00 0.0
2017_11_21_S15 11/21/2017 23:20:00 0.0
2017_11_21_S15 11/21/2017 23:25:00 0.0
2017_11_21_S15 11/21/2017 23:30:00 0.0
2017_11_21_S15 11/21/2017 23:35:00 0.0
2017_11_21_S15 11/21/2017 23:40:00 0.0
2017_11_21_S15 11/21/2017 23:45:00 0.0
2017_11_21_S15 11/21/2017 23:50:00 0.0
2017_11_21_S15 11/21/2017 23:55:00 0.0
2017_11_21_S15 11/22/2017 00:00:00 0.0
2017_11_21_S15 11/22/2017 00:05:00 0.0
2017_11_21_S15 11/22/2017 00:10:00 0.0
2017_11_21_S15 11/22/2017 00:15:00 0.0
2017_11_21_S15 11/22/2017 00:20:00 0.0
2017_11_21_S15 11/22/2017 00:25:00 0.0
2017_11_21_S15 11/22/2017 00:30:00 0.0
2017_11_21_S15 11/22/2017 00:35:00 0.0
2017_11_21_S15 11/22/2017 00:40:00 0.0
2017_11_21_S15 11/22/2017 00:45:00 0.0
2017_11_21_S15 11/22/2017 00:50:00 0.0
2017_11_21_S15 11/22/2017 00:55:00 0.0
2017_11_21_S15 11/22/2017 01:00:00 0.0
2017_11_21_S15 11/22/2017 01:05:00 0.0
2017_11_21_S15 11/22/2017 01:10:00 0.0
2017_11_21_S15 11/22/2017 01:15:00 0.0
2017_11_21_S15 11/22/2017 01:20:00 0.0045
2017_11_21_S15 11/22/2017 01:25:00 0.0011
2017_11_21_S15 11/22/2017 01:30:00 0.001
2017_11_21_S15 11/22/2017 01:35:00 0.0055
2017_11_21_S15 11/22/2017 01:40:00 0.0033
2017_11_21_S15 11/22/2017 01:45:00 0.0
2017_11_21_S15 11/22/2017 01:50:00 0.0009
2017_11_21_S15 11/22/2017 01:55:00 0.0
2017_11_21_S15 11/22/2017 02:00:00 0.0
2017_11_21_S15 11/22/2017 02:05:00 0.0
2017_11_21_S15 11/22/2017 02:10:00 0.0
2017_11_21_S15 11/22/2017 02:15:00 0.001
2017_11_21_S15 11/22/2017 02:20:00 0.0
2017_11_21_S15 11/22/2017 02:25:00 0.0
2017_11_21_S15 11/22/2017 02:30:00 0.0038
2017_11_21_S15 11/22/2017 02:35:00 0.0
2017_11_21_S15 11/22/2017 02:40:00 0.0
2017_11_21_S15 11/22/2017 02:45:00 0.0
2017_11_21_S15 11/22/2017 02:50:00 0.0
2017_11_21_S15 11/22/2017 02:55:00 0.0
2017_11_21_S15 11/22/2017 03:00:00 0.0
2017_11_21_S15 11/22/2017 03:05:00 0.0
2017_11_21_S15 11/22/2017 03:10:00 0.0
2017_11_21_S15 11/22/2017 03:15:00 0.0
2017_11_21_S15 11/22/2017 03:20:00 0.0
2017_11_21_S15 11/22/2017 03:25:00 0.0
2017_11_21_S15 11/22/2017 03:30:00 0.0
2017_11_21_S15 11/22/2017 03:35:00 0.0
2017_11_21_S15 11/22/2017 03:40:00 0.0
2017_11_21_S15 11/22/2017 03:45:00 0.0
2017_11_21_S15 11/22/2017 03:50:00 0.0
2017_11_21_S15 11/22/2017 03:55:00 0.0
2017_11_21_S15 11/22/2017 04:00:00 0.0
2017_11_21_S15 11/22/2017 04:05:00 0.0
2017_11_21_S15 11/22/2017 04:10:00 0.0
2017_11_21_S15 11/22/2017 04:15:00 0.0
2017_11_21_S15 11/22/2017 04:20:00 0.0
2017_11_21_S15 11/22/2017 04:25:00 0.0
2017_11_21_S15 11/22/2017 04:30:00 0.0
2017_11_21_S15 11/22/2017 04:35:00 0.0
2017_11_21_S15 11/22/2017 04:40:00 0.0
2017_11_21_S15 11/22/2017 04:45:00 0.0
2017_11_21_S15 11/22/2017 04:50:00 0.0
2017_11_21_S15 11/22/2017 04:55:00 0.0
2017_11_21_S15 11/22/2017 05:00:00 0.0
2017_11_21_S15 11/22/2017 05:05:00 0.0
2017_11_21_S15 11/22/2017 05:10:00 0.0
2017_11_21_S15 11/22/2017 05:15:00 0.0
2017_11_21_S15 11/22/2017 05:20:00 0.0
2017_11_21_S15 11/22/2017 05:25:00 0.0
2017_11_21_S15 11/22/2017 05:30:00 0.0
2017_11_21_S15 11/22/2017 05:35:00 0.0
2017_11_21_S15 11/22/2017 05:40:00 0.0
2017_11_21_S15 11/22/2017 05:45:00 0.0
2017_11_21_S15 11/22/2017 05:50:00 0.0
2017_11_21_S15 11/22/2017 05:55:00 0.0
2017_11_21_S15 11/22/2017 06:00:00 0.0
2017_11_21_S15 11/22/2017 06:05:00 0.0
2017_11_21_S15 11/22/2017 06:10:00 0.0
2017_11_21_S15 11/22/2017 06:15:00 0.0
2017_11_21_S15 11/22/2017 06:20:00 0.0
2017_11_21_S15 11/22/2017 06:25:00 0.0
2017_11_21_S15 11/22/2017 06:30:00 0.0
2017_11_21_S15 11/22/2017 06:35:00 0.0
2017_11_21_S15 11/22/2017 06:40:00 0.0
2017_11_21_S15 11/22/2017 06:45:00 0.0
2017_11_21_S15 11/22/2017 06:50:00 0.0
2017_11_21_S15 11/22/2017 06:55:00 0.0
2017_11_21_S15 11/22/2017 07:00:00 0.001
2017_11_21_S15 11/22/2017 07:05:00 0.0
2017_11_21_S15 11/22/2017 07:10:00 0.0
2017_11_21_S15 11/22/2017 07:15:00 0.0
2017_11_21_S15 11/22/2017 07:20:00 0.0
2017_11_21_S15 11/22/2017 07:25:00 0.0
2017_11_21_S15 11/22/2017 07:30:00 0.0
2017_11_21_S15 11/22/2017 07:35:00 0.0
2017_11_21_S15 11/22/2017 07:40:00 0.0
2017_11_21_S15 11/22/2017 07:45:00 0.0
2017_11_21_S15 11/22/2017 07:50:00 0.0
2017_11_21_S15 11/22/2017 07:55:00 0.0
2017_11_21_S15 11/22/2017 08:00:00 0.0

2017_11_21_S16 11/20/2017 22:55:00 0.0336
2017_11_21_S16 11/20/2017 23:00:00 0.0325
2017_11_21_S16 11/20/2017 23:05:00 0.241
2017_11_21_S16 11/20/2017 23:10:00 0.1264
2017_11_21_S16 11/20/2017 23:15:00 0.0
2017_11_21_S16 11/20/2017 23:20:00 0.0
2017_11_21_S16 11/20/2017 23:25:00 0.0
2017_11_21_S16 11/20/2017 23:30:00 0.0
2017_11_21_S16 11/20/2017 23:35:00 0.0
2017_11_21_S16 11/20/2017 23:40:00 0.0
2017_11_21_S16 11/20/2017 23:45:00 0.0
2017_11_21_S16 11/20/2017 23:50:00 0.0
2017_11_21_S16 11/20/2017 23:55:00 0.0
2017_11_21_S16 11/21/2017 00:00:00 0.0
2017_11_21_S16 11/21/2017 00:05:00 0.0
2017_11_21_S16 11/21/2017 00:10:00 0.0
2017_11_21_S16 11/21/2017 00:15:00 0.0
2017_11_21_S16 11/21/2017 00:20:00 0.0
2017_11_21_S16 11/21/2017 00:25:00 0.0
2017_11_21_S16 11/21/2017 00:30:00 0.0
2017_11_21_S16 11/21/2017 00:35:00 0.0189
2017_11_21_S16 11/21/2017 00:40:00 0.0144
2017_11_21_S16 11/21/2017 00:45:00 0.0
2017_11_21_S16 11/21/2017 00:50:00 0.0
2017_11_21_S16 11/21/2017 00:55:00 0.0022
2017_11_21_S16 11/21/2017 01:00:00 0.0
2017_11_21_S16 11/21/2017 01:05:00 0.0
2017_11_21_S16 11/21/2017 01:10:00 0.0
2017_11_21_S16 11/21/2017 01:15:00 0.0
2017_11_21_S16 11/21/2017 01:20:00 2.4147
2017_11_21_S16 11/21/2017 01:25:00 0.089
2017_11_21_S16 11/21/2017 01:30:00 0.0651
2017_11_21_S16 11/21/2017 01:35:00 0.0176
2017_11_21_S16 11/21/2017 01:40:00 0.0
2017_11_21_S16 11/21/2017 01:45:00 0.0
2017_11_21_S16 11/21/2017 01:50:00 0.0
2017_11_21_S16 11/21/2017 01:55:00 0.0
2017_11_21_S16 11/21/2017 02:00:00 0.0
2017_11_21_S16 11/21/2017 02:05:00 0.0035
2017_11_21_S16 11/21/2017 02:10:00 0.0
2017_11_21_S16 11/21/2017 02:15:00 0.1756
2017_11_21_S16 11/21/2017 02:20:00 0.1401
2017_11_21_S16 11/21/2017 02:25:00 0.0783
2017_11_21_S16 11/21/2017 02:30:00 0.0088
2017_11_21_S16 11/21/2017 02:35:00 0.0377
2017_11_21_S16 11/21/2017 02:40:00 0.0913
2017_11_21_S16 11/21/2017 02:45:00 0.0968
2017_11_21_S16 11/21/2017 02:50:00 0.0
2017_11_21_S16 11/21/2017 02:55:00 0.0
2017_11_21_S16 11/21/2017 03:00:00 0.0
2017_11_21_S16 11/21/2017 03:05:00 0.0
2017_11_21_S16 11/21/2017 03:10:00 0.0
2017_11_21_S16 11/21/2017 03:15:00 0.0
2017_11_21_S16 11/21/2017 03:20:00 0.0
2017_11_21_S16 11/21/2017 03:25:00 0.0
2017_11_21_S16 11/21/2017 03:30:00 0.0056
2017_11_21_S16 11/21/2017 03:35:00 0.0
2017_11_21_S16 11/21/2017 03:40:00 0.0
2017_11_21_S16 11/21/2017 03:45:00 0.059
2017_11_21_S16 11/21/2017 03:50:00 0.1099
2017_11_21_S16 11/21/2017 03:55:00 0.2435
2017_11_21_S16 11/21/2017 04:00:00 0.0097
2017_11_21_S16 11/21/2017 04:05:00 0.0098
2017_11_21_S16 11/21/2017 04:10:00 0.0099
2017_11_21_S16 11/21/2017 04:15:00 0.0423
2017_11_21_S16 11/21/2017 04:20:00 0.0391
2017_11_21_S16 11/21/2017 04:25:00 0.0
2017_11_21_S16 11/21/2017 04:30:00 0.2715
2017_11_21_S16 11/21/2017 04:35:00 1.858
2017_11_21_S16 11/21/2017 04:40:00 0.0333
2017_11_21_S16 11/21/2017 04:45:00 0.0108
2017_11_21_S16 11/21/2017 04:50:00 0.0031
2017_11_21_S16 11/21/2017 04:55:00 0.0
2017_11_21_S16 11/21/2017 05:00:00 0.0
2017_11_21_S16 11/21/2017 05:05:00 0.0
2017_11_21_S16 11/21/2017 05:10:00 0.0
2017_11_21_S16 11/21/2017 05:15:00 0.0424
2017_11_21_S16 11/21/2017 05:20:00 0.9877
2017_11_21_S16 11/21/2017 05:25:00 1.9174
2017_11_21_S16 11/21/2017 05:30:00 1.8575
2017_11_21_S16 11/21/2017 05:35:00 0.0986
2017_11_21_S16 11/21/2017 05:40:00 0.0103
2017_11_21_S16 11/21/2017 05:45:00 0.0
2017_11_21_S16 11/21/2017 05:50:00 0.0
2017_11_21_S16 11/21/2017 05:55:00 0.0082
2017_11_21_S16 11/21/2017 06:00:00 0.0
2017_11_21_S16 11/21/2017 06:05:00 0.0
2017_11_21_S16 11/21/2017 06:10:00 0.0
2017_11_21_S16 11/21/2017 06:15:00 0.0
2017_11_21_S16 11/21/2017 06:20:00 0.0
2017_11_21_S16 11/21/2017 06:25:00 0.0
2017_11_21_S16 11/21/2017 06:30:00 0.0
2017_11_21_S16 11/21/2017 06:35:00 0.0
2017_11_21_S16 11/21/2017 06:40:00 0.0
2017_11_21_S16 11/21/2017 06:45:00 0.0
2017_11_21_S16 11/21/2017 06:50:00 0.0
2017_11_21_S16 11/21/2017 06:55:00 0.0
2017_11_21_S16 11/21/2017 07:00:00 0.0
2017_11_21_S16 11/21/2017 07:05:00 0.0
2017_11_21_S16 11/21/2017 07:10:00 0.0
2017_11_21_S16 11/21/2017 07:15:00 0.0
2017_11_21_S16 11/21/2017 07:20:00 0.0
2017_11_21_S16 11/21/2017 07:25:00 0.0275
2017_11_21_S16 11/21/2017 07:30:00 0.4475
2017_11_21_S16 11/21/2017 07:35:00 0.1388
2017_11_21_S16 11/21/2017 07:40:00 0.0179
2017_11_21_S16 11/21/2017 07:45:00 0.021
2017_11_21_S16 11/21/2017 07:50:00 0.0028
2017_11_21_S16 11/21/2017 07:55:00 0.0
2017_11_21_S16 11/21/2017 08:00:00 0.0
2017_11_21_S16 11/21/2017 08:05:00 0.0379
2017_11_21_S16 11/21/2017 08:10:00 0.1232
2017_11_21_S16 11/21/2017 08:15:00 0.0704
2017_11_21_S16 11/21/2017 08:20:00 0.0062
2017_11_21_S16 11/21/2017 08:25:00 0.0731
2017_11_21_S16 11/21/2017 08:30:00 0.0101
2017_11_21_S16 11/21/2017 08:35:00 0.0306
2017_11_21_S16 11/21/2017 08:40:00 0.3458
2017_11_21_S16 11/21/2017 08:45:00 0.3191
2017_11_21_S16 11/21/2017 08:50:00 1.5159
2017_11_21_S16 11/21/2017 08:55:00 0.0
2017_11_21_S16 11/21/2017 09:00:00 0.0
2017_11_21_S16 11/21/2017 09:05:00 0.0
2017_11_21_S16 11/21/2017 09:10:00 0.0
2017_11_21_S16 11/21/2017 09:15:00 0.0
2017_11_21_S16 11/21/2017 09:20:00 0.0
2017_11_21_S16 11/21/2017 09:25:00 0.0
2017_11_21_S16 11/21/2017 09:30:00 0.0
2017_11_21_S16 11/21/2017 09:35:00 0.0
2017_11_21_S16 11/21/2017 09:40:00 0.0
2017_11_21_S16 11/21/2017 09:45:00 0.0
2017_11_21_S16 11/21/2017 09:50:00 0.0914
2017_11_21_S16 11/21/2017 09:55:00 0.4772
2017_11_21_S16 11/21/2017 10:00:00 0.1581
2017_11_21_S16 11/21/2017 10:05:00 0.0177
2017_11_21_S16 11/21/2017 10:10:00 0.0
2017_11_21_S16 11/21/2017 10:15:00 0.1665
2017_11_21_S16 11/21/2017 10:20:00 0.0
2017_11_21_S16 11/21/2017 10:25:00 0.0
2017_11_21_S16 11/21/2017 10:30:00 0.0007
2017_11_21_S16 11/21/2017 10:35:00 0.0014
2017_11_21_S16 11/21/2017 10:40:00 0.0021
2017_11_21_S16 11/21/2017 10:45:00 0.0343
2017_11_21_S16 11/21/2017 10:50:00 0.0
2017_11_21_S16 11/21/2017 10:55:00 0.0
2017_11_21_S16 11/21/2017 11:00:00 0.0
2017_11_21_S16 11/21/2017 11:05:00 0.0
2017_11_21_S16 11/21/2017 11:10:00 0.0
2017_11_21_S16 11/21/2017 11:15:00 0.0
2017_11_21_S16 11/21/2017 11:20:00 0.0
2017_11_21_S16 11/21/2017 11:25:00 0.0
2017_11_21_S16 11/21/2017 11:30:00 0.0
2017_11_21_S16 11/21/2017 11:35:00 0.0
2017_11_21_S16 11/21/2017 11:40:00 0.0
2017_11_21_S16 11/21/2017 11:45:00 0.0
2017_11_21_S16 11/21/2017 11:50:00 0.0
2017_11_21_S16 11/21/2017 11:55:00 0.0
2017_11_21_S16 11/21/2017 12:00:00 0.0
2017_11_21_S16 11/21/2017 12:05:00 0.0
2017_11_21_S16 11/21/2017 12:10:00 0.0
2017_11_21_S16 11/21/2017 12:15:00 0.0
2017_11_21_S16 11/21/2017 12:20:00 0.0
2017_11_21_S16 11/21/2017 12:25:00 0.0
2017_11_21_S16 11/21/2017 12:30:00 0.0
2017_11_21_S16 11/21/2017 12:35:00 0.0
2017_11_21_S16 11/21/2017 12:40:00 0.0
2017_11_21_S16 11/21/2017 12:45:00 0.0
2017_11_21_S16 11/21/2017 12:50:00 0.0
2017_11_21_S16 11/21/2017 12:55:00 0.0
2017_11_21_S16 11/21/2017 13:00:00 0.0
2017_11_21_S16 11/21/2017 13:05:00 0.0
2017_11_21_S16 11/21/2017 13:10:00 0.0
2017_11_21_S16 11/21/2017 13:15:00 0.0
2017_11_21_S16 11/21/2017 13:20:00 0.0
2017_11_21_S16 11/21/2017 13:25:00 0.0
2017_11_21_S16 11/21/2017 13:30:00 0.0
2017_11_21_S16 11/21/2017 13:35:00 0.0
2017_11_21_S16 11/21/2017 13:40:00 0.0
2017_11_21_S16 11/21/2017 13:45:00 0.0
2017_11_21_S16 11/21/2017 13:50:00 0.0
2017_11_21_S16 11/21/2017 13:55:00 0.0
2017_11_21_S16 11/21/2017 14:00:00 0.0
2017_11_21_S16 11/21/2017 14:05:00 0.0
2017_11_21_S16 11/21/2017 14:10:00 0.0
2017_11_21_S16 11/21/2017 14:15:00 0.0
2017_11_21_S16 11/21/2017 14:20:00 0.0
2017_11_21_S16 11/21/2017 14:25:00 0.0
2017_11_21_S16 11/21/2017 14:30:00 0.0
2017_11_21_S16 11/21/2017 14:35:00 0.0
2017_11_21_S16 11/21/2017 14:40:00 0.0
2017_11_21_S16 11/21/2017 14:45:00 0.0
2017_11_21_S16 11/21/2017 14:50:00 0.0
2017_11_21_S16 11/21/2017 14:55:00 0.0
2017_11_21_S16 11/21/2017 15:00:00 0.0
2017_11_21_S16 11/21/2017 15:05:00 0.0
2017_11_21_S16 11/21/2017 15:10:00 0.0
2017_11_21_S16 11/21/2017 15:15:00 0.0
2017_11_21_S16 11/21/2017 15:20:00 0.0
2017_11_21_S16 11/21/2017 15:25:00 0.0
2017_11_21_S16 11/21/2017 15:30:00 0.0
2017_11_21_S16 11/21/2017 15:35:00 0.0
2017_11_21_S16 11/21/2017 15:40:00 0.0
2017_11_21_S16 11/21/2017 15:45:00 0.0
2017_11_21_S16 11/21/2017 15:50:00 0.0
2017_11_21_S16 11/21/2017 15:55:00 0.0
2017_11_21_S16 11/21/2017 16:00:00 0.0
2017_11_21_S16 11/21/2017 16:05:00 0.0
2017_11_21_S16 11/21/2017 16:10:00 0.0
2017_11_21_S16 11/21/2017 16:15:00 0.0
2017_11_21_S16 11/21/2017 16:20:00 0.0
2017_11_21_S16 11/21/2017 16:25:00 0.0
2017_11_21_S16 11/21/2017 16:30:00 0.0
2017_11_21_S16 11/21/2017 16:35:00 0.0
2017_11_21_S16 11/21/2017 16:40:00 0.0
2017_11_21_S16 11/21/2017 16:45:00 0.0
2017_11_21_S16 11/21/2017 16:50:00 0.0
2017_11_21_S16 11/21/2017 16:55:00 0.0
2017_11_21_S16 11/21/2017 17:00:00 0.0
2017_11_21_S16 11/21/2017 17:05:00 0.0
2017_11_21_S16 11/21/2017 17:10:00 0.0
2017_11_21_S16 11/21/2017 17:15:00 0.0
2017_11_21_S16 11/21/2017 17:20:00 0.0
2017_11_21_S16 11/21/2017 17:25:00 0.0
2017_11_21_S16 11/21/2017 17:30:00 0.0
2017_11_21_S16 11/21/2017 17:35:00 0.0
2017_11_21_S16 11/21/2017 17:40:00 0.0
2017_11_21_S16 11/21/2017 17:45:00 0.0
2017_11_21_S16 11/21/2017 17:50:00 0.0
2017_11_21_S16 11/21/2017 17:55:00 0.0
2017_11_21_S16 11/21/2017 18:00:00 0.0
2017_11_21_S16 11/21/2017 18:05:00 0.0
2017_11_21_S16 11/21/2017 18:10:00 0.0
2017_11_21_S16 11/21/2017 18:15:00 0.0
2017_11_21_S16 11/21/2017 18:20:00 0.0
2017_11_21_S16 11/21/2017 18:25:00 0.0
2017_11_21_S16 11/21/2017 18:30:00 0.0
2017_11_21_S16 11/21/2017 18:35:00 0.0
2017_11_21_S16 11/21/2017 18:40:00 0.0
2017_11_21_S16 11/21/2017 18:45:00 0.0
2017_11_21_S16 11/21/2017 18:50:00 0.0
2017_11_21_S16 11/21/2017 18:55:00 0.0
2017_11_21_S16 11/21/2017 19:00:00 0.0
2017_11_21_S16 11/21/2017 19:05:00 0.0
2017_11_21_S16 11/21/2017 19:10:00 0.0
2017_11_21_S16 11/21/2017 19:15:00 0.0
2017_11_21_S16 11/21/2017 19:20:00 0.0
2017_11_21_S16 11/21/2017 19:25:00 0.0
2017_11_21_S16 11/21/2017 19:30:00 0.0
2017_11_21_S16 11/21/2017 19:35:00 0.0
2017_11_21_S16 11/21/2017 19:40:00 0.0
2017_11_21_S16 11/21/2017 19:45:00 0.0
2017_11_21_S16 11/21/2017 19:50:00 0.0
2017_11_21_S16 11/21/2017 19:55:00 0.0
2017_11_21_S16 11/21/2017 20:00:00 0.0
2017_11_21_S16 11/21/2017 20:05:00 0.0
2017_11_21_S16 11/21/2017 20:10:00 0.0
2017_11_21_S16 11/21/2017 20:15:00 0.0
2017_11_21_S16 11/21/2017 20:20:00 0.0
2017_11_21_S16 11/21/2017 20:25:00 0.0
2017_11_21_S16 11/21/2017 20:30:00 0.0
2017_11_21_S16 11/21/2017 20:35:00 0.0
2017_11_21_S16 11/21/2017 20:40:00 0.0
2017_11_21_S16 11/21/2017 20:45:00 0.0
2017_11_21_S16 11/21/2017 20:50:00 0.0
2017_11_21_S16 11/21/2017 20:55:00 0.0
2017_11_21_S16 11/21/2017 21:00:00 0.0
2017_11_21_S16 11/21/2017 21:05:00 0.0
2017_11_21_S16 11/21/2017 21:10:00 0.0
2017_11_21_S16 11/21/2017 21:15:00 0.0
2017_11_21_S16 11/21/2017 21:20:00 0.0
2017_11_21_S16 11/21/2017 21:25:00 0.0
2017_11_21_S16 11/21/2017 21:30:00 0.0
2017_11_21_S16 11/21/2017 21:35:00 0.0
2017_11_21_S16 11/21/2017 21:40:00 0.0
2017_11_21_S16 11/21/2017 21:45:00 0.0
2017_11_21_S16 11/21/2017 21:50:00 0.0
2017_11_21_S16 11/21/2017 21:55:00 0.0
2017_11_21_S16 11/21/2017 22:00:00 0.0
2017_11_21_S16 11/21/2017 22:05:00 0.0
2017_11_21_S16 11/21/2017 22:10:00 0.0
2017_11_21_S16 11/21/2017 22:15:00 0.0
2017_11_21_S16 11/21/2017 22:20:00 0.0
2017_11_21_S16 11/21/2017 22:25:00 0.0
2017_11_21_S16 11/21/2017 22:30:00 0.0
2017_11_21_S16 11/21/2017 22:35:00 0.0
2017_11_21_S16 11/21/2017 22:40:00 0.0
2017_11_21_S16 11/21/2017 22:45:00 0.0
2017_11_21_S16 11/21/2017 22:50:00 0.0
2017_11_21_S16 11/21/2017 22:55:00 0.0
2017_11_21_S16 11/21/2017 23:00:00 0.0042
2017_11_21_S16 11/21/2017 23:05:00 0.0
2017_11_21_S16 11/21/2017 23:10:00 0.0048
2017_11_21_S16 11/21/2017 23:15:00 0.0023
2017_11_21_S16 11/21/2017 23:20:00 0.0
2017_11_21_S16 11/21/2017 23:25:00 0.0
2017_11_21_S16 11/21/2017 23:30:00 0.0
2017_11_21_S16 11/21/2017 23:35:00 0.0
2017_11_21_S16 11/21/2017 23:40:00 0.0
2017_11_21_S16 11/21/2017 23:45:00 0.0
2017_11_21_S16 11/21/2017 23:50:00 0.0
2017_11_21_S16 11/21/2017 23:55:00 0.0
2017_11_21_S16 11/22/2017 00:00:00 0.0
2017_11_21_S16 11/22/2017 00:05:00 0.0
2017_11_21_S16 11/22/2017 00:10:00 0.0
2017_11_21_S16 11/22/2017 00:15:00 0.0
2017_11_21_S16 11/22/2017 00:20:00 0.0
2017_11_21_S16 11/22/2017 00:25:00 0.0
2017_11_21_S16 11/22/2017 00:30:00 0.0
2017_11_21_S16 11/22/2017 00:35:00 0.0
2017_11_21_S16 11/22/2017 00:40:00 0.0
2017_11_21_S16 11/22/2017 00:45:00 0.0
2017_11_21_S16 11/22/2017 00:50:00 0.0
2017_11_21_S16 11/22/2017 00:55:00 0.0
2017_11_21_S16 11/22/2017 01:00:00 0.0
2017_11_21_S16 11/22/2017 01:05:00 0.0
2017_11_21_S16 11/22/2017 01:10:00 0.0
2017_11_21_S16 11/22/2017 01:15:00 0.0
2017_11_21_S16 11/22/2017 01:20:00 0.0
2017_11_21_S16 11/22/2017 01:25:00 0.0
2017_11_21_S16 11/22/2017 01:30:00 0.0
2017_11_21_S16 11/22/2017 01:35:00 0.0013
2017_11_21_S16 11/22/2017 01:40:00 0.016
2017_11_21_S16 11/22/2017 01:45:00 0.0
2017_11_21_S16 11/22/2017 01:50:00 0.0173
2017_11_21_S16 11/22/2017 01:55:00 0.0
2017_11_21_S16 11/22/2017 02:00:00 0.0
2017_11_21_S16 11/22/2017 02:05:00 0.0
2017_11_21_S16 11/22/2017 02:10:00 0.0
2017_11_21_S16 11/22/2017 02:15:00 0.0
2017_11_21_S16 11/22/2017 02:20:00 0.0
2017_11_21_S16 11/22/2017 02:25:00 0.0
2017_11_21_S16 11/22/2017 02:30:00 0.017
2017_11_21_S16 11/22/2017 02:35:00 0.0
2017_11_21_S16 11/22/2017 02:40:00 0.0
2017_11_21_S16 11/22/2017 02:45:00 0.0
2017_11_21_S16 11/22/2017 02:50:00 0.0
2017_11_21_S16 11/22/2017 02:55:00 0.0
2017_11_21_S16 11/22/2017 03:00:00 0.0
2017_11_21_S16 11/22/2017 03:05:00 0.0
2017_11_21_S16 11/22/2017 03:10:00 0.0
2017_11_21_S16 11/22/2017 03:15:00 0.0
2017_11_21_S16 11/22/2017 03:20:00 0.0
2017_11_21_S16 11/22/2017 03:25:00 0.0
2017_11_21_S16 11/22/2017 03:30:00 0.0
2017_11_21_S16 11/22/2017 03:35:00 0.0
2017_11_21_S16 11/22/2017 03:40:00 0.0
2017_11_21_S16 11/22/2017 03:45:00 0.0
2017_11_21_S16 11/22/2017 03:50:00 0.0
2017_11_21_S16 11/22/2017 03:55:00 0.0
2017_11_21_S16 11/22/2017 04:00:00 0.0
2017_11_21_S16 11/22/2017 04:05:00 0.0
2017_11_21_S16 11/22/2017 04:10:00 0.0
2017_11_21_S16 11/22/2017 04:15:00 0.0
2017_11_21_S16 11/22/2017 04:20:00 0.0
2017_11_21_S16 11/22/2017 04:25:00 0.0
2017_11_21_S16 11/22/2017 04:30:00 0.0
2017_11_21_S16 11/22/2017 04:35:00 0.0
2017_11_21_S16 11/22/2017 04:40:00 0.0
2017_11_21_S16 11/22/2017 04:45:00 0.0
2017_11_21_S16 11/22/2017 04:50:00 0.0
2017_11_21_S16 11/22/2017 04:55:00 0.0
2017_11_21_S16 11/22/2017 05:00:00 0.0
2017_11_21_S16 11/22/2017 05:05:00 0.0
2017_11_21_S16 11/22/2017 05:10:00 0.0
2017_11_21_S16 11/22/2017 05:15:00 0.0
2017_11_21_S16 11/22/2017 05:20:00 0.0
2017_11_21_S16 11/22/2017 05:25:00 0.0
2017_11_21_S16 11/22/2017 05:30:00 0.0
2017_11_21_S16 11/22/2017 05:35:00 0.0
2017_11_21_S16 11/22/2017 05:40:00 0.0
2017_11_21_S16 11/22/2017 05:45:00 0.0
2017_11_21_S16 11/22/2017 05:50:00 0.0
2017_11_21_S16 11/22/2017 05:55:00 0.0
2017_11_21_S16 11/22/2017 06:00:00 0.0
2017_11_21_S16 11/22/2017 06:05:00 0.0
2017_11_21_S16 11/22/2017 06:10:00 0.0
2017_11_21_S16 11/22/2017 06:15:00 0.0
2017_11_21_S16 11/22/2017 06:20:00 0.0
2017_11_21_S16 11/22/2017 06:25:00 0.0
2017_11_21_S16 11/22/2017 06:30:00 0.0
2017_11_21_S16 11/22/2017 06:35:00 0.0
2017_11_21_S16 11/22/2017 06:40:00 0.0
2017_11_21_S16 11/22/2017 06:45:00 0.0
2017_11_21_S16 11/22/2017 06:50:00 0.0
2017_11_21_S16 11/22/2017 06:55:00 0.0
2017_11_21_S16 11/22/2017 07:00:00 0.0
2017_11_21_S16 11/22/2017 07:05:00 0.0
2017_11_21_S16 11/22/2017 07:10:00 0.0
2017_11_21_S16 11/22/2017 07:15:00 0.0
2017_11_21_S16 11/22/2017 07:20:00 0.0
2017_11_21_S16 11/22/2017 07:25:00 0.0
2017_11_21_S16 11/22/2017 07:30:00 0.0
2017_11_21_S16 11/22/2017 07:35:00 0.0
2017_11_21_S16 11/22/2017 07:40:00 0.0
2017_11_21_S16 11/22/2017 07:45:00 0.0
2017_11_21_S16 11/22/2017 07:50:00 0.0
2017_11_21_S16 11/22/2017 07:55:00 0.0
2017_11_21_S16 11/22/2017 08:00:00 0.0

2017_11_21_S17 11/20/2017 22:55:00 0.0183
2017_11_21_S17 11/20/2017 23:00:00 0.0343
2017_11_21_S17 11/20/2017 23:05:00 0.1121
2017_11_21_S17 11/20/2017 23:10:00 0.019
2017_11_21_S17 11/20/2017 23:15:00 0.0
2017_11_21_S17 11/20/2017 23:20:00 0.0
2017_11_21_S17 11/20/2017 23:25:00 0.0
2017_11_21_S17 11/20/2017 23:30:00 0.0
2017_11_21_S17 11/20/2017 23:35:00 0.0
2017_11_21_S17 11/20/2017 23:40:00 0.0
2017_11_21_S17 11/20/2017 23:45:00 0.0
2017_11_21_S17 11/20/2017 23:50:00 0.0
2017_11_21_S17 11/20/2017 23:55:00 0.0
2017_11_21_S17 11/21/2017 00:00:00 0.0
2017_11_21_S17 11/21/2017 00:05:00 0.0
2017_11_21_S17 11/21/2017 00:10:00 0.0
2017_11_21_S17 11/21/2017 00:15:00 0.0
2017_11_21_S17 11/21/2017 00:20:00 0.0
2017_11_21_S17 11/21/2017 00:25:00 0.0
2017_11_21_S17 11/21/2017 00:30:00 0.0
2017_11_21_S17 11/21/2017 00:35:00 0.0
2017_11_21_S17 11/21/2017 00:40:00 0.0
2017_11_21_S17 11/21/2017 00:45:00 0.0
2017_11_21_S17 11/21/2017 00:50:00 0.0033
2017_11_21_S17 11/21/2017 00:55:00 0.0046
2017_11_21_S17 11/21/2017 01:00:00 0.0
2017_11_21_S17 11/21/2017 01:05:00 0.0
2017_11_21_S17 11/21/2017 01:10:00 0.0
2017_11_21_S17 11/21/2017 01:15:00 0.0276
2017_11_21_S17 11/21/2017 01:20:00 2.4726
2017_11_21_S17 11/21/2017 01:25:00 0.1083
2017_11_21_S17 11/21/2017 01:30:00 0.0711
2017_11_21_S17 11/21/2017 01:35:00 0.0178
2017_11_21_S17 11/21/2017 01:40:00 0.0
2017_11_21_S17 11/21/2017 01:45:00 0.0
2017_11_21_S17 11/21/2017 01:50:00 0.0
2017_11_21_S17 11/21/2017 01:55:00 0.0
2017_11_21_S17 11/21/2017 02:00:00 0.0
2017_11_21_S17 11/21/2017 02:05:00 0.0126
2017_11_21_S17 11/21/2017 02:10:00 0.0085
2017_11_21_S17 11/21/2017 02:15:00 0.3831
2017_11_21_S17 11/21/2017 02:20:00 0.1689
2017_11_21_S17 11/21/2017 02:25:00 0.1075
2017_11_21_S17 11/21/2017 02:30:00 0.0069
2017_11_21_S17 11/21/2017 02:35:00 0.0695
2017_11_21_S17 11/21/2017 02:40:00 0.0633
2017_11_21_S17 11/21/2017 02:45:00 0.0323
2017_11_21_S17 11/21/2017 02:50:00 0.0
2017_11_21_S17 11/21/2017 02:55:00 0.0
2017_11_21_S17 11/21/2017 03:00:00 0.0
2017_11_21_S17 11/21/2017 03:05:00 0.0
2017_11_21_S17 11/21/2017 03:10:00 0.0017
2017_11_21_S17 11/21/2017 03:15:00 0.0
2017_11_21_S17 11/21/2017 03:20:00 0.0
2017_11_21_S17 11/21/2017 03:25:00 0.0053
2017_11_21_S17 11/21/2017 03:30:00 0.0093
2017_11_21_S17 11/21/2017 03:35:00 0.0113
2017_11_21_S17 11/21/2017 03:40:00 0.0
2017_11_21_S17 11/21/2017 03:45:00 0.1714
2017_11_21_S17 11/21/2017 03:50:00 0.0592
2017_11_21_S17 11/21/2017 03:55:00 0.1639
2017_11_21_S17 11/21/2017 04:00:00 0.0148
2017_11_21_S17 11/21/2017 04:05:00 0.0122
2017_11_21_S17 11/21/2017 04:10:00 0.0126
2017_11_21_S17 11/21/2017 04:15:00 0.0346
2017_11_21_S17 11/21/2017 04:20:00 0.0779
2017_11_21_S17 11/21/2017 04:25:00 0.0006
2017_11_21_S17 11/21/2017 04:30:00 0.7912
2017_11_21_S17 11/21/2017 04:35:00 2.1021
2017_11_21_S17 11/21/2017 04:40:00 0.042
2017_11_21_S17 11/21/2017 04:45:00 0.0145
2017_11_21_S17 11/21/2017 04:50:00 0.0
2017_11_21_S17 11/21/2017 04:55:00 0.0
2017_11_21_S17 11/21/2017 05:00:00 0.0
2017_11_21_S17 11/21/2017 05:05:00 0.0
2017_11_21_S17 11/21/2017 05:10:00 0.0
2017_11_21_S17 11/21/2017 05:15:00 0.159
2017_11_21_S17 11/21/2017 05:20:00 1.9222
2017_11_21_S17 11/21/2017 05:25:00 2.9223
2017_11_21_S17 11/21/2017 05:30:00 2.0149
2017_11_21_S17 11/21/2017 05:35:00 0.098
2017_11_21_S17 11/21/2017 05:40:00 0.0119
2017_11_21_S17 11/21/2017 05:45:00 0.0
2017_11_21_S17 11/21/2017 05:50:00 0.0
2017_11_21_S17 11/21/2017 05:55:00 0.0084
2017_11_21_S17 11/21/2017 06:00:00 0.0
2017_11_21_S17 11/21/2017 06:05:00 0.0
2017_11_21_S17 11/21/2017 06:10:00 0.0
2017_11_21_S17 11/21/2017 06:15:00 0.0
2017_11_21_S17 11/21/2017 06:20:00 0.0
2017_11_21_S17 11/21/2017 06:25:00 0.0
2017_11_21_S17 11/21/2017 06:30:00 0.0
2017_11_21_S17 11/21/2017 06:35:00 0.0
2017_11_21_S17 11/21/2017 06:40:00 0.0
2017_11_21_S17 11/21/2017 06:45:00 0.0
2017_11_21_S17 11/21/2017 06:50:00 0.0
2017_11_21_S17 11/21/2017 06:55:00 0.0
2017_11_21_S17 11/21/2017 07:00:00 0.0
2017_11_21_S17 11/21/2017 07:05:00 0.0
2017_11_21_S17 11/21/2017 07:10:00 0.0
2017_11_21_S17 11/21/2017 07:15:00 0.0
2017_11_21_S17 11/21/2017 07:20:00 0.0
2017_11_21_S17 11/21/2017 07:25:00 0.0301
2017_11_21_S17 11/21/2017 07:30:00 0.1279
2017_11_21_S17 11/21/2017 07:35:00 0.0046
2017_11_21_S17 11/21/2017 07:40:00 0.0095
2017_11_21_S17 11/21/2017 07:45:00 0.0088
2017_11_21_S17 11/21/2017 07:50:00 0.0
2017_11_21_S17 11/21/2017 07:55:00 0.0
2017_11_21_S17 11/21/2017 08:00:00 0.0
2017_11_21_S17 11/21/2017 08:05:00 0.0636
2017_11_21_S17 11/21/2017 08:10:00 0.0335
2017_11_21_S17 11/21/2017 08:15:00 0.0542
2017_11_21_S17 11/21/2017 08:20:00 0.0
2017_11_21_S17 11/21/2017 08:25:00 0.0596
2017_11_21_S17 11/21/2017 08:30:00 0.0091
2017_11_21_S17 11/21/2017 08:35:00 0.2894
2017_11_21_S17 11/21/2017 08:40:00 0.9605
2017_11_21_S17 11/21/2017 08:45:00 0.3139
2017_11_21_S17 11/21/2017 08:50:00 0.8436
2017_11_21_S17 11/21/2017 08:55:00 0.0
2017_11_21_S17 11/21/2017 09:00:00 0.0
2017_11_21_S17 11/21/2017 09:05:00 0.0
2017_11_21_S17 11/21/2017 09:10:00 0.0
2017_11_21_S17 11/21/2017 09:15:00 0.0
2017_11_21_S17 11/21/2017 09:20:00 0.0
2017_11_21_S17 11/21/2017 09:25:00 0.0
2017_11_21_S17 11/21/2017 09:30:00 0.0
2017_11_21_S17 11/21/2017 09:35:00 0.0
2017_11_21_S17 11/21/2017 09:40:00 0.0
2017_11_21_S17 11/21/2017 09:45:00 0.0
2017_11_21_S17 11/21/2017 09:50:00 0.245
2017_11_21_S17 11/21/2017 09:55:00 0.5836
2017_11_21_S17 11/21/2017 10:00:00 0.0544
2017_11_21_S17 11/21/2017 10:05:00 0.0128
2017_11_21_S17 11/21/2017 10:10:00 0.0
2017_11_21_S17 11/21/2017 10:15:00 0.1231
2017_11_21_S17 11/21/2017 10:20:00 0.0
2017_11_21_S17 11/21/2017 10:25:00 0.0
2017_11_21_S17 11/21/2017 10:30:00 0.0002
2017_11_21_S17 11/21/2017 10:35:00 0.0005
2017_11_21_S17 11/21/2017 10:40:00 0.0007
2017_11_21_S17 11/21/2017 10:45:00 0.0083
2017_11_21_S17 11/21/2017 10:50:00 0.0
2017_11_21_S17 11/21/2017 10:55:00 0.0
2017_11_21_S17 11/21/2017 11:00:00 0.0
2017_11_21_S17 11/21/2017 11:05:00 0.0
2017_11_21_S17 11/21/2017 11:10:00 0.0
2017_11_21_S17 11/21/2017 11:15:00 0.0
2017_11_21_S17 11/21/2017 11:20:00 0.0
2017_11_21_S17 11/21/2017 11:25:00 0.0
2017_11_21_S17 11/21/2017 11:30:00 0.0
2017_11_21_S17 11/21/2017 11:35:00 0.0
2017_11_21_S17 11/21/2017 11:40:00 0.0
2017_11_21_S17 11/21/2017 11:45:00 0.0
2017_11_21_S17 11/21/2017 11:50:00 0.0
2017_11_21_S17 11/21/2017 11:55:00 0.0
2017_11_21_S17 11/21/2017 12:00:00 0.0
2017_11_21_S17 11/21/2017 12:05:00 0.0
2017_11_21_S17 11/21/2017 12:10:00 0.0
2017_11_21_S17 11/21/2017 12:15:00 0.0
2017_11_21_S17 11/21/2017 12:20:00 0.0
2017_11_21_S17 11/21/2017 12:25:00 0.0
2017_11_21_S17 11/21/2017 12:30:00 0.0
2017_11_21_S17 11/21/2017 12:35:00 0.0
2017_11_21_S17 11/21/2017 12:40:00 0.0
2017_11_21_S17 11/21/2017 12:45:00 0.0
2017_11_21_S17 11/21/2017 12:50:00 0.0
2017_11_21_S17 11/21/2017 12:55:00 0.0
2017_11_21_S17 11/21/2017 13:00:00 0.0
2017_11_21_S17 11/21/2017 13:05:00 0.0
2017_11_21_S17 11/21/2017 13:10:00 0.0
2017_11_21_S17 11/21/2017 13:15:00 0.0
2017_11_21_S17 11/21/2017 13:20:00 0.0
2017_11_21_S17 11/21/2017 13:25:00 0.0
2017_11_21_S17 11/21/2017 13:30:00 0.0
2017_11_21_S17 11/21/2017 13:35:00 0.0
2017_11_21_S17 11/21/2017 13:40:00 0.0
2017_11_21_S17 11/21/2017 13:45:00 0.0
2017_11_21_S17 11/21/2017 13:50:00 0.0
2017_11_21_S17 11/21/2017 13:55:00 0.0
2017_11_21_S17 11/21/2017 14:00:00 0.0
2017_11_21_S17 11/21/2017 14:05:00 0.0
2017_11_21_S17 11/21/2017 14:10:00 0.0
2017_11_21_S17 11/21/2017 14:15:00 0.0
2017_11_21_S17 11/21/2017 14:20:00 0.0
2017_11_21_S17 11/21/2017 14:25:00 0.0
2017_11_21_S17 11/21/2017 14:30:00 0.0
2017_11_21_S17 11/21/2017 14:35:00 0.0
2017_11_21_S17 11/21/2017 14:40:00 0.0
2017_11_21_S17 11/21/2017 14:45:00 0.0
2017_11_21_S17 11/21/2017 14:50:00 0.0
2017_11_21_S17 11/21/2017 14:55:00 0.0
2017_11_21_S17 11/21/2017 15:00:00 0.0
2017_11_21_S17 11/21/2017 15:05:00 0.0
2017_11_21_S17 11/21/2017 15:10:00 0.0
2017_11_21_S17 11/21/2017 15:15:00 0.0
2017_11_21_S17 11/21/2017 15:20:00 0.0
2017_11_21_S17 11/21/2017 15:25:00 0.0
2017_11_21_S17 11/21/2017 15:30:00 0.0
2017_11_21_S17 11/21/2017 15:35:00 0.0
2017_11_21_S17 11/21/2017 15:40:00 0.0
2017_11_21_S17 11/21/2017 15:45:00 0.0
2017_11_21_S17 11/21/2017 15:50:00 0.0
2017_11_21_S17 11/21/2017 15:55:00 0.0
2017_11_21_S17 11/21/2017 16:00:00 0.0
2017_11_21_S17 11/21/2017 16:05:00 0.0
2017_11_21_S17 11/21/2017 16:10:00 0.0
2017_11_21_S17 11/21/2017 16:15:00 0.0
2017_11_21_S17 11/21/2017 16:20:00 0.0
2017_11_21_S17 11/21/2017 16:25:00 0.0
2017_11_21_S17 11/21/2017 16:30:00 0.0
2017_11_21_S17 11/21/2017 16:35:00 0.0
2017_11_21_S17 11/21/2017 16:40:00 0.0
2017_11_21_S17 11/21/2017 16:45:00 0.0
2017_11_21_S17 11/21/2017 16:50:00 0.0
2017_11_21_S17 11/21/2017 16:55:00 0.0
2017_11_21_S17 11/21/2017 17:00:00 0.0
2017_11_21_S17 11/21/2017 17:05:00 0.0
2017_11_21_S17 11/21/2017 17:10:00 0.0
2017_11_21_S17 11/21/2017 17:15:00 0.0
2017_11_21_S17 11/21/2017 17:20:00 0.0
2017_11_21_S17 11/21/2017 17:25:00 0.0
2017_11_21_S17 11/21/2017 17:30:00 0.0
2017_11_21_S17 11/21/2017 17:35:00 0.0
2017_11_21_S17 11/21/2017 17:40:00 0.0
2017_11_21_S17 11/21/2017 17:45:00 0.0
2017_11_21_S17 11/21/2017 17:50:00 0.0
2017_11_21_S17 11/21/2017 17:55:00 0.0
2017_11_21_S17 11/21/2017 18:00:00 0.0
2017_11_21_S17 11/21/2017 18:05:00 0.0
2017_11_21_S17 11/21/2017 18:10:00 0.0
2017_11_21_S17 11/21/2017 18:15:00 0.0
2017_11_21_S17 11/21/2017 18:20:00 0.0
2017_11_21_S17 11/21/2017 18:25:00 0.0
2017_11_21_S17 11/21/2017 18:30:00 0.0
2017_11_21_S17 11/21/2017 18:35:00 0.0
2017_11_21_S17 11/21/2017 18:40:00 0.0
2017_11_21_S17 11/21/2017 18:45:00 0.0
2017_11_21_S17 11/21/2017 18:50:00 0.0
2017_11_21_S17 11/21/2017 18:55:00 0.0
2017_11_21_S17 11/21/2017 19:00:00 0.0
2017_11_21_S17 11/21/2017 19:05:00 0.0
2017_11_21_S17 11/21/2017 19:10:00 0.0
2017_11_21_S17 11/21/2017 19:15:00 0.0
2017_11_21_S17 11/21/2017 19:20:00 0.0
2017_11_21_S17 11/21/2017 19:25:00 0.0
2017_11_21_S17 11/21/2017 19:30:00 0.0
2017_11_21_S17 11/21/2017 19:35:00 0.0
2017_11_21_S17 11/21/2017 19:40:00 0.0
2017_11_21_S17 11/21/2017 19:45:00 0.0
2017_11_21_S17 11/21/2017 19:50:00 0.0
2017_11_21_S17 11/21/2017 19:55:00 0.0
2017_11_21_S17 11/21/2017 20:00:00 0.0
2017_11_21_S17 11/21/2017 20:05:00 0.0
2017_11_21_S17 11/21/2017 20:10:00 0.0
2017_11_21_S17 11/21/2017 20:15:00 0.0
2017_11_21_S17 11/21/2017 20:20:00 0.0
2017_11_21_S17 11/21/2017 20:25:00 0.0
2017_11_21_S17 11/21/2017 20:30:00 0.0
2017_11_21_S17 11/21/2017 20:35:00 0.0
2017_11_21_S17 11/21/2017 20:40:00 0.0
2017_11_21_S17 11/21/2017 20:45:00 0.0
2017_11_21_S17 11/21/2017 20:50:00 0.0
2017_11_21_S17 11/21/2017 20:55:00 0.0
2017_11_21_S17 11/21/2017 21:00:00 0.0
2017_11_21_S17 11/21/2017 21:05:00 0.0
2017_11_21_S17 11/21/2017 21:10:00 0.0
2017_11_21_S17 11/21/2017 21:15:00 0.0
2017_11_21_S17 11/21/2017 21:20:00 0.0
2017_11_21_S17 11/21/2017 21:25:00 0.0
2017_11_21_S17 11/21/2017 21:30:00 0.0
2017_11_21_S17 11/21/2017 21:35:00 0.0
2017_11_21_S17 11/21/2017 21:40:00 0.0
2017_11_21_S17 11/21/2017 21:45:00 0.0
2017_11_21_S17 11/21/2017 21:50:00 0.0
2017_11_21_S17 11/21/2017 21:55:00 0.0
2017_11_21_S17 11/21/2017 22:00:00 0.0
2017_11_21_S17 11/21/2017 22:05:00 0.0
2017_11_21_S17 11/21/2017 22:10:00 0.0
2017_11_21_S17 11/21/2017 22:15:00 0.0
2017_11_21_S17 11/21/2017 22:20:00 0.0
2017_11_21_S17 11/21/2017 22:25:00 0.0
2017_11_21_S17 11/21/2017 22:30:00 0.0
2017_11_21_S17 11/21/2017 22:35:00 0.0
2017_11_21_S17 11/21/2017 22:40:00 0.0005
2017_11_21_S17 11/21/2017 22:45:00 0.0
2017_11_21_S17 11/21/2017 22:50:00 0.0
2017_11_21_S17 11/21/2017 22:55:00 0.0
2017_11_21_S17 11/21/2017 23:00:00 0.0
2017_11_21_S17 11/21/2017 23:05:00 0.0
2017_11_21_S17 11/21/2017 23:10:00 0.0028
2017_11_21_S17 11/21/2017 23:15:00 0.0
2017_11_21_S17 11/21/2017 23:20:00 0.0
2017_11_21_S17 11/21/2017 23:25:00 0.0
2017_11_21_S17 11/21/2017 23:30:00 0.0
2017_11_21_S17 11/21/2017 23:35:00 0.0
2017_11_21_S17 11/21/2017 23:40:00 0.0
2017_11_21_S17 11/21/2017 23:45:00 0.0
2017_11_21_S17 11/21/2017 23:50:00 0.0
2017_11_21_S17 11/21/2017 23:55:00 0.0
2017_11_21_S17 11/22/2017 00:00:00 0.0
2017_11_21_S17 11/22/2017 00:05:00 0.0
2017_11_21_S17 11/22/2017 00:10:00 0.0
2017_11_21_S17 11/22/2017 00:15:00 0.0
2017_11_21_S17 11/22/2017 00:20:00 0.0
2017_11_21_S17 11/22/2017 00:25:00 0.0
2017_11_21_S17 11/22/2017 00:30:00 0.0
2017_11_21_S17 11/22/2017 00:35:00 0.0
2017_11_21_S17 11/22/2017 00:40:00 0.0
2017_11_21_S17 11/22/2017 00:45:00 0.0
2017_11_21_S17 11/22/2017 00:50:00 0.0
2017_11_21_S17 11/22/2017 00:55:00 0.0
2017_11_21_S17 11/22/2017 01:00:00 0.0
2017_11_21_S17 11/22/2017 01:05:00 0.0
2017_11_21_S17 11/22/2017 01:10:00 0.0
2017_11_21_S17 11/22/2017 01:15:00 0.0
2017_11_21_S17 11/22/2017 01:20:00 0.0005
2017_11_21_S17 11/22/2017 01:25:00 0.0
2017_11_21_S17 11/22/2017 01:30:00 0.0049
2017_11_21_S17 11/22/2017 01:35:00 0.0
2017_11_21_S17 11/22/2017 01:40:00 0.0026
2017_11_21_S17 11/22/2017 01:45:00 0.0
2017_11_21_S17 11/22/2017 01:50:00 0.016
2017_11_21_S17 11/22/2017 01:55:00 0.0
2017_11_21_S17 11/22/2017 02:00:00 0.0
2017_11_21_S17 11/22/2017 02:05:00 0.0
2017_11_21_S17 11/22/2017 02:10:00 0.0
2017_11_21_S17 11/22/2017 02:15:00 0.0
2017_11_21_S17 11/22/2017 02:20:00 0.0
2017_11_21_S17 11/22/2017 02:25:00 0.0
2017_11_21_S17 11/22/2017 02:30:00 0.0107
2017_11_21_S17 11/22/2017 02:35:00 0.0
2017_11_21_S17 11/22/2017 02:40:00 0.0
2017_11_21_S17 11/22/2017 02:45:00 0.0
2017_11_21_S17 11/22/2017 02:50:00 0.0
2017_11_21_S17 11/22/2017 02:55:00 0.0
2017_11_21_S17 11/22/2017 03:00:00 0.0
2017_11_21_S17 11/22/2017 03:05:00 0.0
2017_11_21_S17 11/22/2017 03:10:00 0.0
2017_11_21_S17 11/22/2017 03:15:00 0.0
2017_11_21_S17 11/22/2017 03:20:00 0.0
2017_11_21_S17 11/22/2017 03:25:00 0.0
2017_11_21_S17 11/22/2017 03:30:00 0.0
2017_11_21_S17 11/22/2017 03:35:00 0.0
2017_11_21_S17 11/22/2017 03:40:00 0.0
2017_11_21_S17 11/22/2017 03:45:00 0.0
2017_11_21_S17 11/22/2017 03:50:00 0.0
2017_11_21_S17 11/22/2017 03:55:00 0.0
2017_11_21_S17 11/22/2017 04:00:00 0.0
2017_11_21_S17 11/22/2017 04:05:00 0.0
2017_11_21_S17 11/22/2017 04:10:00 0.0
2017_11_21_S17 11/22/2017 04:15:00 0.0
2017_11_21_S17 11/22/2017 04:20:00 0.0
2017_11_21_S17 11/22/2017 04:25:00 0.0
2017_11_21_S17 11/22/2017 04:30:00 0.0
2017_11_21_S17 11/22/2017 04:35:00 0.0
2017_11_21_S17 11/22/2017 04:40:00 0.0
2017_11_21_S17 11/22/2017 04:45:00 0.0
2017_11_21_S17 11/22/2017 04:50:00 0.0
2017_11_21_S17 11/22/2017 04:55:00 0.0
2017_11_21_S17 11/22/2017 05:00:00 0.0
2017_11_21_S17 11/22/2017 05:05:00 0.0
2017_11_21_S17 11/22/2017 05:10:00 0.0
2017_11_21_S17 11/22/2017 05:15:00 0.0
2017_11_21_S17 11/22/2017 05:20:00 0.0
2017_11_21_S17 11/22/2017 05:25:00 0.0
2017_11_21_S17 11/22/2017 05:30:00 0.0
2017_11_21_S17 11/22/2017 05:35:00 0.0
2017_11_21_S17 11/22/2017 05:40:00 0.0
2017_11_21_S17 11/22/2017 05:45:00 0.0
2017_11_21_S17 11/22/2017 05:50:00 0.0
2017_11_21_S17 11/22/2017 05:55:00 0.0
2017_11_21_S17 11/22/2017 06:00:00 0.0
2017_11_21_S17 11/22/2017 06:05:00 0.0
2017_11_21_S17 11/22/2017 06:10:00 0.0
2017_11_21_S17 11/22/2017 06:15:00 0.0
2017_11_21_S17 11/22/2017 06:20:00 0.0
2017_11_21_S17 11/22/2017 06:25:00 0.0
2017_11_21_S17 11/22/2017 06:30:00 0.0
2017_11_21_S17 11/22/2017 06:35:00 0.0
2017_11_21_S17 11/22/2017 06:40:00 0.0
2017_11_21_S17 11/22/2017 06:45:00 0.0
2017_11_21_S17 11/22/2017 06:50:00 0.0
2017_11_21_S17 11/22/2017 06:55:00 0.0
2017_11_21_S17 11/22/2017 07:00:00 0.0
2017_11_21_S17 11/22/2017 07:05:00 0.0
2017_11_21_S17 11/22/2017 07:10:00 0.0
2017_11_21_S17 11/22/2017 07:15:00 0.0
2017_11_21_S17 11/22/2017 07:20:00 0.0
2017_11_21_S17 11/22/2017 07:25:00 0.0
2017_11_21_S17 11/22/2017 07:30:00 0.0
2017_11_21_S17 11/22/2017 07:35:00 0.0
2017_11_21_S17 11/22/2017 07:40:00 0.0
2017_11_21_S17 11/22/2017 07:45:00 0.0
2017_11_21_S17 11/22/2017 07:50:00 0.0
2017_11_21_S17 11/22/2017 07:55:00 0.0
2017_11_21_S17 11/22/2017 08:00:00 0.0

2017_11_21_S18 11/20/2017 22:55:00 0.0002
2017_11_21_S18 11/20/2017 23:00:00 0.0521
2017_11_21_S18 11/20/2017 23:05:00 0.0968
2017_11_21_S18 11/20/2017 23:10:00 0.0
2017_11_21_S18 11/20/2017 23:15:00 0.0
2017_11_21_S18 11/20/2017 23:20:00 0.0
2017_11_21_S18 11/20/2017 23:25:00 0.0
2017_11_21_S18 11/20/2017 23:30:00 0.0
2017_11_21_S18 11/20/2017 23:35:00 0.0
2017_11_21_S18 11/20/2017 23:40:00 0.0
2017_11_21_S18 11/20/2017 23:45:00 0.0
2017_11_21_S18 11/20/2017 23:50:00 0.0
2017_11_21_S18 11/20/2017 23:55:00 0.0
2017_11_21_S18 11/21/2017 00:00:00 0.0
2017_11_21_S18 11/21/2017 00:05:00 0.0
2017_11_21_S18 11/21/2017 00:10:00 0.0
2017_11_21_S18 11/21/2017 00:15:00 0.0
2017_11_21_S18 11/21/2017 00:20:00 0.0
2017_11_21_S18 11/21/2017 00:25:00 0.0
2017_11_21_S18 11/21/2017 00:30:00 0.0
2017_11_21_S18 11/21/2017 00:35:00 0.0
2017_11_21_S18 11/21/2017 00:40:00 0.0
2017_11_21_S18 11/21/2017 00:45:00 0.0
2017_11_21_S18 11/21/2017 00:50:00 0.0096
2017_11_21_S18 11/21/2017 00:55:00 0.0054
2017_11_21_S18 11/21/2017 01:00:00 0.0
2017_11_21_S18 11/21/2017 01:05:00 0.0
2017_11_21_S18 11/21/2017 01:10:00 0.0
2017_11_21_S18 11/21/2017 01:15:00 0.0853
2017_11_21_S18 11/21/2017 01:20:00 0.8322
2017_11_21_S18 11/21/2017 01:25:00 0.2234
2017_11_21_S18 11/21/2017 01:30:00 0.0528
2017_11_21_S18 11/21/2017 01:35:00 0.0127
2017_11_21_S18 11/21/2017 01:40:00 0.0
2017_11_21_S18 11/21/2017 01:45:00 0.0
2017_11_21_S18 11/21/2017 01:50:00 0.0
2017_11_21_S18 11/21/2017 01:55:00 0.0
2017_11_21_S18 11/21/2017 02:00:00 0.0
2017_11_21_S18 11/21/2017 02:05:00 0.0219
2017_11_21_S18 11/21/2017 02:10:00 0.0119
2017_11_21_S18 11/21/2017 02:15:00 0.3723
2017_11_21_S18 11/21/2017 02:20:00 0.0773
2017_11_21_S18 11/21/2017 02:25:00 0.2373
2017_11_21_S18 11/21/2017 02:30:00 0.0001
2017_11_21_S18 11/21/2017 02:35:00 0.1328
2017_11_21_S18 11/21/2017 02:40:00 0.0546
2017_11_21_S18 11/21/2017 02:45:00 0.0001
2017_11_21_S18 11/21/2017 02:50:00 0.0
2017_11_21_S18 11/21/2017 02:55:00 0.0
2017_11_21_S18 11/21/2017 03:00:00 0.0
2017_11_21_S18 11/21/2017 03:05:00 0.0
2017_11_21_S18 11/21/2017 03:10:00 0.0
2017_11_21_S18 11/21/2017 03:15:00 0.0
2017_11_21_S18 11/21/2017 03:20:00 0.0
2017_11_21_S18 11/21/2017 03:25:00 0.0648
2017_11_21_S18 11/21/2017 03:30:00 0.0008
2017_11_21_S18 11/21/2017 03:35:00 0.0227
2017_11_21_S18 11/21/2017 03:40:00 0.0
2017_11_21_S18 11/21/2017 03:45:00 0.4563
2017_11_21_S18 11/21/2017 03:50:00 0.0124
2017_11_21_S18 11/21/2017 03:55:00 0.1331
2017_11_21_S18 11/21/2017 04:00:00 0.026
2017_11_21_S18 11/21/2017 04:05:00 0.0087
2017_11_21_S18 11/21/2017 04:10:00 0.0175
2017_11_21_S18 11/21/2017 04:15:00 0.0171
2017_11_21_S18 11/21/2017 04:20:00 0.0498
2017_11_21_S18 11/21/2017 04:25:00 0.0012
2017_11_21_S18 11/21/2017 04:30:00 1.8723
2017_11_21_S18 11/21/2017 04:35:00 0.875
2017_11_21_S18 11/21/2017 04:40:00 0.048
2017_11_21_S18 11/21/2017 04:45:00 0.0079
2017_11_21_S18 11/21/2017 04:50:00 0.0
2017_11_21_S18 11/21/2017 04:55:00 0.0
2017_11_21_S18 11/21/2017 05:00:00 0.0
2017_11_21_S18 11/21/2017 05:05:00 0.0
2017_11_21_S18 11/21/2017 05:10:00 0.0075
2017_11_21_S18 11/21/2017 05:15:00 0.4568
2017_11_21_S18 11/21/2017 05:20:00 3.937
2017_11_21_S18 11/21/2017 05:25:00 3.7051
2017_11_21_S18 11/21/2017 05:30:00 3.4354
2017_11_21_S18 11/21/2017 05:35:00 0.0513
2017_11_21_S18 11/21/2017 05:40:00 0.0136
2017_11_21_S18 11/21/2017 05:45:00 0.0
2017_11_21_S18 11/21/2017 05:50:00 0.0
2017_11_21_S18 11/21/2017 05:55:00 0.0076
2017_11_21_S18 11/21/2017 06:00:00 0.0
2017_11_21_S18 11/21/2017 06:05:00 0.0
2017_11_21_S18 11/21/2017 06:10:00 0.0
2017_11_21_S18 11/21/2017 06:15:00 0.0
2017_11_21_S18 11/21/2017 06:20:00 0.0
2017_11_21_S18 11/21/2017 06:25:00 0.0
2017_11_21_S18 11/21/2017 06:30:00 0.0
2017_11_21_S18 11/21/2017 06:35:00 0.0
2017_11_21_S18 11/21/2017 06:40:00 0.0
2017_11_21_S18 11/21/2017 06:45:00 0.0
2017_11_21_S18 11/21/2017 06:50:00 0.0
2017_11_21_S18 11/21/2017 06:55:00 0.0
2017_11_21_S18 11/21/2017 07:00:00 0.0
2017_11_21_S18 11/21/2017 07:05:00 0.0
2017_11_21_S18 11/21/2017 07:10:00 0.0
2017_11_21_S18 11/21/2017 07:15:00 0.0
2017_11_21_S18 11/21/2017 07:20:00 0.0
2017_11_21_S18 11/21/2017 07:25:00 0.0184
2017_11_21_S18 11/21/2017 07:30:00 0.0383
2017_11_21_S18 11/21/2017 07:35:00 0.0
2017_11_21_S18 11/21/2017 07:40:00 0.0119
2017_11_21_S18 11/21/2017 07:45:00 0.0
2017_11_21_S18 11/21/2017 07:50:00 0.0
2017_11_21_S18 11/21/2017 07:55:00 0.0
2017_11_21_S18 11/21/2017 08:00:00 0.0
2017_11_21_S18 11/21/2017 08:05:00 0.1732
2017_11_21_S18 11/21/2017 08:10:00 0.0076
2017_11_21_S18 11/21/2017 08:15:00 0.025
2017_11_21_S18 11/21/2017 08:20:00 0.0
2017_11_21_S18 11/21/2017 08:25:00 0.0162
2017_11_21_S18 11/21/2017 08:30:00 0.0481
2017_11_21_S18 11/21/2017 08:35:00 0.2855
2017_11_21_S18 11/21/2017 08:40:00 1.1056
2017_11_21_S18 11/21/2017 08:45:00 0.192
2017_11_21_S18 11/21/2017 08:50:00 0.14
2017_11_21_S18 11/21/2017 08:55:00 0.0
2017_11_21_S18 11/21/2017 09:00:00 0.0
2017_11_21_S18 11/21/2017 09:05:00 0.0
2017_11_21_S18 11/21/2017 09:10:00 0.0
2017_11_21_S18 11/21/2017 09:15:00 0.0
2017_11_21_S18 11/21/2017 09:20:00 0.0
2017_11_21_S18 11/21/2017 09:25:00 0.0
2017_11_21_S18 11/21/2017 09:30:00 0.0
2017_11_21_S18 11/21/2017 09:35:00 0.0
2017_11_21_S18 11/21/2017 09:40:00 0.0
2017_11_21_S18 11/21/2017 09:45:00 0.0012
2017_11_21_S18 11/21/2017 09:50:00 0.3518
2017_11_21_S18 11/21/2017 09:55:00 0.4298
2017_11_21_S18 11/21/2017 10:00:00 0.0366
2017_11_21_S18 11/21/2017 10:05:00 0.0084
2017_11_21_S18 11/21/2017 10:10:00 0.0012
2017_11_21_S18 11/21/2017 10:15:00 0.0327
2017_11_21_S18 11/21/2017 10:20:00 0.0
2017_11_21_S18 11/21/2017 10:25:00 0.0
2017_11_21_S18 11/21/2017 10:30:00 0.0016
2017_11_21_S18 11/21/2017 10:35:00 0.0032
2017_11_21_S18 11/21/2017 10:40:00 0.0048
2017_11_21_S18 11/21/2017 10:45:00 0.0
2017_11_21_S18 11/21/2017 10:50:00 0.0
2017_11_21_S18 11/21/2017 10:55:00 0.0
2017_11_21_S18 11/21/2017 11:00:00 0.0049
2017_11_21_S18 11/21/2017 11:05:00 0.0
2017_11_21_S18 11/21/2017 11:10:00 0.0
2017_11_21_S18 11/21/2017 11:15:00 0.0
2017_11_21_S18 11/21/2017 11:20:00 0.0
2017_11_21_S18 11/21/2017 11:25:00 0.0
2017_11_21_S18 11/21/2017 11:30:00 0.0
2017_11_21_S18 11/21/2017 11:35:00 0.0
2017_11_21_S18 11/21/2017 11:40:00 0.0
2017_11_21_S18 11/21/2017 11:45:00 0.0
2017_11_21_S18 11/21/2017 11:50:00 0.0
2017_11_21_S18 11/21/2017 11:55:00 0.0
2017_11_21_S18 11/21/2017 12:00:00 0.0
2017_11_21_S18 11/21/2017 12:05:00 0.0
2017_11_21_S18 11/21/2017 12:10:00 0.0
2017_11_21_S18 11/21/2017 12:15:00 0.0
2017_11_21_S18 11/21/2017 12:20:00 0.0
2017_11_21_S18 11/21/2017 12:25:00 0.0
2017_11_21_S18 11/21/2017 12:30:00 0.0
2017_11_21_S18 11/21/2017 12:35:00 0.0
2017_11_21_S18 11/21/2017 12:40:00 0.0
2017_11_21_S18 11/21/2017 12:45:00 0.0
2017_11_21_S18 11/21/2017 12:50:00 0.0
2017_11_21_S18 11/21/2017 12:55:00 0.0
2017_11_21_S18 11/21/2017 13:00:00 0.0
2017_11_21_S18 11/21/2017 13:05:00 0.0
2017_11_21_S18 11/21/2017 13:10:00 0.0
2017_11_21_S18 11/21/2017 13:15:00 0.0
2017_11_21_S18 11/21/2017 13:20:00 0.0
2017_11_21_S18 11/21/2017 13:25:00 0.0
2017_11_21_S18 11/21/2017 13:30:00 0.0
2017_11_21_S18 11/21/2017 13:35:00 0.0
2017_11_21_S18 11/21/2017 13:40:00 0.0
2017_11_21_S18 11/21/2017 13:45:00 0.0
2017_11_21_S18 11/21/2017 13:50:00 0.0
2017_11_21_S18 11/21/2017 13:55:00 0.0
2017_11_21_S18 11/21/2017 14:00:00 0.0
2017_11_21_S18 11/21/2017 14:05:00 0.0
2017_11_21_S18 11/21/2017 14:10:00 0.0
2017_11_21_S18 11/21/2017 14:15:00 0.0
2017_11_21_S18 11/21/2017 14:20:00 0.0
2017_11_21_S18 11/21/2017 14:25:00 0.0
2017_11_21_S18 11/21/2017 14:30:00 0.0
2017_11_21_S18 11/21/2017 14:35:00 0.0
2017_11_21_S18 11/21/2017 14:40:00 0.0
2017_11_21_S18 11/21/2017 14:45:00 0.0
2017_11_21_S18 11/21/2017 14:50:00 0.0
2017_11_21_S18 11/21/2017 14:55:00 0.0
2017_11_21_S18 11/21/2017 15:00:00 0.0
2017_11_21_S18 11/21/2017 15:05:00 0.0
2017_11_21_S18 11/21/2017 15:10:00 0.0
2017_11_21_S18 11/21/2017 15:15:00 0.0
2017_11_21_S18 11/21/2017 15:20:00 0.0
2017_11_21_S18 11/21/2017 15:25:00 0.0
2017_11_21_S18 11/21/2017 15:30:00 0.0
2017_11_21_S18 11/21/2017 15:35:00 0.0
2017_11_21_S18 11/21/2017 15:40:00 0.0
2017_11_21_S18 11/21/2017 15:45:00 0.0
2017_11_21_S18 11/21/2017 15:50:00 0.0
2017_11_21_S18 11/21/2017 15:55:00 0.0
2017_11_21_S18 11/21/2017 16:00:00 0.0
2017_11_21_S18 11/21/2017 16:05:00 0.0
2017_11_21_S18 11/21/2017 16:10:00 0.0
2017_11_21_S18 11/21/2017 16:15:00 0.0
2017_11_21_S18 11/21/2017 16:20:00 0.0
2017_11_21_S18 11/21/2017 16:25:00 0.0
2017_11_21_S18 11/21/2017 16:30:00 0.0
2017_11_21_S18 11/21/2017 16:35:00 0.0
2017_11_21_S18 11/21/2017 16:40:00 0.0
2017_11_21_S18 11/21/2017 16:45:00 0.0
2017_11_21_S18 11/21/2017 16:50:00 0.0
2017_11_21_S18 11/21/2017 16:55:00 0.0
2017_11_21_S18 11/21/2017 17:00:00 0.0
2017_11_21_S18 11/21/2017 17:05:00 0.0
2017_11_21_S18 11/21/2017 17:10:00 0.0
2017_11_21_S18 11/21/2017 17:15:00 0.0
2017_11_21_S18 11/21/2017 17:20:00 0.0
2017_11_21_S18 11/21/2017 17:25:00 0.0
2017_11_21_S18 11/21/2017 17:30:00 0.0
2017_11_21_S18 11/21/2017 17:35:00 0.0
2017_11_21_S18 11/21/2017 17:40:00 0.0
2017_11_21_S18 11/21/2017 17:45:00 0.0
2017_11_21_S18 11/21/2017 17:50:00 0.0
2017_11_21_S18 11/21/2017 17:55:00 0.0
2017_11_21_S18 11/21/2017 18:00:00 0.0
2017_11_21_S18 11/21/2017 18:05:00 0.0
2017_11_21_S18 11/21/2017 18:10:00 0.0
2017_11_21_S18 11/21/2017 18:15:00 0.0
2017_11_21_S18 11/21/2017 18:20:00 0.0
2017_11_21_S18 11/21/2017 18:25:00 0.0
2017_11_21_S18 11/21/2017 18:30:00 0.0
2017_11_21_S18 11/21/2017 18:35:00 0.0
2017_11_21_S18 11/21/2017 18:40:00 0.0
2017_11_21_S18 11/21/2017 18:45:00 0.0
2017_11_21_S18 11/21/2017 18:50:00 0.0
2017_11_21_S18 11/21/2017 18:55:00 0.0
2017_11_21_S18 11/21/2017 19:00:00 0.0
2017_11_21_S18 11/21/2017 19:05:00 0.0
2017_11_21_S18 11/21/2017 19:10:00 0.0
2017_11_21_S18 11/21/2017 19:15:00 0.0
2017_11_21_S18 11/21/2017 19:20:00 0.0
2017_11_21_S18 11/21/2017 19:25:00 0.0
2017_11_21_S18 11/21/2017 19:30:00 0.0
2017_11_21_S18 11/21/2017 19:35:00 0.0
2017_11_21_S18 11/21/2017 19:40:00 0.0
2017_11_21_S18 11/21/2017 19:45:00 0.0
2017_11_21_S18 11/21/2017 19:50:00 0.0
2017_11_21_S18 11/21/2017 19:55:00 0.0
2017_11_21_S18 11/21/2017 20:00:00 0.0
2017_11_21_S18 11/21/2017 20:05:00 0.0
2017_11_21_S18 11/21/2017 20:10:00 0.0
2017_11_21_S18 11/21/2017 20:15:00 0.0
2017_11_21_S18 11/21/2017 20:20:00 0.0
2017_11_21_S18 11/21/2017 20:25:00 0.0
2017_11_21_S18 11/21/2017 20:30:00 0.0
2017_11_21_S18 11/21/2017 20:35:00 0.0
2017_11_21_S18 11/21/2017 20:40:00 0.0
2017_11_21_S18 11/21/2017 20:45:00 0.0
2017_11_21_S18 11/21/2017 20:50:00 0.0
2017_11_21_S18 11/21/2017 20:55:00 0.0
2017_11_21_S18 11/21/2017 21:00:00 0.0
2017_11_21_S18 11/21/2017 21:05:00 0.0
2017_11_21_S18 11/21/2017 21:10:00 0.0
2017_11_21_S18 11/21/2017 21:15:00 0.0
2017_11_21_S18 11/21/2017 21:20:00 0.0
2017_11_21_S18 11/21/2017 21:25:00 0.0
2017_11_21_S18 11/21/2017 21:30:00 0.0
2017_11_21_S18 11/21/2017 21:35:00 0.0
2017_11_21_S18 11/21/2017 21:40:00 0.0
2017_11_21_S18 11/21/2017 21:45:00 0.0
2017_11_21_S18 11/21/2017 21:50:00 0.0
2017_11_21_S18 11/21/2017 21:55:00 0.0
2017_11_21_S18 11/21/2017 22:00:00 0.0
2017_11_21_S18 11/21/2017 22:05:00 0.0
2017_11_21_S18 11/21/2017 22:10:00 0.0
2017_11_21_S18 11/21/2017 22:15:00 0.0
2017_11_21_S18 11/21/2017 22:20:00 0.0
2017_11_21_S18 11/21/2017 22:25:00 0.0
2017_11_21_S18 11/21/2017 22:30:00 0.0
2017_11_21_S18 11/21/2017 22:35:00 0.0
2017_11_21_S18 11/21/2017 22:40:00 0.0061
2017_11_21_S18 11/21/2017 22:45:00 0.0
2017_11_21_S18 11/21/2017 22:50:00 0.0
2017_11_21_S18 11/21/2017 22:55:00 0.0
2017_11_21_S18 11/21/2017 23:00:00 0.0
2017_11_21_S18 11/21/2017 23:05:00 0.006
2017_11_21_S18 11/21/2017 23:10:00 0.0
2017_11_21_S18 11/21/2017 23:15:00 0.0
2017_11_21_S18 11/21/2017 23:20:00 0.0
2017_11_21_S18 11/21/2017 23:25:00 0.0
2017_11_21_S18 11/21/2017 23:30:00 0.0
2017_11_21_S18 11/21/2017 23:35:00 0.0
2017_11_21_S18 11/21/2017 23:40:00 0.0
2017_11_21_S18 11/21/2017 23:45:00 0.0
2017_11_21_S18 11/21/2017 23:50:00 0.0
2017_11_21_S18 11/21/2017 23:55:00 0.0
2017_11_21_S18 11/22/2017 00:00:00 0.0
2017_11_21_S18 11/22/2017 00:05:00 0.0
2017_11_21_S18 11/22/2017 00:10:00 0.0
2017_11_21_S18 11/22/2017 00:15:00 0.0
2017_11_21_S18 11/22/2017 00:20:00 0.0
2017_11_21_S18 11/22/2017 00:25:00 0.0
2017_11_21_S18 11/22/2017 00:30:00 0.0
2017_11_21_S18 11/22/2017 00:35:00 0.0
2017_11_21_S18 11/22/2017 00:40:00 0.0
2017_11_21_S18 11/22/2017 00:45:00 0.0
2017_11_21_S18 11/22/2017 00:50:00 0.0
2017_11_21_S18 11/22/2017 00:55:00 0.0
2017_11_21_S18 11/22/2017 01:00:00 0.0
2017_11_21_S18 11/22/2017 01:05:00 0.0
2017_11_21_S18 11/22/2017 01:10:00 0.0
2017_11_21_S18 11/22/2017 01:15:00 0.0
2017_11_21_S18 11/22/2017 01:20:00 0.0
2017_11_21_S18 11/22/2017 01:25:00 0.006
2017_11_21_S18 11/22/2017 01:30:00 0.0068
2017_11_21_S18 11/22/2017 01:35:00 0.0
2017_11_21_S18 11/22/2017 01:40:00 0.0
2017_11_21_S18 11/22/2017 01:45:00 0.0012
2017_11_21_S18 11/22/2017 01:50:00 0.0009
2017_11_21_S18 11/22/2017 01:55:00 0.0
2017_11_21_S18 11/22/2017 02:00:00 0.0
2017_11_21_S18 11/22/2017 02:05:00 0.0
2017_11_21_S18 11/22/2017 02:10:00 0.0
2017_11_21_S18 11/22/2017 02:15:00 0.0
2017_11_21_S18 11/22/2017 02:20:00 0.0
2017_11_21_S18 11/22/2017 02:25:00 0.0
2017_11_21_S18 11/22/2017 02:30:00 0.0008
2017_11_21_S18 11/22/2017 02:35:00 0.0
2017_11_21_S18 11/22/2017 02:40:00 0.0
2017_11_21_S18 11/22/2017 02:45:00 0.0
2017_11_21_S18 11/22/2017 02:50:00 0.0
2017_11_21_S18 11/22/2017 02:55:00 0.0
2017_11_21_S18 11/22/2017 03:00:00 0.0
2017_11_21_S18 11/22/2017 03:05:00 0.0
2017_11_21_S18 11/22/2017 03:10:00 0.0
2017_11_21_S18 11/22/2017 03:15:00 0.0
2017_11_21_S18 11/22/2017 03:20:00 0.0
2017_11_21_S18 11/22/2017 03:25:00 0.0
2017_11_21_S18 11/22/2017 03:30:00 0.0
2017_11_21_S18 11/22/2017 03:35:00 0.0
2017_11_21_S18 11/22/2017 03:40:00 0.0
2017_11_21_S18 11/22/2017 03:45:00 0.0
2017_11_21_S18 11/22/2017 03:50:00 0.0
2017_11_21_S18 11/22/2017 03:55:00 0.0
2017_11_21_S18 11/22/2017 04:00:00 0.0
2017_11_21_S18 11/22/2017 04:05:00 0.0
2017_11_21_S18 11/22/2017 04:10:00 0.0
2017_11_21_S18 11/22/2017 04:15:00 0.0
2017_11_21_S18 11/22/2017 04:20:00 0.0
2017_11_21_S18 11/22/2017 04:25:00 0.0
2017_11_21_S18 11/22/2017 04:30:00 0.0
2017_11_21_S18 11/22/2017 04:35:00 0.0
2017_11_21_S18 11/22/2017 04:40:00 0.0
2017_11_21_S18 11/22/2017 04:45:00 0.0
2017_11_21_S18 11/22/2017 04:50:00 0.0
2017_11_21_S18 11/22/2017 04:55:00 0.0
2017_11_21_S18 11/22/2017 05:00:00 0.0
2017_11_21_S18 11/22/2017 05:05:00 0.0
2017_11_21_S18 11/22/2017 05:10:00 0.0
2017_11_21_S18 11/22/2017 05:15:00 0.0
2017_11_21_S18 11/22/2017 05:20:00 0.0
2017_11_21_S18 11/22/2017 05:25:00 0.0
2017_11_21_S18 11/22/2017 05:30:00 0.0
2017_11_21_S18 11/22/2017 05:35:00 0.0
2017_11_21_S18 11/22/2017 05:40:00 0.0
2017_11_21_S18 11/22/2017 05:45:00 0.0
2017_11_21_S18 11/22/2017 05:50:00 0.0
2017_11_21_S18 11/22/2017 05:55:00 0.0
2017_11_21_S18 11/22/2017 06:00:00 0.0
2017_11_21_S18 11/22/2017 06:05:00 0.0
2017_11_21_S18 11/22/2017 06:10:00 0.0
2017_11_21_S18 11/22/2017 06:15:00 0.0
2017_11_21_S18 11/22/2017 06:20:00 0.0
2017_11_21_S18 11/22/2017 06:25:00 0.0
2017_11_21_S18 11/22/2017 06:30:00 0.0
2017_11_21_S18 11/22/2017 06:35:00 0.0
2017_11_21_S18 11/22/2017 06:40:00 0.0
2017_11_21_S18 11/22/2017 06:45:00 0.0
2017_11_21_S18 11/22/2017 06:50:00 0.0
2017_11_21_S18 11/22/2017 06:55:00 0.0
2017_11_21_S18 11/22/2017 07:00:00 0.0
2017_11_21_S18 11/22/2017 07:05:00 0.0
2017_11_21_S18 11/22/2017 07:10:00 0.0
2017_11_21_S18 11/22/2017 07:15:00 0.0
2017_11_21_S18 11/22/2017 07:20:00 0.0
2017_11_21_S18 11/22/2017 07:25:00 0.0
2017_11_21_S18 11/22/2017 07:30:00 0.0
2017_11_21_S18 11/22/2017 07:35:00 0.0
2017_11_21_S18 11/22/2017 07:40:00 0.0
2017_11_21_S18 11/22/2017 07:45:00 0.0
2017_11_21_S18 11/22/2017 07:50:00 0.0
2017_11_21_S18 11/22/2017 07:55:00 0.0
2017_11_21_S18 11/22/2017 08:00:00 0.0

2017_11_21_S19 11/20/2017 22:55:00 0.0001
2017_11_21_S19 11/20/2017 23:00:00 0.0635
2017_11_21_S19 11/20/2017 23:05:00 0.0927
2017_11_21_S19 11/20/2017 23:10:00 0.0
2017_11_21_S19 11/20/2017 23:15:00 0.0
2017_11_21_S19 11/20/2017 23:20:00 0.0
2017_11_21_S19 11/20/2017 23:25:00 0.0
2017_11_21_S19 11/20/2017 23:30:00 0.0
2017_11_21_S19 11/20/2017 23:35:00 0.0
2017_11_21_S19 11/20/2017 23:40:00 0.0
2017_11_21_S19 11/20/2017 23:45:00 0.0
2017_11_21_S19 11/20/2017 23:50:00 0.0
2017_11_21_S19 11/20/2017 23:55:00 0.0
2017_11_21_S19 11/21/2017 00:00:00 0.0
2017_11_21_S19 11/21/2017 00:05:00 0.0
2017_11_21_S19 11/21/2017 00:10:00 0.0
2017_11_21_S19 11/21/2017 00:15:00 0.0
2017_11_21_S19 11/21/2017 00:20:00 0.0
2017_11_21_S19 11/21/2017 00:25:00 0.0
2017_11_21_S19 11/21/2017 00:30:00 0.0
2017_11_21_S19 11/21/2017 00:35:00 0.0
2017_11_21_S19 11/21/2017 00:40:00 0.0
2017_11_21_S19 11/21/2017 00:45:00 0.0
2017_11_21_S19 11/21/2017 00:50:00 0.0014
2017_11_21_S19 11/21/2017 00:55:00 0.0016
2017_11_21_S19 11/21/2017 01:00:00 0.0
2017_11_21_S19 11/21/2017 01:05:00 0.0
2017_11_21_S19 11/21/2017 01:10:00 0.0
2017_11_21_S19 11/21/2017 01:15:00 0.0255
2017_11_21_S19 11/21/2017 01:20:00 0.7774
2017_11_21_S19 11/21/2017 01:25:00 0.09
2017_11_21_S19 11/21/2017 01:30:00 0.0988
2017_11_21_S19 11/21/2017 01:35:00 0.0146
2017_11_21_S19 11/21/2017 01:40:00 0.0
2017_11_21_S19 11/21/2017 01:45:00 0.0
2017_11_21_S19 11/21/2017 01:50:00 0.0
2017_11_21_S19 11/21/2017 01:55:00 0.0
2017_11_21_S19 11/21/2017 02:00:00 0.0
2017_11_21_S19 11/21/2017 02:05:00 0.0047
2017_11_21_S19 11/21/2017 02:10:00 0.0383
2017_11_21_S19 11/21/2017 02:15:00 0.2643
2017_11_21_S19 11/21/2017 02:20:00 0.0751
2017_11_21_S19 11/21/2017 02:25:00 0.1712
2017_11_21_S19 11/21/2017 02:30:00 0.0
2017_11_21_S19 11/21/2017 02:35:00 0.1176
2017_11_21_S19 11/21/2017 02:40:00 0.0725
2017_11_21_S19 11/21/2017 02:45:00 0.0013
2017_11_21_S19 11/21/2017 02:50:00 0.0
2017_11_21_S19 11/21/2017 02:55:00 0.0
2017_11_21_S19 11/21/2017 03:00:00 0.0
2017_11_21_S19 11/21/2017 03:05:00 0.0001
2017_11_21_S19 11/21/2017 03:10:00 0.0193
2017_11_21_S19 11/21/2017 03:15:00 0.0
2017_11_21_S19 11/21/2017 03:20:00 0.0
2017_11_21_S19 11/21/2017 03:25:00 0.161
2017_11_21_S19 11/21/2017 03:30:00 0.0055
2017_11_21_S19 11/21/2017 03:35:00 0.1804
2017_11_21_S19 11/21/2017 03:40:00 0.0
2017_11_21_S19 11/21/2017 03:45:00 0.2809
2017_11_21_S19 11/21/2017 03:50:00 0.0033
2017_11_21_S19 11/21/2017 03:55:00 0.1321
2017_11_21_S19 11/21/2017 04:00:00 0.0405
2017_11_21_S19 11/21/2017 04:05:00 0.0044
2017_11_21_S19 11/21/2017 04:10:00 0.0171
2017_11_21_S19 11/21/2017 04:15:00 0.0364
2017_11_21_S19 11/21/2017 04:20:00 0.0297
2017_11_21_S19 11/21/2017 04:25:00 0.0001
2017_11_21_S19 11/21/2017 04:30:00 1.0344
2017_11_21_S19 11/21/2017 04:35:00 1.1298
2017_11_21_S19 11/21/2017 04:40:00 0.0382
2017_11_21_S19 11/21/2017 04:45:00 0.0025
2017_11_21_S19 11/21/2017 04:50:00 0.0
2017_11_21_S19 11/21/2017 04:55:00 0.0
2017_11_21_S19 11/21/2017 05:00:00 0.0
2017_11_21_S19 11/21/2017 05:05:00 0.0
2017_11_21_S19 11/21/2017 05:10:00 0.0054
2017_11_21_S19 11/21/2017 05:15:00 0.5946
2017_11_21_S19 11/21/2017 05:20:00 3.3448
2017_11_21_S19 11/21/2017 05:25:00 3.3558
2017_11_21_S19 11/21/2017 05:30:00 4.0055
2017_11_21_S19 11/21/2017 05:35:00 0.0609
2017_11_21_S19 11/21/2017 05:40:00 0.0167
2017_11_21_S19 11/21/2017 05:45:00 0.0
2017_11_21_S19 11/21/2017 05:50:00 0.0
2017_11_21_S19 11/21/2017 05:55:00 0.0059
2017_11_21_S19 11/21/2017 06:00:00 0.0001
2017_11_21_S19 11/21/2017 06:05:00 0.0
2017_11_21_S19 11/21/2017 06:10:00 0.0
2017_11_21_S19 11/21/2017 06:15:00 0.0
2017_11_21_S19 11/21/2017 06:20:00 0.0
2017_11_21_S19 11/21/2017 06:25:00 0.0
2017_11_21_S19 11/21/2017 06:30:00 0.0
2017_11_21_S19 11/21/2017 06:35:00 0.0
2017_11_21_S19 11/21/2017 06:40:00 0.0
2017_11_21_S19 11/21/2017 06:45:00 0.0
2017_11_21_S19 11/21/2017 06:50:00 0.0
2017_11_21_S19 11/21/2017 06:55:00 0.0
2017_11_21_S19 11/21/2017 07:00:00 0.0
2017_11_21_S19 11/21/2017 07:05:00 0.0
2017_11_21_S19 11/21/2017 07:10:00 0.0
2017_11_21_S19 11/21/2017 07:15:00 0.0
2017_11_21_S19 11/21/2017 07:20:00 0.0
2017_11_21_S19 11/21/2017 07:25:00 0.0139
2017_11_21_S19 11/21/2017 07:30:00 0.0195
2017_11_21_S19 11/21/2017 07:35:00 0.0
2017_11_21_S19 11/21/2017 07:40:00 0.0067
2017_11_21_S19 11/21/2017 07:45:00 0.0
2017_11_21_S19 11/21/2017 07:50:00 0.0
2017_11_21_S19 11/21/2017 07:55:00 0.0
2017_11_21_S19 11/21/2017 08:00:00 0.0
2017_11_21_S19 11/21/2017 08:05:00 0.2313
2017_11_21_S19 11/21/2017 08:10:00 0.0076
2017_11_21_S19 11/21/2017 08:15:00 0.0218
2017_11_21_S19 11/21/2017 08:20:00 0.0
2017_11_21_S19 11/21/2017 08:25:00 0.0174
2017_11_21_S19 11/21/2017 08:30:00 0.0376
2017_11_21_S19 11/21/2017 08:35:00 1.2553
2017_11_21_S19 11/21/2017 08:40:00 0.9537
2017_11_21_S19 11/21/2017 08:45:00 0.1551
2017_11_21_S19 11/21/2017 08:50:00 0.0941
2017_11_21_S19 11/21/2017 08:55:00 0.0
2017_11_21_S19 11/21/2017 09:00:00 0.0
2017_11_21_S19 11/21/2017 09:05:00 0.0
2017_11_21_S19 11/21/2017 09:10:00 0.0
2017_11_21_S19 11/21/2017 09:15:00 0.0
2017_11_21_S19 11/21/2017 09:20:00 0.0
2017_11_21_S19 11/21/2017 09:25:00 0.0
2017_11_21_S19 11/21/2017 09:30:00 0.0
2017_11_21_S19 11/21/2017 09:35:00 0.0
2017_11_21_S19 11/21/2017 09:40:00 0.0
2017_11_21_S19 11/21/2017 09:45:00 0.0002
2017_11_21_S19 11/21/2017 09:50:00 0.3005
2017_11_21_S19 11/21/2017 09:55:00 0.6531
2017_11_21_S19 11/21/2017 10:00:00 0.0381
2017_11_21_S19 11/21/2017 10:05:00 0.0081
2017_11_21_S19 11/21/2017 10:10:00 0.0081
2017_11_21_S19 11/21/2017 10:15:00 0.0545
2017_11_21_S19 11/21/2017 10:20:00 0.0
2017_11_21_S19 11/21/2017 10:25:00 0.0
2017_11_21_S19 11/21/2017 10:30:00 0.0003
2017_11_21_S19 11/21/2017 10:35:00 0.0007
2017_11_21_S19 11/21/2017 10:40:00 0.001
2017_11_21_S19 11/21/2017 10:45:00 0.0001
2017_11_21_S19 11/21/2017 10:50:00 0.0
2017_11_21_S19 11/21/2017 10:55:00 0.0
2017_11_21_S19 11/21/2017 11:00:00 0.0011
2017_11_21_S19 11/21/2017 11:05:00 0.0
2017_11_21_S19 11/21/2017 11:10:00 0.0
2017_11_21_S19 11/21/2017 11:15:00 0.0
2017_11_21_S19 11/21/2017 11:20:00 0.0
2017_11_21_S19 11/21/2017 11:25:00 0.0
2017_11_21_S19 11/21/2017 11:30:00 0.0
2017_11_21_S19 11/21/2017 11:35:00 0.0
2017_11_21_S19 11/21/2017 11:40:00 0.0
2017_11_21_S19 11/21/2017 11:45:00 0.0
2017_11_21_S19 11/21/2017 11:50:00 0.0
2017_11_21_S19 11/21/2017 11:55:00 0.0
2017_11_21_S19 11/21/2017 12:00:00 0.0
2017_11_21_S19 11/21/2017 12:05:00 0.0
2017_11_21_S19 11/21/2017 12:10:00 0.0
2017_11_21_S19 11/21/2017 12:15:00 0.0
2017_11_21_S19 11/21/2017 12:20:00 0.0
2017_11_21_S19 11/21/2017 12:25:00 0.0
2017_11_21_S19 11/21/2017 12:30:00 0.0
2017_11_21_S19 11/21/2017 12:35:00 0.0
2017_11_21_S19 11/21/2017 12:40:00 0.0
2017_11_21_S19 11/21/2017 12:45:00 0.0
2017_11_21_S19 11/21/2017 12:50:00 0.0
2017_11_21_S19 11/21/2017 12:55:00 0.0
2017_11_21_S19 11/21/2017 13:00:00 0.0
2017_11_21_S19 11/21/2017 13:05:00 0.0
2017_11_21_S19 11/21/2017 13:10:00 0.0
2017_11_21_S19 11/21/2017 13:15:00 0.0
2017_11_21_S19 11/21/2017 13:20:00 0.0
2017_11_21_S19 11/21/2017 13:25:00 0.0
2017_11_21_S19 11/21/2017 13:30:00 0.0
2017_11_21_S19 11/21/2017 13:35:00 0.0
2017_11_21_S19 11/21/2017 13:40:00 0.0
2017_11_21_S19 11/21/2017 13:45:00 0.0
2017_11_21_S19 11/21/2017 13:50:00 0.0
2017_11_21_S19 11/21/2017 13:55:00 0.0
2017_11_21_S19 11/21/2017 14:00:00 0.0
2017_11_21_S19 11/21/2017 14:05:00 0.0
2017_11_21_S19 11/21/2017 14:10:00 0.0
2017_11_21_S19 11/21/2017 14:15:00 0.0
2017_11_21_S19 11/21/2017 14:20:00 0.0
2017_11_21_S19 11/21/2017 14:25:00 0.0
2017_11_21_S19 11/21/2017 14:30:00 0.0
2017_11_21_S19 11/21/2017 14:35:00 0.0
2017_11_21_S19 11/21/2017 14:40:00 0.0
2017_11_21_S19 11/21/2017 14:45:00 0.0
2017_11_21_S19 11/21/2017 14:50:00 0.0
2017_11_21_S19 11/21/2017 14:55:00 0.0
2017_11_21_S19 11/21/2017 15:00:00 0.0
2017_11_21_S19 11/21/2017 15:05:00 0.0
2017_11_21_S19 11/21/2017 15:10:00 0.0
2017_11_21_S19 11/21/2017 15:15:00 0.0
2017_11_21_S19 11/21/2017 15:20:00 0.0
2017_11_21_S19 11/21/2017 15:25:00 0.0
2017_11_21_S19 11/21/2017 15:30:00 0.0
2017_11_21_S19 11/21/2017 15:35:00 0.0
2017_11_21_S19 11/21/2017 15:40:00 0.0
2017_11_21_S19 11/21/2017 15:45:00 0.0
2017_11_21_S19 11/21/2017 15:50:00 0.0
2017_11_21_S19 11/21/2017 15:55:00 0.0
2017_11_21_S19 11/21/2017 16:00:00 0.0
2017_11_21_S19 11/21/2017 16:05:00 0.0
2017_11_21_S19 11/21/2017 16:10:00 0.0
2017_11_21_S19 11/21/2017 16:15:00 0.0
2017_11_21_S19 11/21/2017 16:20:00 0.0
2017_11_21_S19 11/21/2017 16:25:00 0.0
2017_11_21_S19 11/21/2017 16:30:00 0.0
2017_11_21_S19 11/21/2017 16:35:00 0.0
2017_11_21_S19 11/21/2017 16:40:00 0.0
2017_11_21_S19 11/21/2017 16:45:00 0.0
2017_11_21_S19 11/21/2017 16:50:00 0.0
2017_11_21_S19 11/21/2017 16:55:00 0.0
2017_11_21_S19 11/21/2017 17:00:00 0.0
2017_11_21_S19 11/21/2017 17:05:00 0.0
2017_11_21_S19 11/21/2017 17:10:00 0.0
2017_11_21_S19 11/21/2017 17:15:00 0.0
2017_11_21_S19 11/21/2017 17:20:00 0.0
2017_11_21_S19 11/21/2017 17:25:00 0.0
2017_11_21_S19 11/21/2017 17:30:00 0.0
2017_11_21_S19 11/21/2017 17:35:00 0.0
2017_11_21_S19 11/21/2017 17:40:00 0.0
2017_11_21_S19 11/21/2017 17:45:00 0.0
2017_11_21_S19 11/21/2017 17:50:00 0.0
2017_11_21_S19 11/21/2017 17:55:00 0.0
2017_11_21_S19 11/21/2017 18:00:00 0.0
2017_11_21_S19 11/21/2017 18:05:00 0.0
2017_11_21_S19 11/21/2017 18:10:00 0.0
2017_11_21_S19 11/21/2017 18:15:00 0.0
2017_11_21_S19 11/21/2017 18:20:00 0.0
2017_11_21_S19 11/21/2017 18:25:00 0.0
2017_11_21_S19 11/21/2017 18:30:00 0.0
2017_11_21_S19 11/21/2017 18:35:00 0.0
2017_11_21_S19 11/21/2017 18:40:00 0.0
2017_11_21_S19 11/21/2017 18:45:00 0.0
2017_11_21_S19 11/21/2017 18:50:00 0.0
2017_11_21_S19 11/21/2017 18:55:00 0.0
2017_11_21_S19 11/21/2017 19:00:00 0.0
2017_11_21_S19 11/21/2017 19:05:00 0.0
2017_11_21_S19 11/21/2017 19:10:00 0.0
2017_11_21_S19 11/21/2017 19:15:00 0.0
2017_11_21_S19 11/21/2017 19:20:00 0.0
2017_11_21_S19 11/21/2017 19:25:00 0.0
2017_11_21_S19 11/21/2017 19:30:00 0.0
2017_11_21_S19 11/21/2017 19:35:00 0.0
2017_11_21_S19 11/21/2017 19:40:00 0.0
2017_11_21_S19 11/21/2017 19:45:00 0.0
2017_11_21_S19 11/21/2017 19:50:00 0.0
2017_11_21_S19 11/21/2017 19:55:00 0.0
2017_11_21_S19 11/21/2017 20:00:00 0.0
2017_11_21_S19 11/21/2017 20:05:00 0.0
2017_11_21_S19 11/21/2017 20:10:00 0.0
2017_11_21_S19 11/21/2017 20:15:00 0.0
2017_11_21_S19 11/21/2017 20:20:00 0.0
2017_11_21_S19 11/21/2017 20:25:00 0.0
2017_11_21_S19 11/21/2017 20:30:00 0.0
2017_11_21_S19 11/21/2017 20:35:00 0.0
2017_11_21_S19 11/21/2017 20:40:00 0.0
2017_11_21_S19 11/21/2017 20:45:00 0.0
2017_11_21_S19 11/21/2017 20:50:00 0.0
2017_11_21_S19 11/21/2017 20:55:00 0.0
2017_11_21_S19 11/21/2017 21:00:00 0.0
2017_11_21_S19 11/21/2017 21:05:00 0.0
2017_11_21_S19 11/21/2017 21:10:00 0.0
2017_11_21_S19 11/21/2017 21:15:00 0.0
2017_11_21_S19 11/21/2017 21:20:00 0.0
2017_11_21_S19 11/21/2017 21:25:00 0.0
2017_11_21_S19 11/21/2017 21:30:00 0.0
2017_11_21_S19 11/21/2017 21:35:00 0.0
2017_11_21_S19 11/21/2017 21:40:00 0.0
2017_11_21_S19 11/21/2017 21:45:00 0.0
2017_11_21_S19 11/21/2017 21:50:00 0.0
2017_11_21_S19 11/21/2017 21:55:00 0.0
2017_11_21_S19 11/21/2017 22:00:00 0.0
2017_11_21_S19 11/21/2017 22:05:00 0.0
2017_11_21_S19 11/21/2017 22:10:00 0.0
2017_11_21_S19 11/21/2017 22:15:00 0.0
2017_11_21_S19 11/21/2017 22:20:00 0.0
2017_11_21_S19 11/21/2017 22:25:00 0.0
2017_11_21_S19 11/21/2017 22:30:00 0.0
2017_11_21_S19 11/21/2017 22:35:00 0.0
2017_11_21_S19 11/21/2017 22:40:00 0.0061
2017_11_21_S19 11/21/2017 22:45:00 0.0
2017_11_21_S19 11/21/2017 22:50:00 0.0
2017_11_21_S19 11/21/2017 22:55:00 0.0
2017_11_21_S19 11/21/2017 23:00:00 0.0
2017_11_21_S19 11/21/2017 23:05:00 0.0011
2017_11_21_S19 11/21/2017 23:10:00 0.0
2017_11_21_S19 11/21/2017 23:15:00 0.0
2017_11_21_S19 11/21/2017 23:20:00 0.0
2017_11_21_S19 11/21/2017 23:25:00 0.0
2017_11_21_S19 11/21/2017 23:30:00 0.0
2017_11_21_S19 11/21/2017 23:35:00 0.0
2017_11_21_S19 11/21/2017 23:40:00 0.0
2017_11_21_S19 11/21/2017 23:45:00 0.0
2017_11_21_S19 11/21/2017 23:50:00 0.0
2017_11_21_S19 11/21/2017 23:55:00 0.0
2017_11_21_S19 11/22/2017 00:00:00 0.0
2017_11_21_S19 11/22/2017 00:05:00 0.0
2017_11_21_S19 11/22/2017 00:10:00 0.0
2017_11_21_S19 11/22/2017 00:15:00 0.0
2017_11_21_S19 11/22/2017 00:20:00 0.0
2017_11_21_S19 11/22/2017 00:25:00 0.0
2017_11_21_S19 11/22/2017 00:30:00 0.0
2017_11_21_S19 11/22/2017 00:35:00 0.0
2017_11_21_S19 11/22/2017 00:40:00 0.0
2017_11_21_S19 11/22/2017 00:45:00 0.0
2017_11_21_S19 11/22/2017 00:50:00 0.0
2017_11_21_S19 11/22/2017 00:55:00 0.0
2017_11_21_S19 11/22/2017 01:00:00 0.0
2017_11_21_S19 11/22/2017 01:05:00 0.0
2017_11_21_S19 11/22/2017 01:10:00 0.0
2017_11_21_S19 11/22/2017 01:15:00 0.0
2017_11_21_S19 11/22/2017 01:20:00 0.0
2017_11_21_S19 11/22/2017 01:25:00 0.0057
2017_11_21_S19 11/22/2017 01:30:00 0.0017
2017_11_21_S19 11/22/2017 01:35:00 0.0
2017_11_21_S19 11/22/2017 01:40:00 0.0
2017_11_21_S19 11/22/2017 01:45:00 0.0069
2017_11_21_S19 11/22/2017 01:50:00 0.002
2017_11_21_S19 11/22/2017 01:55:00 0.0
2017_11_21_S19 11/22/2017 02:00:00 0.0
2017_11_21_S19 11/22/2017 02:05:00 0.0
2017_11_21_S19 11/22/2017 02:10:00 0.0
2017_11_21_S19 11/22/2017 02:15:00 0.0
2017_11_21_S19 11/22/2017 02:20:00 0.0
2017_11_21_S19 11/22/2017 02:25:00 0.0
2017_11_21_S19 11/22/2017 02:30:00 0.0008
2017_11_21_S19 11/22/2017 02:35:00 0.0
2017_11_21_S19 11/22/2017 02:40:00 0.0
2017_11_21_S19 11/22/2017 02:45:00 0.0
2017_11_21_S19 11/22/2017 02:50:00 0.0
2017_11_21_S19 11/22/2017 02:55:00 0.0
2017_11_21_S19 11/22/2017 03:00:00 0.0
2017_11_21_S19 11/22/2017 03:05:00 0.0
2017_11_21_S19 11/22/2017 03:10:00 0.0
2017_11_21_S19 11/22/2017 03:15:00 0.0
2017_11_21_S19 11/22/2017 03:20:00 0.0
2017_11_21_S19 11/22/2017 03:25:00 0.0
2017_11_21_S19 11/22/2017 03:30:00 0.0
2017_11_21_S19 11/22/2017 03:35:00 0.0
2017_11_21_S19 11/22/2017 03:40:00 0.0
2017_11_21_S19 11/22/2017 03:45:00 0.0
2017_11_21_S19 11/22/2017 03:50:00 0.0
2017_11_21_S19 11/22/2017 03:55:00 0.0
2017_11_21_S19 11/22/2017 04:00:00 0.0
2017_11_21_S19 11/22/2017 04:05:00 0.0
2017_11_21_S19 11/22/2017 04:10:00 0.0
2017_11_21_S19 11/22/2017 04:15:00 0.0
2017_11_21_S19 11/22/2017 04:20:00 0.0
2017_11_21_S19 11/22/2017 04:25:00 0.0
2017_11_21_S19 11/22/2017 04:30:00 0.0
2017_11_21_S19 11/22/2017 04:35:00 0.0
2017_11_21_S19 11/22/2017 04:40:00 0.0
2017_11_21_S19 11/22/2017 04:45:00 0.0
2017_11_21_S19 11/22/2017 04:50:00 0.0
2017_11_21_S19 11/22/2017 04:55:00 0.0
2017_11_21_S19 11/22/2017 05:00:00 0.0
2017_11_21_S19 11/22/2017 05:05:00 0.0
2017_11_21_S19 11/22/2017 05:10:00 0.0
2017_11_21_S19 11/22/2017 05:15:00 0.0
2017_11_21_S19 11/22/2017 05:20:00 0.0
2017_11_21_S19 11/22/2017 05:25:00 0.0
2017_11_21_S19 11/22/2017 05:30:00 0.0
2017_11_21_S19 11/22/2017 05:35:00 0.0
2017_11_21_S19 11/22/2017 05:40:00 0.0
2017_11_21_S19 11/22/2017 05:45:00 0.0
2017_11_21_S19 11/22/2017 05:50:00 0.0
2017_11_21_S19 11/22/2017 05:55:00 0.0
2017_11_21_S19 11/22/2017 06:00:00 0.0
2017_11_21_S19 11/22/2017 06:05:00 0.0
2017_11_21_S19 11/22/2017 06:10:00 0.0
2017_11_21_S19 11/22/2017 06:15:00 0.0
2017_11_21_S19 11/22/2017 06:20:00 0.0
2017_11_21_S19 11/22/2017 06:25:00 0.0
2017_11_21_S19 11/22/2017 06:30:00 0.0
2017_11_21_S19 11/22/2017 06:35:00 0.0
2017_11_21_S19 11/22/2017 06:40:00 0.0
2017_11_21_S19 11/22/2017 06:45:00 0.0
2017_11_21_S19 11/22/2017 06:50:00 0.0
2017_11_21_S19 11/22/2017 06:55:00 0.0
2017_11_21_S19 11/22/2017 07:00:00 0.0
2017_11_21_S19 11/22/2017 07:05:00 0.0
2017_11_21_S19 11/22/2017 07:10:00 0.0
2017_11_21_S19 11/22/2017 07:15:00 0.0
2017_11_21_S19 11/22/2017 07:20:00 0.0
2017_11_21_S19 11/22/2017 07:25:00 0.0
2017_11_21_S19 11/22/2017 07:30:00 0.0
2017_11_21_S19 11/22/2017 07:35:00 0.0
2017_11_21_S19 11/22/2017 07:40:00 0.0
2017_11_21_S19 11/22/2017 07:45:00 0.0
2017_11_21_S19 11/22/2017 07:50:00 0.0
2017_11_21_S19 11/22/2017 07:55:00 0.0
2017_11_21_S19 11/22/2017 08:00:00 0.0

2017_11_21_S20 11/20/2017 22:55:00 0.0049
2017_11_21_S20 11/20/2017 23:00:00 0.1787
2017_11_21_S20 11/20/2017 23:05:00 0.087
2017_11_21_S20 11/20/2017 23:10:00 0.002
2017_11_21_S20 11/20/2017 23:15:00 0.0
2017_11_21_S20 11/20/2017 23:20:00 0.0
2017_11_21_S20 11/20/2017 23:25:00 0.0
2017_11_21_S20 11/20/2017 23:30:00 0.0
2017_11_21_S20 11/20/2017 23:35:00 0.0
2017_11_21_S20 11/20/2017 23:40:00 0.0
2017_11_21_S20 11/20/2017 23:45:00 0.0
2017_11_21_S20 11/20/2017 23:50:00 0.0
2017_11_21_S20 11/20/2017 23:55:00 0.0
2017_11_21_S20 11/21/2017 00:00:00 0.0
2017_11_21_S20 11/21/2017 00:05:00 0.0
2017_11_21_S20 11/21/2017 00:10:00 0.0
2017_11_21_S20 11/21/2017 00:15:00 0.0
2017_11_21_S20 11/21/2017 00:20:00 0.0
2017_11_21_S20 11/21/2017 00:25:00 0.0
2017_11_21_S20 11/21/2017 00:30:00 0.0
2017_11_21_S20 11/21/2017 00:35:00 0.0
2017_11_21_S20 11/21/2017 00:40:00 0.0
2017_11_21_S20 11/21/2017 00:45:00 0.0
2017_11_21_S20 11/21/2017 00:50:00 0.0
2017_11_21_S20 11/21/2017 00:55:00 0.0
2017_11_21_S20 11/21/2017 01:00:00 0.0
2017_11_21_S20 11/21/2017 01:05:00 0.0
2017_11_21_S20 11/21/2017 01:10:00 0.0
2017_11_21_S20 11/21/2017 01:15:00 0.0114
2017_11_21_S20 11/21/2017 01:20:00 0.7127
2017_11_21_S20 11/21/2017 01:25:00 0.0437
2017_11_21_S20 11/21/2017 01:30:00 0.0925
2017_11_21_S20 11/21/2017 01:35:00 0.02
2017_11_21_S20 11/21/2017 01:40:00 0.0
2017_11_21_S20 11/21/2017 01:45:00 0.0
2017_11_21_S20 11/21/2017 01:50:00 0.0
2017_11_21_S20 11/21/2017 01:55:00 0.0
2017_11_21_S20 11/21/2017 02:00:00 0.0
2017_11_21_S20 11/21/2017 02:05:00 0.0
2017_11_21_S20 11/21/2017 02:10:00 0.0448
2017_11_21_S20 11/21/2017 02:15:00 0.2445
2017_11_21_S20 11/21/2017 02:20:00 0.0571
2017_11_21_S20 11/21/2017 02:25:00 0.104
2017_11_21_S20 11/21/2017 02:30:00 0.0
2017_11_21_S20 11/21/2017 02:35:00 0.1074
2017_11_21_S20 11/21/2017 02:40:00 0.0674
2017_11_21_S20 11/21/2017 02:45:00 0.0039
2017_11_21_S20 11/21/2017 02:50:00 0.0
2017_11_21_S20 11/21/2017 02:55:00 0.0
2017_11_21_S20 11/21/2017 03:00:00 0.0
2017_11_21_S20 11/21/2017 03:05:00 0.0206
2017_11_21_S20 11/21/2017 03:10:00 0.3201
2017_11_21_S20 11/21/2017 03:15:00 0.0
2017_11_21_S20 11/21/2017 03:20:00 0.0
2017_11_21_S20 11/21/2017 03:25:00 0.2957
2017_11_21_S20 11/21/2017 03:30:00 0.0571
2017_11_21_S20 11/21/2017 03:35:00 0.2429
2017_11_21_S20 11/21/2017 03:40:00 0.0059
2017_11_21_S20 11/21/2017 03:45:00 0.1479
2017_11_21_S20 11/21/2017 03:50:00 0.0
2017_11_21_S20 11/21/2017 03:55:00 0.1073
2017_11_21_S20 11/21/2017 04:00:00 0.055
2017_11_21_S20 11/21/2017 04:05:00 0.0063
2017_11_21_S20 11/21/2017 04:10:00 0.018
2017_11_21_S20 11/21/2017 04:15:00 0.0503
2017_11_21_S20 11/21/2017 04:20:00 0.0171
2017_11_21_S20 11/21/2017 04:25:00 0.0
2017_11_21_S20 11/21/2017 04:30:00 0.9147
2017_11_21_S20 11/21/2017 04:35:00 1.374
2017_11_21_S20 11/21/2017 04:40:00 0.0376
2017_11_21_S20 11/21/2017 04:45:00 0.0034
2017_11_21_S20 11/21/2017 04:50:00 0.0
2017_11_21_S20 11/21/2017 04:55:00 0.0
2017_11_21_S20 11/21/2017 05:00:00 0.0
2017_11_21_S20 11/21/2017 05:05:00 0.0
2017_11_21_S20 11/21/2017 05:10:00 0.0021
2017_11_21_S20 11/21/2017 05:15:00 0.7457
2017_11_21_S20 11/21/2017 05:20:00 3.7349
2017_11_21_S20 11/21/2017 05:25:00 2.6972
2017_11_21_S20 11/21/2017 05:30:00 3.3777
2017_11_21_S20 11/21/2017 05:35:00 0.071
2017_11_21_S20 11/21/2017 05:40:00 0.0161
2017_11_21_S20 11/21/2017 05:45:00 0.0
2017_11_21_S20 11/21/2017 05:50:00 0.0
2017_11_21_S20 11/21/2017 05:55:00 0.003
2017_11_21_S20 11/21/2017 06:00:00 0.0
2017_11_21_S20 11/21/2017 06:05:00 0.0
2017_11_21_S20 11/21/2017 06:10:00 0.0
2017_11_21_S20 11/21/2017 06:15:00 0.0
2017_11_21_S20 11/21/2017 06:20:00 0.0
2017_11_21_S20 11/21/2017 06:25:00 0.0
2017_11_21_S20 11/21/2017 06:30:00 0.0
2017_11_21_S20 11/21/2017 06:35:00 0.0
2017_11_21_S20 11/21/2017 06:40:00 0.0
2017_11_21_S20 11/21/2017 06:45:00 0.0
2017_11_21_S20 11/21/2017 06:50:00 0.0
2017_11_21_S20 11/21/2017 06:55:00 0.0
2017_11_21_S20 11/21/2017 07:00:00 0.0
2017_11_21_S20 11/21/2017 07:05:00 0.0
2017_11_21_S20 11/21/2017 07:10:00 0.0
2017_11_21_S20 11/21/2017 07:15:00 0.0
2017_11_21_S20 11/21/2017 07:20:00 0.0
2017_11_21_S20 11/21/2017 07:25:00 0.0101
2017_11_21_S20 11/21/2017 07:30:00 0.0053
2017_11_21_S20 11/21/2017 07:35:00 0.0
2017_11_21_S20 11/21/2017 07:40:00 0.002
2017_11_21_S20 11/21/2017 07:45:00 0.0
2017_11_21_S20 11/21/2017 07:50:00 0.0
2017_11_21_S20 11/21/2017 07:55:00 0.0
2017_11_21_S20 11/21/2017 08:00:00 0.0
2017_11_21_S20 11/21/2017 08:05:00 0.1695
2017_11_21_S20 11/21/2017 08:10:00 0.014
2017_11_21_S20 11/21/2017 08:15:00 0.0197
2017_11_21_S20 11/21/2017 08:20:00 0.0
2017_11_21_S20 11/21/2017 08:25:00 0.0171
2017_11_21_S20 11/21/2017 08:30:00 0.0694
2017_11_21_S20 11/21/2017 08:35:00 1.2813
2017_11_21_S20 11/21/2017 08:40:00 0.5406
2017_11_21_S20 11/21/2017 08:45:00 0.1714
2017_11_21_S20 11/21/2017 08:50:00 0.0481
2017_11_21_S20 11/21/2017 08:55:00 0.0
2017_11_21_S20 11/21/2017 09:00:00 0.0
2017_11_21_S20 11/21/2017 09:05:00 0.0
2017_11_21_S20 11/21/2017 09:10:00 0.0
2017_11_21_S20 11/21/2017 09:15:00 0.0
2017_11_21_S20 11/21/2017 09:20:00 0.0
2017_11_21_S20 11/21/2017 09:25:00 0.0
2017_11_21_S20 11/21/2017 09:30:00 0.0
2017_11_21_S20 11/21/2017 09:35:00 0.0
2017_11_21_S20 11/21/2017 09:40:00 0.0
2017_11_21_S20 11/21/2017 09:45:00 0.003
2017_11_21_S20 11/21/2017 09:50:00 0.1984
2017_11_21_S20 11/21/2017 09:55:00 0.9933
2017_11_21_S20 11/21/2017 10:00:00 0.0363
2017_11_21_S20 11/21/2017 10:05:00 0.0081
2017_11_21_S20 11/21/2017 10:10:00 0.0127
2017_11_21_S20 11/21/2017 10:15:00 0.0425
2017_11_21_S20 11/21/2017 10:20:00 0.0
2017_11_21_S20 11/21/2017 10:25:00 0.0
2017_11_21_S20 11/21/2017 10:30:00 0.0
2017_11_21_S20 11/21/2017 10:35:00 0.0
2017_11_21_S20 11/21/2017 10:40:00 0.0
2017_11_21_S20 11/21/2017 10:45:00 0.0036
2017_11_21_S20 11/21/2017 10:50:00 0.0
2017_11_21_S20 11/21/2017 10:55:00 0.0
2017_11_21_S20 11/21/2017 11:00:00 0.0
2017_11_21_S20 11/21/2017 11:05:00 0.0
2017_11_21_S20 11/21/2017 11:10:00 0.0
2017_11_21_S20 11/21/2017 11:15:00 0.0
2017_11_21_S20 11/21/2017 11:20:00 0.0
2017_11_21_S20 11/21/2017 11:25:00 0.0
2017_11_21_S20 11/21/2017 11:30:00 0.0
2017_11_21_S20 11/21/2017 11:35:00 0.0
2017_11_21_S20 11/21/2017 11:40:00 0.0
2017_11_21_S20 11/21/2017 11:45:00 0.0
2017_11_21_S20 11/21/2017 11:50:00 0.0
2017_11_21_S20 11/21/2017 11:55:00 0.0
2017_11_21_S20 11/21/2017 12:00:00 0.0
2017_11_21_S20 11/21/2017 12:05:00 0.0
2017_11_21_S20 11/21/2017 12:10:00 0.0
2017_11_21_S20 11/21/2017 12:15:00 0.0
2017_11_21_S20 11/21/2017 12:20:00 0.0
2017_11_21_S20 11/21/2017 12:25:00 0.0
2017_11_21_S20 11/21/2017 12:30:00 0.0
2017_11_21_S20 11/21/2017 12:35:00 0.0
2017_11_21_S20 11/21/2017 12:40:00 0.0
2017_11_21_S20 11/21/2017 12:45:00 0.0
2017_11_21_S20 11/21/2017 12:50:00 0.0
2017_11_21_S20 11/21/2017 12:55:00 0.0
2017_11_21_S20 11/21/2017 13:00:00 0.0
2017_11_21_S20 11/21/2017 13:05:00 0.0
2017_11_21_S20 11/21/2017 13:10:00 0.0
2017_11_21_S20 11/21/2017 13:15:00 0.0
2017_11_21_S20 11/21/2017 13:20:00 0.0
2017_11_21_S20 11/21/2017 13:25:00 0.0
2017_11_21_S20 11/21/2017 13:30:00 0.0
2017_11_21_S20 11/21/2017 13:35:00 0.0
2017_11_21_S20 11/21/2017 13:40:00 0.0
2017_11_21_S20 11/21/2017 13:45:00 0.0
2017_11_21_S20 11/21/2017 13:50:00 0.0
2017_11_21_S20 11/21/2017 13:55:00 0.0
2017_11_21_S20 11/21/2017 14:00:00 0.0
2017_11_21_S20 11/21/2017 14:05:00 0.0
2017_11_21_S20 11/21/2017 14:10:00 0.0
2017_11_21_S20 11/21/2017 14:15:00 0.0
2017_11_21_S20 11/21/2017 14:20:00 0.0
2017_11_21_S20 11/21/2017 14:25:00 0.0
2017_11_21_S20 11/21/2017 14:30:00 0.0
2017_11_21_S20 11/21/2017 14:35:00 0.0
2017_11_21_S20 11/21/2017 14:40:00 0.0
2017_11_21_S20 11/21/2017 14:45:00 0.0
2017_11_21_S20 11/21/2017 14:50:00 0.0
2017_11_21_S20 11/21/2017 14:55:00 0.0
2017_11_21_S20 11/21/2017 15:00:00 0.0
2017_11_21_S20 11/21/2017 15:05:00 0.0
2017_11_21_S20 11/21/2017 15:10:00 0.0
2017_11_21_S20 11/21/2017 15:15:00 0.0
2017_11_21_S20 11/21/2017 15:20:00 0.0
2017_11_21_S20 11/21/2017 15:25:00 0.0
2017_11_21_S20 11/21/2017 15:30:00 0.0
2017_11_21_S20 11/21/2017 15:35:00 0.0
2017_11_21_S20 11/21/2017 15:40:00 0.0
2017_11_21_S20 11/21/2017 15:45:00 0.0
2017_11_21_S20 11/21/2017 15:50:00 0.0
2017_11_21_S20 11/21/2017 15:55:00 0.0
2017_11_21_S20 11/21/2017 16:00:00 0.0
2017_11_21_S20 11/21/2017 16:05:00 0.0
2017_11_21_S20 11/21/2017 16:10:00 0.0
2017_11_21_S20 11/21/2017 16:15:00 0.0
2017_11_21_S20 11/21/2017 16:20:00 0.0
2017_11_21_S20 11/21/2017 16:25:00 0.0
2017_11_21_S20 11/21/2017 16:30:00 0.0
2017_11_21_S20 11/21/2017 16:35:00 0.0
2017_11_21_S20 11/21/2017 16:40:00 0.0
2017_11_21_S20 11/21/2017 16:45:00 0.0014
2017_11_21_S20 11/21/2017 16:50:00 0.0
2017_11_21_S20 11/21/2017 16:55:00 0.0
2017_11_21_S20 11/21/2017 17:00:00 0.0
2017_11_21_S20 11/21/2017 17:05:00 0.0
2017_11_21_S20 11/21/2017 17:10:00 0.0
2017_11_21_S20 11/21/2017 17:15:00 0.0
2017_11_21_S20 11/21/2017 17:20:00 0.0
2017_11_21_S20 11/21/2017 17:25:00 0.0
2017_11_21_S20 11/21/2017 17:30:00 0.0
2017_11_21_S20 11/21/2017 17:35:00 0.0
2017_11_21_S20 11/21/2017 17:40:00 0.0
2017_11_21_S20 11/21/2017 17:45:00 0.0
2017_11_21_S20 11/21/2017 17:50:00 0.0
2017_11_21_S20 11/21/2017 17:55:00 0.0
2017_11_21_S20 11/21/2017 18:00:00 0.0
2017_11_21_S20 11/21/2017 18:05:00 0.0
2017_11_21_S20 11/21/2017 18:10:00 0.0
2017_11_21_S20 11/21/2017 18:15:00 0.0
2017_11_21_S20 11/21/2017 18:20:00 0.0
2017_11_21_S20 11/21/2017 18:25:00 0.0
2017_11_21_S20 11/21/2017 18:30:00 0.0
2017_11_21_S20 11/21/2017 18:35:00 0.0
2017_11_21_S20 11/21/2017 18:40:00 0.0
2017_11_21_S20 11/21/2017 18:45:00 0.0
2017_11_21_S20 11/21/2017 18:50:00 0.0
2017_11_21_S20 11/21/2017 18:55:00 0.0
2017_11_21_S20 11/21/2017 19:00:00 0.0
2017_11_21_S20 11/21/2017 19:05:00 0.0
2017_11_21_S20 11/21/2017 19:10:00 0.0
2017_11_21_S20 11/21/2017 19:15:00 0.0
2017_11_21_S20 11/21/2017 19:20:00 0.0
2017_11_21_S20 11/21/2017 19:25:00 0.0
2017_11_21_S20 11/21/2017 19:30:00 0.0
2017_11_21_S20 11/21/2017 19:35:00 0.0
2017_11_21_S20 11/21/2017 19:40:00 0.0
2017_11_21_S20 11/21/2017 19:45:00 0.0
2017_11_21_S20 11/21/2017 19:50:00 0.0
2017_11_21_S20 11/21/2017 19:55:00 0.0
2017_11_21_S20 11/21/2017 20:00:00 0.0
2017_11_21_S20 11/21/2017 20:05:00 0.0
2017_11_21_S20 11/21/2017 20:10:00 0.0
2017_11_21_S20 11/21/2017 20:15:00 0.0
2017_11_21_S20 11/21/2017 20:20:00 0.0
2017_11_21_S20 11/21/2017 20:25:00 0.0
2017_11_21_S20 11/21/2017 20:30:00 0.0
2017_11_21_S20 11/21/2017 20:35:00 0.0
2017_11_21_S20 11/21/2017 20:40:00 0.0
2017_11_21_S20 11/21/2017 20:45:00 0.0
2017_11_21_S20 11/21/2017 20:50:00 0.0
2017_11_21_S20 11/21/2017 20:55:00 0.0
2017_11_21_S20 11/21/2017 21:00:00 0.0
2017_11_21_S20 11/21/2017 21:05:00 0.0
2017_11_21_S20 11/21/2017 21:10:00 0.0
2017_11_21_S20 11/21/2017 21:15:00 0.0
2017_11_21_S20 11/21/2017 21:20:00 0.0
2017_11_21_S20 11/21/2017 21:25:00 0.0
2017_11_21_S20 11/21/2017 21:30:00 0.0
2017_11_21_S20 11/21/2017 21:35:00 0.0
2017_11_21_S20 11/21/2017 21:40:00 0.0
2017_11_21_S20 11/21/2017 21:45:00 0.0
2017_11_21_S20 11/21/2017 21:50:00 0.0
2017_11_21_S20 11/21/2017 21:55:00 0.0
2017_11_21_S20 11/21/2017 22:00:00 0.0
2017_11_21_S20 11/21/2017 22:05:00 0.0
2017_11_21_S20 11/21/2017 22:10:00 0.0
2017_11_21_S20 11/21/2017 22:15:00 0.0
2017_11_21_S20 11/21/2017 22:20:00 0.0
2017_11_21_S20 11/21/2017 22:25:00 0.0
2017_11_21_S20 11/21/2017 22:30:00 0.0
2017_11_21_S20 11/21/2017 22:35:00 0.0
2017_11_21_S20 11/21/2017 22:40:00 0.0067
2017_11_21_S20 11/21/2017 22:45:00 0.0
2017_11_21_S20 11/21/2017 22:50:00 0.0
2017_11_21_S20 11/21/2017 22:55:00 0.0
2017_11_21_S20 11/21/2017 23:00:00 0.0
2017_11_21_S20 11/21/2017 23:05:00 0.0
2017_11_21_S20 11/21/2017 23:10:00 0.0
2017_11_21_S20 11/21/2017 23:15:00 0.0036
2017_11_21_S20 11/21/2017 23:20:00 0.0
2017_11_21_S20 11/21/2017 23:25:00 0.0
2017_11_21_S20 11/21/2017 23:30:00 0.0
2017_11_21_S20 11/21/2017 23:35:00 0.0
2017_11_21_S20 11/21/2017 23:40:00 0.0
2017_11_21_S20 11/21/2017 23:45:00 0.0
2017_11_21_S20 11/21/2017 23:50:00 0.0
2017_11_21_S20 11/21/2017 23:55:00 0.0
2017_11_21_S20 11/22/2017 00:00:00 0.0
2017_11_21_S20 11/22/2017 00:05:00 0.0
2017_11_21_S20 11/22/2017 00:10:00 0.0
2017_11_21_S20 11/22/2017 00:15:00 0.0
2017_11_21_S20 11/22/2017 00:20:00 0.0
2017_11_21_S20 11/22/2017 00:25:00 0.0
2017_11_21_S20 11/22/2017 00:30:00 0.0
2017_11_21_S20 11/22/2017 00:35:00 0.0
2017_11_21_S20 11/22/2017 00:40:00 0.0
2017_11_21_S20 11/22/2017 00:45:00 0.0
2017_11_21_S20 11/22/2017 00:50:00 0.0
2017_11_21_S20 11/22/2017 00:55:00 0.0
2017_11_21_S20 11/22/2017 01:00:00 0.0
2017_11_21_S20 11/22/2017 01:05:00 0.0
2017_11_21_S20 11/22/2017 01:10:00 0.0
2017_11_21_S20 11/22/2017 01:15:00 0.0
2017_11_21_S20 11/22/2017 01:20:00 0.0
2017_11_21_S20 11/22/2017 01:25:00 0.0032
2017_11_21_S20 11/22/2017 01:30:00 0.002
2017_11_21_S20 11/22/2017 01:35:00 0.0023
2017_11_21_S20 11/22/2017 01:40:00 0.0
2017_11_21_S20 11/22/2017 01:45:00 0.0152
2017_11_21_S20 11/22/2017 01:50:00 0.0015
2017_11_21_S20 11/22/2017 01:55:00 0.0
2017_11_21_S20 11/22/2017 02:00:00 0.0
2017_11_21_S20 11/22/2017 02:05:00 0.0
2017_11_21_S20 11/22/2017 02:10:00 0.0
2017_11_21_S20 11/22/2017 02:15:00 0.0
2017_11_21_S20 11/22/2017 02:20:00 0.0
2017_11_21_S20 11/22/2017 02:25:00 0.0
2017_11_21_S20 11/22/2017 02:30:00 0.0
2017_11_21_S20 11/22/2017 02:35:00 0.0
2017_11_21_S20 11/22/2017 02:40:00 0.0
2017_11_21_S20 11/22/2017 02:45:00 0.0
2017_11_21_S20 11/22/2017 02:50:00 0.0
2017_11_21_S20 11/22/2017 02:55:00 0.0
2017_11_21_S20 11/22/2017 03:00:00 0.0
2017_11_21_S20 11/22/2017 03:05:00 0.0
2017_11_21_S20 11/22/2017 03:10:00 0.0
2017_11_21_S20 11/22/2017 03:15:00 0.0
2017_11_21_S20 11/22/2017 03:20:00 0.0
2017_11_21_S20 11/22/2017 03:25:00 0.0
2017_11_21_S20 11/22/2017 03:30:00 0.0
2017_11_21_S20 11/22/2017 03:35:00 0.0
2017_11_21_S20 11/22/2017 03:40:00 0.0
2017_11_21_S20 11/22/2017 03:45:00 0.0
2017_11_21_S20 11/22/2017 03:50:00 0.0
2017_11_21_S20 11/22/2017 03:55:00 0.0
2017_11_21_S20 11/22/2017 04:00:00 0.0
2017_11_21_S20 11/22/2017 04:05:00 0.0
2017_11_21_S20 11/22/2017 04:10:00 0.0
2017_11_21_S20 11/22/2017 04:15:00 0.0
2017_11_21_S20 11/22/2017 04:20:00 0.0
2017_11_21_S20 11/22/2017 04:25:00 0.0
2017_11_21_S20 11/22/2017 04:30:00 0.0
2017_11_21_S20 11/22/2017 04:35:00 0.0
2017_11_21_S20 11/22/2017 04:40:00 0.0
2017_11_21_S20 11/22/2017 04:45:00 0.0
2017_11_21_S20 11/22/2017 04:50:00 0.0
2017_11_21_S20 11/22/2017 04:55:00 0.0
2017_11_21_S20 11/22/2017 05:00:00 0.0
2017_11_21_S20 11/22/2017 05:05:00 0.0
2017_11_21_S20 11/22/2017 05:10:00 0.0
2017_11_21_S20 11/22/2017 05:15:00 0.0
2017_11_21_S20 11/22/2017 05:20:00 0.0
2017_11_21_S20 11/22/2017 05:25:00 0.0
2017_11_21_S20 11/22/2017 05:30:00 0.0
2017_11_21_S20 11/22/2017 05:35:00 0.0
2017_11_21_S20 11/22/2017 05:40:00 0.0
2017_11_21_S20 11/22/2017 05:45:00 0.0
2017_11_21_S20 11/22/2017 05:50:00 0.0
2017_11_21_S20 11/22/2017 05:55:00 0.0
2017_11_21_S20 11/22/2017 06:00:00 0.0
2017_11_21_S20 11/22/2017 06:05:00 0.0
2017_11_21_S20 11/22/2017 06:10:00 0.0
2017_11_21_S20 11/22/2017 06:15:00 0.0
2017_11_21_S20 11/22/2017 06:20:00 0.0
2017_11_21_S20 11/22/2017 06:25:00 0.0
2017_11_21_S20 11/22/2017 06:30:00 0.0
2017_11_21_S20 11/22/2017 06:35:00 0.0
2017_11_21_S20 11/22/2017 06:40:00 0.0
2017_11_21_S20 11/22/2017 06:45:00 0.0
2017_11_21_S20 11/22/2017 06:50:00 0.0
2017_11_21_S20 11/22/2017 06:55:00 0.0
2017_11_21_S20 11/22/2017 07:00:00 0.0
2017_11_21_S20 11/22/2017 07:05:00 0.0
2017_11_21_S20 11/22/2017 07:10:00 0.0
2017_11_21_S20 11/22/2017 07:15:00 0.0
2017_11_21_S20 11/22/2017 07:20:00 0.0
2017_11_21_S20 11/22/2017 07:25:00 0.0
2017_11_21_S20 11/22/2017 07:30:00 0.0
2017_11_21_S20 11/22/2017 07:35:00 0.0
2017_11_21_S20 11/22/2017 07:40:00 0.0
2017_11_21_S20 11/22/2017 07:45:00 0.0
2017_11_21_S20 11/22/2017 07:50:00 0.0
2017_11_21_S20 11/22/2017 07:55:00 0.0
2017_11_21_S20 11/22/2017 08:00:00 0.0

2017_11_21_S21 11/20/2017 22:55:00 0.0008
2017_11_21_S21 11/20/2017 23:00:00 0.0309
2017_11_21_S21 11/20/2017 23:05:00 0.0672
2017_11_21_S21 11/20/2017 23:10:00 0.0279
2017_11_21_S21 11/20/2017 23:15:00 0.0
2017_11_21_S21 11/20/2017 23:20:00 0.0
2017_11_21_S21 11/20/2017 23:25:00 0.0
2017_11_21_S21 11/20/2017 23:30:00 0.0
2017_11_21_S21 11/20/2017 23:35:00 0.0
2017_11_21_S21 11/20/2017 23:40:00 0.0
2017_11_21_S21 11/20/2017 23:45:00 0.0
2017_11_21_S21 11/20/2017 23:50:00 0.0
2017_11_21_S21 11/20/2017 23:55:00 0.0
2017_11_21_S21 11/21/2017 00:00:00 0.0
2017_11_21_S21 11/21/2017 00:05:00 0.0
2017_11_21_S21 11/21/2017 00:10:00 0.0
2017_11_21_S21 11/21/2017 00:15:00 0.0
2017_11_21_S21 11/21/2017 00:20:00 0.0
2017_11_21_S21 11/21/2017 00:25:00 0.0
2017_11_21_S21 11/21/2017 00:30:00 0.0
2017_11_21_S21 11/21/2017 00:35:00 0.0
2017_11_21_S21 11/21/2017 00:40:00 0.0
2017_11_21_S21 11/21/2017 00:45:00 0.0006
2017_11_21_S21 11/21/2017 00:50:00 0.0
2017_11_21_S21 11/21/2017 00:55:00 0.0015
2017_11_21_S21 11/21/2017 01:00:00 0.0
2017_11_21_S21 11/21/2017 01:05:00 0.0
2017_11_21_S21 11/21/2017 01:10:00 0.0
2017_11_21_S21 11/21/2017 01:15:00 0.0021
2017_11_21_S21 11/21/2017 01:20:00 2.9719
2017_11_21_S21 11/21/2017 01:25:00 0.0996
2017_11_21_S21 11/21/2017 01:30:00 0.1396
2017_11_21_S21 11/21/2017 01:35:00 0.0386
2017_11_21_S21 11/21/2017 01:40:00 0.0007
2017_11_21_S21 11/21/2017 01:45:00 0.0
2017_11_21_S21 11/21/2017 01:50:00 0.0
2017_11_21_S21 11/21/2017 01:55:00 0.0
2017_11_21_S21 11/21/2017 02:00:00 0.0
2017_11_21_S21 11/21/2017 02:05:00 0.0011
2017_11_21_S21 11/21/2017 02:10:00 0.0132
2017_11_21_S21 11/21/2017 02:15:00 0.1663
2017_11_21_S21 11/21/2017 02:20:00 0.1754
2017_11_21_S21 11/21/2017 02:25:00 0.048
2017_11_21_S21 11/21/2017 02:30:00 0.008
2017_11_21_S21 11/21/2017 02:35:00 0.0834
2017_11_21_S21 11/21/2017 02:40:00 0.0885
2017_11_21_S21 11/21/2017 02:45:00 0.023
2017_11_21_S21 11/21/2017 02:50:00 0.0
2017_11_21_S21 11/21/2017 02:55:00 0.0
2017_11_21_S21 11/21/2017 03:00:00 0.0
2017_11_21_S21 11/21/2017 03:05:00 0.0
2017_11_21_S21 11/21/2017 03:10:00 0.1561
2017_11_21_S21 11/21/2017 03:15:00 0.0
2017_11_21_S21 11/21/2017 03:20:00 0.0
2017_11_21_S21 11/21/2017 03:25:00 0.0861
2017_11_21_S21 11/21/2017 03:30:00 0.0367
2017_11_21_S21 11/21/2017 03:35:00 0.0593
2017_11_21_S21 11/21/2017 03:40:00 0.0024
2017_11_21_S21 11/21/2017 03:45:00 0.1084
2017_11_21_S21 11/21/2017 03:50:00 0.0365
2017_11_21_S21 11/21/2017 03:55:00 0.1422
2017_11_21_S21 11/21/2017 04:00:00 0.0284
2017_11_21_S21 11/21/2017 04:05:00 0.0189
2017_11_21_S21 11/21/2017 04:10:00 0.0116
2017_11_21_S21 11/21/2017 04:15:00 0.076
2017_11_21_S21 11/21/2017 04:20:00 0.0595
2017_11_21_S21 11/21/2017 04:25:00 0.0
2017_11_21_S21 11/21/2017 04:30:00 0.5627
2017_11_21_S21 11/21/2017 04:35:00 3.6624
2017_11_21_S21 11/21/2017 04:40:00 0.0536
2017_11_21_S21 11/21/2017 04:45:00 0.0069
2017_11_21_S21 11/21/2017 04:50:00 0.0
2017_11_21_S21 11/21/2017 04:55:00 0.0
2017_11_21_S21 11/21/2017 05:00:00 0.0
2017_11_21_S21 11/21/2017 05:05:00 0.0
2017_11_21_S21 11/21/2017 05:10:00 0.0
2017_11_21_S21 11/21/2017 05:15:00 0.2377
2017_11_21_S21 11/21/2017 05:20:00 2.2651
2017_11_21_S21 11/21/2017 05:25:00 2.0674
2017_11_21_S21 11/21/2017 05:30:00 3.7012
2017_11_21_S21 11/21/2017 05:35:00 0.0639
2017_11_21_S21 11/21/2017 05:40:00 0.0151
2017_11_21_S21 11/21/2017 05:45:00 0.0
2017_11_21_S21 11/21/2017 05:50:00 0.0
2017_11_21_S21 11/21/2017 05:55:00 0.0043
2017_11_21_S21 11/21/2017 06:00:00 0.0
2017_11_21_S21 11/21/2017 06:05:00 0.0
2017_11_21_S21 11/21/2017 06:10:00 0.0
2017_11_21_S21 11/21/2017 06:15:00 0.0
2017_11_21_S21 11/21/2017 06:20:00 0.0
2017_11_21_S21 11/21/2017 06:25:00 0.0
2017_11_21_S21 11/21/2017 06:30:00 0.0
2017_11_21_S21 11/21/2017 06:35:00 0.0
2017_11_21_S21 11/21/2017 06:40:00 0.0
2017_11_21_S21 11/21/2017 06:45:00 0.0007
2017_11_21_S21 11/21/2017 06:50:00 0.0
2017_11_21_S21 11/21/2017 06:55:00 0.0
2017_11_21_S21 11/21/2017 07:00:00 0.0
2017_11_21_S21 11/21/2017 07:05:00 0.0
2017_11_21_S21 11/21/2017 07:10:00 0.0
2017_11_21_S21 11/21/2017 07:15:00 0.0
2017_11_21_S21 11/21/2017 07:20:00 0.0
2017_11_21_S21 11/21/2017 07:25:00 0.0123
2017_11_21_S21 11/21/2017 07:30:00 0.0535
2017_11_21_S21 11/21/2017 07:35:00 0.0096
2017_11_21_S21 11/21/2017 07:40:00 0.0064
2017_11_21_S21 11/21/2017 07:45:00 0.0041
2017_11_21_S21 11/21/2017 07:50:00 0.0
2017_11_21_S21 11/21/2017 07:55:00 0.0
2017_11_21_S21 11/21/2017 08:00:00 0.0
2017_11_21_S21 11/21/2017 08:05:00 0.0877
2017_11_21_S21 11/21/2017 08:10:00 0.0409
2017_11_21_S21 11/21/2017 08:15:00 0.0772
2017_11_21_S21 11/21/2017 08:20:00 0.0
2017_11_21_S21 11/21/2017 08:25:00 0.0334
2017_11_21_S21 11/21/2017 08:30:00 0.0083
2017_11_21_S21 11/21/2017 08:35:00 1.1503
2017_11_21_S21 11/21/2017 08:40:00 0.7413
2017_11_21_S21 11/21/2017 08:45:00 0.2578
2017_11_21_S21 11/21/2017 08:50:00 0.2479
2017_11_21_S21 11/21/2017 08:55:00 0.0
2017_11_21_S21 11/21/2017 09:00:00 0.0
2017_11_21_S21 11/21/2017 09:05:00 0.0
2017_11_21_S21 11/21/2017 09:10:00 0.0
2017_11_21_S21 11/21/2017 09:15:00 0.0
2017_11_21_S21 11/21/2017 09:20:00 0.0
2017_11_21_S21 11/21/2017 09:25:00 0.0
2017_11_21_S21 11/21/2017 09:30:00 0.0
2017_11_21_S21 11/21/2017 09:35:00 0.0
2017_11_21_S21 11/21/2017 09:40:00 0.0
2017_11_21_S21 11/21/2017 09:45:00 0.0
2017_11_21_S21 11/21/2017 09:50:00 0.2942
2017_11_21_S21 11/21/2017 09:55:00 0.3422
2017_11_21_S21 11/21/2017 10:00:00 0.0657
2017_11_21_S21 11/21/2017 10:05:00 0.0113
2017_11_21_S21 11/21/2017 10:10:00 0.003
2017_11_21_S21 11/21/2017 10:15:00 0.135
2017_11_21_S21 11/21/2017 10:20:00 0.0
2017_11_21_S21 11/21/2017 10:25:00 0.0
2017_11_21_S21 11/21/2017 10:30:00 0.0
2017_11_21_S21 11/21/2017 10:35:00 0.0
2017_11_21_S21 11/21/2017 10:40:00 0.0
2017_11_21_S21 11/21/2017 10:45:00 0.0158
2017_11_21_S21 11/21/2017 10:50:00 0.0
2017_11_21_S21 11/21/2017 10:55:00 0.0
2017_11_21_S21 11/21/2017 11:00:00 0.0
2017_11_21_S21 11/21/2017 11:05:00 0.0
2017_11_21_S21 11/21/2017 11:10:00 0.0
2017_11_21_S21 11/21/2017 11:15:00 0.0
2017_11_21_S21 11/21/2017 11:20:00 0.0
2017_11_21_S21 11/21/2017 11:25:00 0.0
2017_11_21_S21 11/21/2017 11:30:00 0.0
2017_11_21_S21 11/21/2017 11:35:00 0.0
2017_11_21_S21 11/21/2017 11:40:00 0.0
2017_11_21_S21 11/21/2017 11:45:00 0.0
2017_11_21_S21 11/21/2017 11:50:00 0.0
2017_11_21_S21 11/21/2017 11:55:00 0.0
2017_11_21_S21 11/21/2017 12:00:00 0.0
2017_11_21_S21 11/21/2017 12:05:00 0.0
2017_11_21_S21 11/21/2017 12:10:00 0.0
2017_11_21_S21 11/21/2017 12:15:00 0.0
2017_11_21_S21 11/21/2017 12:20:00 0.0
2017_11_21_S21 11/21/2017 12:25:00 0.0
2017_11_21_S21 11/21/2017 12:30:00 0.0
2017_11_21_S21 11/21/2017 12:35:00 0.0
2017_11_21_S21 11/21/2017 12:40:00 0.0
2017_11_21_S21 11/21/2017 12:45:00 0.0
2017_11_21_S21 11/21/2017 12:50:00 0.0
2017_11_21_S21 11/21/2017 12:55:00 0.0
2017_11_21_S21 11/21/2017 13:00:00 0.0
2017_11_21_S21 11/21/2017 13:05:00 0.0
2017_11_21_S21 11/21/2017 13:10:00 0.0
2017_11_21_S21 11/21/2017 13:15:00 0.0
2017_11_21_S21 11/21/2017 13:20:00 0.0
2017_11_21_S21 11/21/2017 13:25:00 0.0
2017_11_21_S21 11/21/2017 13:30:00 0.0
2017_11_21_S21 11/21/2017 13:35:00 0.0
2017_11_21_S21 11/21/2017 13:40:00 0.0
2017_11_21_S21 11/21/2017 13:45:00 0.0
2017_11_21_S21 11/21/2017 13:50:00 0.0
2017_11_21_S21 11/21/2017 13:55:00 0.0
2017_11_21_S21 11/21/2017 14:00:00 0.0
2017_11_21_S21 11/21/2017 14:05:00 0.0
2017_11_21_S21 11/21/2017 14:10:00 0.0
2017_11_21_S21 11/21/2017 14:15:00 0.0
2017_11_21_S21 11/21/2017 14:20:00 0.0
2017_11_21_S21 11/21/2017 14:25:00 0.0
2017_11_21_S21 11/21/2017 14:30:00 0.0
2017_11_21_S21 11/21/2017 14:35:00 0.0
2017_11_21_S21 11/21/2017 14:40:00 0.0
2017_11_21_S21 11/21/2017 14:45:00 0.0
2017_11_21_S21 11/21/2017 14:50:00 0.0
2017_11_21_S21 11/21/2017 14:55:00 0.0
2017_11_21_S21 11/21/2017 15:00:00 0.0
2017_11_21_S21 11/21/2017 15:05:00 0.0
2017_11_21_S21 11/21/2017 15:10:00 0.0
2017_11_21_S21 11/21/2017 15:15:00 0.0
2017_11_21_S21 11/21/2017 15:20:00 0.0
2017_11_21_S21 11/21/2017 15:25:00 0.0
2017_11_21_S21 11/21/2017 15:30:00 0.0
2017_11_21_S21 11/21/2017 15:35:00 0.0
2017_11_21_S21 11/21/2017 15:40:00 0.0
2017_11_21_S21 11/21/2017 15:45:00 0.0
2017_11_21_S21 11/21/2017 15:50:00 0.0
2017_11_21_S21 11/21/2017 15:55:00 0.0
2017_11_21_S21 11/21/2017 16:00:00 0.0
2017_11_21_S21 11/21/2017 16:05:00 0.0
2017_11_21_S21 11/21/2017 16:10:00 0.0
2017_11_21_S21 11/21/2017 16:15:00 0.0
2017_11_21_S21 11/21/2017 16:20:00 0.0
2017_11_21_S21 11/21/2017 16:25:00 0.0
2017_11_21_S21 11/21/2017 16:30:00 0.0
2017_11_21_S21 11/21/2017 16:35:00 0.0
2017_11_21_S21 11/21/2017 16:40:00 0.0
2017_11_21_S21 11/21/2017 16:45:00 0.0
2017_11_21_S21 11/21/2017 16:50:00 0.0
2017_11_21_S21 11/21/2017 16:55:00 0.0
2017_11_21_S21 11/21/2017 17:00:00 0.0
2017_11_21_S21 11/21/2017 17:05:00 0.0
2017_11_21_S21 11/21/2017 17:10:00 0.0
2017_11_21_S21 11/21/2017 17:15:00 0.0
2017_11_21_S21 11/21/2017 17:20:00 0.0
2017_11_21_S21 11/21/2017 17:25:00 0.0
2017_11_21_S21 11/21/2017 17:30:00 0.0
2017_11_21_S21 11/21/2017 17:35:00 0.0
2017_11_21_S21 11/21/2017 17:40:00 0.0
2017_11_21_S21 11/21/2017 17:45:00 0.0
2017_11_21_S21 11/21/2017 17:50:00 0.0
2017_11_21_S21 11/21/2017 17:55:00 0.0
2017_11_21_S21 11/21/2017 18:00:00 0.0
2017_11_21_S21 11/21/2017 18:05:00 0.0
2017_11_21_S21 11/21/2017 18:10:00 0.0
2017_11_21_S21 11/21/2017 18:15:00 0.0
2017_11_21_S21 11/21/2017 18:20:00 0.0
2017_11_21_S21 11/21/2017 18:25:00 0.0
2017_11_21_S21 11/21/2017 18:30:00 0.0
2017_11_21_S21 11/21/2017 18:35:00 0.0
2017_11_21_S21 11/21/2017 18:40:00 0.0
2017_11_21_S21 11/21/2017 18:45:00 0.0
2017_11_21_S21 11/21/2017 18:50:00 0.0
2017_11_21_S21 11/21/2017 18:55:00 0.0
2017_11_21_S21 11/21/2017 19:00:00 0.0
2017_11_21_S21 11/21/2017 19:05:00 0.0
2017_11_21_S21 11/21/2017 19:10:00 0.0
2017_11_21_S21 11/21/2017 19:15:00 0.0
2017_11_21_S21 11/21/2017 19:20:00 0.0
2017_11_21_S21 11/21/2017 19:25:00 0.0
2017_11_21_S21 11/21/2017 19:30:00 0.0
2017_11_21_S21 11/21/2017 19:35:00 0.0
2017_11_21_S21 11/21/2017 19:40:00 0.0
2017_11_21_S21 11/21/2017 19:45:00 0.0
2017_11_21_S21 11/21/2017 19:50:00 0.0
2017_11_21_S21 11/21/2017 19:55:00 0.0
2017_11_21_S21 11/21/2017 20:00:00 0.0
2017_11_21_S21 11/21/2017 20:05:00 0.0
2017_11_21_S21 11/21/2017 20:10:00 0.0
2017_11_21_S21 11/21/2017 20:15:00 0.0
2017_11_21_S21 11/21/2017 20:20:00 0.0
2017_11_21_S21 11/21/2017 20:25:00 0.0
2017_11_21_S21 11/21/2017 20:30:00 0.0
2017_11_21_S21 11/21/2017 20:35:00 0.0
2017_11_21_S21 11/21/2017 20:40:00 0.0
2017_11_21_S21 11/21/2017 20:45:00 0.0
2017_11_21_S21 11/21/2017 20:50:00 0.0
2017_11_21_S21 11/21/2017 20:55:00 0.0
2017_11_21_S21 11/21/2017 21:00:00 0.0
2017_11_21_S21 11/21/2017 21:05:00 0.0
2017_11_21_S21 11/21/2017 21:10:00 0.0
2017_11_21_S21 11/21/2017 21:15:00 0.0
2017_11_21_S21 11/21/2017 21:20:00 0.0
2017_11_21_S21 11/21/2017 21:25:00 0.0
2017_11_21_S21 11/21/2017 21:30:00 0.0
2017_11_21_S21 11/21/2017 21:35:00 0.0
2017_11_21_S21 11/21/2017 21:40:00 0.0
2017_11_21_S21 11/21/2017 21:45:00 0.0
2017_11_21_S21 11/21/2017 21:50:00 0.0
2017_11_21_S21 11/21/2017 21:55:00 0.0
2017_11_21_S21 11/21/2017 22:00:00 0.0
2017_11_21_S21 11/21/2017 22:05:00 0.0
2017_11_21_S21 11/21/2017 22:10:00 0.0
2017_11_21_S21 11/21/2017 22:15:00 0.0
2017_11_21_S21 11/21/2017 22:20:00 0.0
2017_11_21_S21 11/21/2017 22:25:00 0.0
2017_11_21_S21 11/21/2017 22:30:00 0.0
2017_11_21_S21 11/21/2017 22:35:00 0.0
2017_11_21_S21 11/21/2017 22:40:00 0.0013
2017_11_21_S21 11/21/2017 22:45:00 0.0
2017_11_21_S21 11/21/2017 22:50:00 0.0
2017_11_21_S21 11/21/2017 22:55:00 0.0
2017_11_21_S21 11/21/2017 23:00:00 0.0
2017_11_21_S21 11/21/2017 23:05:00 0.0
2017_11_21_S21 11/21/2017 23:10:00 0.0016
2017_11_21_S21 11/21/2017 23:15:00 0.0
2017_11_21_S21 11/21/2017 23:20:00 0.0
2017_11_21_S21 11/21/2017 23:25:00 0.0
2017_11_21_S21 11/21/2017 23:30:00 0.0
2017_11_21_S21 11/21/2017 23:35:00 0.0
2017_11_21_S21 11/21/2017 23:40:00 0.0
2017_11_21_S21 11/21/2017 23:45:00 0.0
2017_11_21_S21 11/21/2017 23:50:00 0.0
2017_11_21_S21 11/21/2017 23:55:00 0.0
2017_11_21_S21 11/22/2017 00:00:00 0.0
2017_11_21_S21 11/22/2017 00:05:00 0.0
2017_11_21_S21 11/22/2017 00:10:00 0.0
2017_11_21_S21 11/22/2017 00:15:00 0.0
2017_11_21_S21 11/22/2017 00:20:00 0.0
2017_11_21_S21 11/22/2017 00:25:00 0.0
2017_11_21_S21 11/22/2017 00:30:00 0.0
2017_11_21_S21 11/22/2017 00:35:00 0.0
2017_11_21_S21 11/22/2017 00:40:00 0.0
2017_11_21_S21 11/22/2017 00:45:00 0.0
2017_11_21_S21 11/22/2017 00:50:00 0.0
2017_11_21_S21 11/22/2017 00:55:00 0.0
2017_11_21_S21 11/22/2017 01:00:00 0.0
2017_11_21_S21 11/22/2017 01:05:00 0.0
2017_11_21_S21 11/22/2017 01:10:00 0.0
2017_11_21_S21 11/22/2017 01:15:00 0.0
2017_11_21_S21 11/22/2017 01:20:00 0.0
2017_11_21_S21 11/22/2017 01:25:00 0.0011
2017_11_21_S21 11/22/2017 01:30:00 0.0022
2017_11_21_S21 11/22/2017 01:35:00 0.0
2017_11_21_S21 11/22/2017 01:40:00 0.005
2017_11_21_S21 11/22/2017 01:45:00 0.0
2017_11_21_S21 11/22/2017 01:50:00 0.0712
2017_11_21_S21 11/22/2017 01:55:00 0.0
2017_11_21_S21 11/22/2017 02:00:00 0.0
2017_11_21_S21 11/22/2017 02:05:00 0.0
2017_11_21_S21 11/22/2017 02:10:00 0.0
2017_11_21_S21 11/22/2017 02:15:00 0.0
2017_11_21_S21 11/22/2017 02:20:00 0.0
2017_11_21_S21 11/22/2017 02:25:00 0.0
2017_11_21_S21 11/22/2017 02:30:00 0.0117
2017_11_21_S21 11/22/2017 02:35:00 0.0
2017_11_21_S21 11/22/2017 02:40:00 0.0
2017_11_21_S21 11/22/2017 02:45:00 0.0
2017_11_21_S21 11/22/2017 02:50:00 0.0
2017_11_21_S21 11/22/2017 02:55:00 0.0
2017_11_21_S21 11/22/2017 03:00:00 0.0
2017_11_21_S21 11/22/2017 03:05:00 0.0
2017_11_21_S21 11/22/2017 03:10:00 0.0
2017_11_21_S21 11/22/2017 03:15:00 0.0
2017_11_21_S21 11/22/2017 03:20:00 0.0
2017_11_21_S21 11/22/2017 03:25:00 0.0
2017_11_21_S21 11/22/2017 03:30:00 0.0
2017_11_21_S21 11/22/2017 03:35:00 0.0
2017_11_21_S21 11/22/2017 03:40:00 0.0
2017_11_21_S21 11/22/2017 03:45:00 0.0
2017_11_21_S21 11/22/2017 03:50:00 0.0
2017_11_21_S21 11/22/2017 03:55:00 0.0
2017_11_21_S21 11/22/2017 04:00:00 0.0
2017_11_21_S21 11/22/2017 04:05:00 0.0
2017_11_21_S21 11/22/2017 04:10:00 0.0
2017_11_21_S21 11/22/2017 04:15:00 0.0
2017_11_21_S21 11/22/2017 04:20:00 0.0
2017_11_21_S21 11/22/2017 04:25:00 0.0
2017_11_21_S21 11/22/2017 04:30:00 0.0
2017_11_21_S21 11/22/2017 04:35:00 0.0
2017_11_21_S21 11/22/2017 04:40:00 0.0
2017_11_21_S21 11/22/2017 04:45:00 0.0
2017_11_21_S21 11/22/2017 04:50:00 0.0
2017_11_21_S21 11/22/2017 04:55:00 0.0
2017_11_21_S21 11/22/2017 05:00:00 0.0
2017_11_21_S21 11/22/2017 05:05:00 0.0
2017_11_21_S21 11/22/2017 05:10:00 0.0
2017_11_21_S21 11/22/2017 05:15:00 0.0
2017_11_21_S21 11/22/2017 05:20:00 0.0
2017_11_21_S21 11/22/2017 05:25:00 0.0
2017_11_21_S21 11/22/2017 05:30:00 0.0
2017_11_21_S21 11/22/2017 05:35:00 0.0
2017_11_21_S21 11/22/2017 05:40:00 0.0
2017_11_21_S21 11/22/2017 05:45:00 0.0
2017_11_21_S21 11/22/2017 05:50:00 0.0
2017_11_21_S21 11/22/2017 05:55:00 0.0
2017_11_21_S21 11/22/2017 06:00:00 0.0
2017_11_21_S21 11/22/2017 06:05:00 0.0
2017_11_21_S21 11/22/2017 06:10:00 0.0
2017_11_21_S21 11/22/2017 06:15:00 0.0
2017_11_21_S21 11/22/2017 06:20:00 0.0
2017_11_21_S21 11/22/2017 06:25:00 0.0
2017_11_21_S21 11/22/2017 06:30:00 0.0
2017_11_21_S21 11/22/2017 06:35:00 0.0
2017_11_21_S21 11/22/2017 06:40:00 0.0
2017_11_21_S21 11/22/2017 06:45:00 0.0
2017_11_21_S21 11/22/2017 06:50:00 0.0
2017_11_21_S21 11/22/2017 06:55:00 0.0
2017_11_21_S21 11/22/2017 07:00:00 0.0
2017_11_21_S21 11/22/2017 07:05:00 0.0
2017_11_21_S21 11/22/2017 07:10:00 0.0
2017_11_21_S21 11/22/2017 07:15:00 0.0
2017_11_21_S21 11/22/2017 07:20:00 0.0
2017_11_21_S21 11/22/2017 07:25:00 0.0
2017_11_21_S21 11/22/2017 07:30:00 0.0
2017_11_21_S21 11/22/2017 07:35:00 0.0
2017_11_21_S21 11/22/2017 07:40:00 0.0
2017_11_21_S21 11/22/2017 07:45:00 0.0
2017_11_21_S21 11/22/2017 07:50:00 0.0
2017_11_21_S21 11/22/2017 07:55:00 0.0
2017_11_21_S21 11/22/2017 08:00:00 0.0

2017_11_21_S22 11/20/2017 22:55:00 0.0117
2017_11_21_S22 11/20/2017 23:00:00 0.0145
2017_11_21_S22 11/20/2017 23:05:00 0.1368
2017_11_21_S22 11/20/2017 23:10:00 0.0858
2017_11_21_S22 11/20/2017 23:15:00 0.0
2017_11_21_S22 11/20/2017 23:20:00 0.0
2017_11_21_S22 11/20/2017 23:25:00 0.0
2017_11_21_S22 11/20/2017 23:30:00 0.0
2017_11_21_S22 11/20/2017 23:35:00 0.0
2017_11_21_S22 11/20/2017 23:40:00 0.0
2017_11_21_S22 11/20/2017 23:45:00 0.0
2017_11_21_S22 11/20/2017 23:50:00 0.0
2017_11_21_S22 11/20/2017 23:55:00 0.0
2017_11_21_S22 11/21/2017 00:00:00 0.0
2017_11_21_S22 11/21/2017 00:05:00 0.0
2017_11_21_S22 11/21/2017 00:10:00 0.0
2017_11_21_S22 11/21/2017 00:15:00 0.0
2017_11_21_S22 11/21/2017 00:20:00 0.0
2017_11_21_S22 11/21/2017 00:25:00 0.0
2017_11_21_S22 11/21/2017 00:30:00 0.0
2017_11_21_S22 11/21/2017 00:35:00 0.0
2017_11_21_S22 11/21/2017 00:40:00 0.0025
2017_11_21_S22 11/21/2017 00:45:00 0.0012
2017_11_21_S22 11/21/2017 00:50:00 0.0
2017_11_21_S22 11/21/2017 00:55:00 0.0005
2017_11_21_S22 11/21/2017 01:00:00 0.0
2017_11_21_S22 11/21/2017 01:05:00 0.0
2017_11_21_S22 11/21/2017 01:10:00 0.0
2017_11_21_S22 11/21/2017 01:15:00 0.0
2017_11_21_S22 11/21/2017 01:20:00 2.1624
2017_11_21_S22 11/21/2017 01:25:00 0.1956
2017_11_21_S22 11/21/2017 01:30:00 0.1735
2017_11_21_S22 11/21/2017 01:35:00 0.0405
2017_11_21_S22 11/21/2017 01:40:00 0.0008
2017_11_21_S22 11/21/2017 01:45:00 0.0
2017_11_21_S22 11/21/2017 01:50:00 0.0
2017_11_21_S22 11/21/2017 01:55:00 0.0
2017_11_21_S22 11/21/2017 02:00:00 0.0
2017_11_21_S22 11/21/2017 02:05:00 0.0
2017_11_21_S22 11/21/2017 02:10:00 0.0018
2017_11_21_S22 11/21/2017 02:15:00 0.0675
2017_11_21_S22 11/21/2017 02:20:00 0.1464
2017_11_21_S22 11/21/2017 02:25:00 0.0892
2017_11_21_S22 11/21/2017 02:30:00 0.0249
2017_11_21_S22 11/21/2017 02:35:00 0.0415
2017_11_21_S22 11/21/2017 02:40:00 0.1455
2017_11_21_S22 11/21/2017 02:45:00 0.1016
2017_11_21_S22 11/21/2017 02:50:00 0.0
2017_11_21_S22 11/21/2017 02:55:00 0.0
2017_11_21_S22 11/21/2017 03:00:00 0.0
2017_11_21_S22 11/21/2017 03:05:00 0.0
2017_11_21_S22 11/21/2017 03:10:00 0.0406
2017_11_21_S22 11/21/2017 03:15:00 0.0
2017_11_21_S22 11/21/2017 03:20:00 0.0
2017_11_21_S22 11/21/2017 03:25:00 0.0128
2017_11_21_S22 11/21/2017 03:30:00 0.0321
2017_11_21_S22 11/21/2017 03:35:00 0.008
2017_11_21_S22 11/21/2017 03:40:00 0.0007
2017_11_21_S22 11/21/2017 03:45:00 0.0223
2017_11_21_S22 11/21/2017 03:50:00 0.0811
2017_11_21_S22 11/21/2017 03:55:00 0.3199
2017_11_21_S22 11/21/2017 04:00:00 0.0496
2017_11_21_S22 11/21/2017 04:05:00 0.011
2017_11_21_S22 11/21/2017 04:10:00 0.0089
2017_11_21_S22 11/21/2017 04:15:00 0.0905
2017_11_21_S22 11/21/2017 04:20:00 0.0354
2017_11_21_S22 11/21/2017 04:25:00 0.003
2017_11_21_S22 11/21/2017 04:30:00 0.1443
2017_11_21_S22 11/21/2017 04:35:00 3.8088
2017_11_21_S22 11/21/2017 04:40:00 0.0582
2017_11_21_S22 11/21/2017 04:45:00 0.0118
2017_11_21_S22 11/21/2017 04:50:00 0.0023
2017_11_21_S22 11/21/2017 04:55:00 0.0
2017_11_21_S22 11/21/2017 05:00:00 0.0
2017_11_21_S22 11/21/2017 05:05:00 0.0
2017_11_21_S22 11/21/2017 05:10:00 0.0
2017_11_21_S22 11/21/2017 05:15:00 0.0506
2017_11_21_S22 11/21/2017 05:20:00 1.3211
2017_11_21_S22 11/21/2017 05:25:00 1.7247
2017_11_21_S22 11/21/2017 05:30:00 3.3908
2017_11_21_S22 11/21/2017 05:35:00 0.1181
2017_11_21_S22 11/21/2017 05:40:00 0.0122
2017_11_21_S22 11/21/2017 05:45:00 0.0
2017_11_21_S22 11/21/2017 05:50:00 0.0
2017_11_21_S22 11/21/2017 05:55:00 0.0078
2017_11_21_S22 11/21/2017 06:00:00 0.0
2017_11_21_S22 11/21/2017 06:05:00 0.0002
2017_11_21_S22 11/21/2017 06:10:00 0.0
2017_11_21_S22 11/21/2017 06:15:00 0.0
2017_11_21_S22 11/21/2017 06:20:00 0.0
2017_11_21_S22 11/21/2017 06:25:00 0.0
2017_11_21_S22 11/21/2017 06:30:00 0.0
2017_11_21_S22 11/21/2017 06:35:00 0.0
2017_11_21_S22 11/21/2017 06:40:00 0.0
2017_11_21_S22 11/21/2017 06:45:00 0.0013
2017_11_21_S22 11/21/2017 06:50:00 0.0
2017_11_21_S22 11/21/2017 06:55:00 0.0
2017_11_21_S22 11/21/2017 07:00:00 0.0
2017_11_21_S22 11/21/2017 07:05:00 0.0
2017_11_21_S22 11/21/2017 07:10:00 0.0
2017_11_21_S22 11/21/2017 07:15:00 0.0
2017_11_21_S22 11/21/2017 07:20:00 0.0
2017_11_21_S22 11/21/2017 07:25:00 0.0098
2017_11_21_S22 11/21/2017 07:30:00 0.1476
2017_11_21_S22 11/21/2017 07:35:00 0.3227
2017_11_21_S22 11/21/2017 07:40:00 0.0175
2017_11_21_S22 11/21/2017 07:45:00 0.023
2017_11_21_S22 11/21/2017 07:50:00 0.0
2017_11_21_S22 11/21/2017 07:55:00 0.0
2017_11_21_S22 11/21/2017 08:00:00 0.0
2017_11_21_S22 11/21/2017 08:05:00 0.0202
2017_11_21_S22 11/21/2017 08:10:00 0.0771
2017_11_21_S22 11/21/2017 08:15:00 0.1931
2017_11_21_S22 11/21/2017 08:20:00 0.008
2017_11_21_S22 11/21/2017 08:25:00 0.0308
2017_11_21_S22 11/21/2017 08:30:00 0.0014
2017_11_21_S22 11/21/2017 08:35:00 0.5497
2017_11_21_S22 11/21/2017 08:40:00 0.3913
2017_11_21_S22 11/21/2017 08:45:00 0.2875
2017_11_21_S22 11/21/2017 08:50:00 0.5311
2017_11_21_S22 11/21/2017 08:55:00 0.0
2017_11_21_S22 11/21/2017 09:00:00 0.0
2017_11_21_S22 11/21/2017 09:05:00 0.0
2017_11_21_S22 11/21/2017 09:10:00 0.0
2017_11_21_S22 11/21/2017 09:15:00 0.0
2017_11_21_S22 11/21/2017 09:20:00 0.0
2017_11_21_S22 11/21/2017 09:25:00 0.0
2017_11_21_S22 11/21/2017 09:30:00 0.0
2017_11_21_S22 11/21/2017 09:35:00 0.0
2017_11_21_S22 11/21/2017 09:40:00 0.0
2017_11_21_S22 11/21/2017 09:45:00 0.0
2017_11_21_S22 11/21/2017 09:50:00 0.1165
2017_11_21_S22 11/21/2017 09:55:00 0.2888
2017_11_21_S22 11/21/2017 10:00:00 0.3021
2017_11_21_S22 11/21/2017 10:05:00 0.0125
2017_11_21_S22 11/21/2017 10:10:00 0.0036
2017_11_21_S22 11/21/2017 10:15:00 0.2753
2017_11_21_S22 11/21/2017 10:20:00 0.0
2017_11_21_S22 11/21/2017 10:25:00 0.0
2017_11_21_S22 11/21/2017 10:30:00 0.0
2017_11_21_S22 11/21/2017 10:35:00 0.0
2017_11_21_S22 11/21/2017 10:40:00 0.0
2017_11_21_S22 11/21/2017 10:45:00 0.0382
2017_11_21_S22 11/21/2017 10:50:00 0.0016
2017_11_21_S22 11/21/2017 10:55:00 0.0
2017_11_21_S22 11/21/2017 11:00:00 0.0
2017_11_21_S22 11/21/2017 11:05:00 0.0
2017_11_21_S22 11/21/2017 11:10:00 0.0
2017_11_21_S22 11/21/2017 11:15:00 0.0
2017_11_21_S22 11/21/2017 11:20:00 0.0
2017_11_21_S22 11/21/2017 11:25:00 0.0
2017_11_21_S22 11/21/2017 11:30:00 0.0
2017_11_21_S22 11/21/2017 11:35:00 0.0
2017_11_21_S22 11/21/2017 11:40:00 0.0
2017_11_21_S22 11/21/2017 11:45:00 0.0
2017_11_21_S22 11/21/2017 11:50:00 0.0
2017_11_21_S22 11/21/2017 11:55:00 0.0
2017_11_21_S22 11/21/2017 12:00:00 0.0
2017_11_21_S22 11/21/2017 12:05:00 0.0
2017_11_21_S22 11/21/2017 12:10:00 0.0
2017_11_21_S22 11/21/2017 12:15:00 0.0
2017_11_21_S22 11/21/2017 12:20:00 0.0
2017_11_21_S22 11/21/2017 12:25:00 0.0
2017_11_21_S22 11/21/2017 12:30:00 0.0
2017_11_21_S22 11/21/2017 12:35:00 0.0
2017_11_21_S22 11/21/2017 12:40:00 0.0
2017_11_21_S22 11/21/2017 12:45:00 0.0
2017_11_21_S22 11/21/2017 12:50:00 0.0
2017_11_21_S22 11/21/2017 12:55:00 0.0
2017_11_21_S22 11/21/2017 13:00:00 0.0
2017_11_21_S22 11/21/2017 13:05:00 0.0
2017_11_21_S22 11/21/2017 13:10:00 0.0
2017_11_21_S22 11/21/2017 13:15:00 0.0
2017_11_21_S22 11/21/2017 13:20:00 0.0
2017_11_21_S22 11/21/2017 13:25:00 0.0
2017_11_21_S22 11/21/2017 13:30:00 0.0
2017_11_21_S22 11/21/2017 13:35:00 0.0
2017_11_21_S22 11/21/2017 13:40:00 0.0
2017_11_21_S22 11/21/2017 13:45:00 0.0
2017_11_21_S22 11/21/2017 13:50:00 0.0
2017_11_21_S22 11/21/2017 13:55:00 0.0
2017_11_21_S22 11/21/2017 14:00:00 0.0
2017_11_21_S22 11/21/2017 14:05:00 0.0
2017_11_21_S22 11/21/2017 14:10:00 0.0
2017_11_21_S22 11/21/2017 14:15:00 0.0
2017_11_21_S22 11/21/2017 14:20:00 0.0
2017_11_21_S22 11/21/2017 14:25:00 0.0
2017_11_21_S22 11/21/2017 14:30:00 0.0
2017_11_21_S22 11/21/2017 14:35:00 0.0
2017_11_21_S22 11/21/2017 14:40:00 0.0
2017_11_21_S22 11/21/2017 14:45:00 0.0
2017_11_21_S22 11/21/2017 14:50:00 0.0
2017_11_21_S22 11/21/2017 14:55:00 0.0
2017_11_21_S22 11/21/2017 15:00:00 0.0
2017_11_21_S22 11/21/2017 15:05:00 0.0
2017_11_21_S22 11/21/2017 15:10:00 0.0
2017_11_21_S22 11/21/2017 15:15:00 0.0
2017_11_21_S22 11/21/2017 15:20:00 0.0
2017_11_21_S22 11/21/2017 15:25:00 0.0
2017_11_21_S22 11/21/2017 15:30:00 0.0
2017_11_21_S22 11/21/2017 15:35:00 0.0
2017_11_21_S22 11/21/2017 15:40:00 0.0
2017_11_21_S22 11/21/2017 15:45:00 0.0
2017_11_21_S22 11/21/2017 15:50:00 0.0
2017_11_21_S22 11/21/2017 15:55:00 0.0
2017_11_21_S22 11/21/2017 16:00:00 0.0
2017_11_21_S22 11/21/2017 16:05:00 0.0
2017_11_21_S22 11/21/2017 16:10:00 0.0
2017_11_21_S22 11/21/2017 16:15:00 0.0
2017_11_21_S22 11/21/2017 16:20:00 0.0
2017_11_21_S22 11/21/2017 16:25:00 0.0
2017_11_21_S22 11/21/2017 16:30:00 0.0
2017_11_21_S22 11/21/2017 16:35:00 0.0
2017_11_21_S22 11/21/2017 16:40:00 0.0
2017_11_21_S22 11/21/2017 16:45:00 0.0
2017_11_21_S22 11/21/2017 16:50:00 0.0
2017_11_21_S22 11/21/2017 16:55:00 0.0
2017_11_21_S22 11/21/2017 17:00:00 0.0
2017_11_21_S22 11/21/2017 17:05:00 0.0
2017_11_21_S22 11/21/2017 17:10:00 0.0
2017_11_21_S22 11/21/2017 17:15:00 0.0
2017_11_21_S22 11/21/2017 17:20:00 0.0
2017_11_21_S22 11/21/2017 17:25:00 0.0
2017_11_21_S22 11/21/2017 17:30:00 0.0
2017_11_21_S22 11/21/2017 17:35:00 0.0
2017_11_21_S22 11/21/2017 17:40:00 0.0
2017_11_21_S22 11/21/2017 17:45:00 0.0
2017_11_21_S22 11/21/2017 17:50:00 0.0
2017_11_21_S22 11/21/2017 17:55:00 0.0
2017_11_21_S22 11/21/2017 18:00:00 0.0
2017_11_21_S22 11/21/2017 18:05:00 0.0
2017_11_21_S22 11/21/2017 18:10:00 0.0
2017_11_21_S22 11/21/2017 18:15:00 0.0
2017_11_21_S22 11/21/2017 18:20:00 0.0
2017_11_21_S22 11/21/2017 18:25:00 0.0
2017_11_21_S22 11/21/2017 18:30:00 0.0
2017_11_21_S22 11/21/2017 18:35:00 0.0
2017_11_21_S22 11/21/2017 18:40:00 0.0
2017_11_21_S22 11/21/2017 18:45:00 0.0
2017_11_21_S22 11/21/2017 18:50:00 0.0
2017_11_21_S22 11/21/2017 18:55:00 0.0
2017_11_21_S22 11/21/2017 19:00:00 0.0
2017_11_21_S22 11/21/2017 19:05:00 0.0
2017_11_21_S22 11/21/2017 19:10:00 0.0
2017_11_21_S22 11/21/2017 19:15:00 0.0
2017_11_21_S22 11/21/2017 19:20:00 0.0
2017_11_21_S22 11/21/2017 19:25:00 0.0
2017_11_21_S22 11/21/2017 19:30:00 0.0
2017_11_21_S22 11/21/2017 19:35:00 0.0
2017_11_21_S22 11/21/2017 19:40:00 0.0
2017_11_21_S22 11/21/2017 19:45:00 0.0
2017_11_21_S22 11/21/2017 19:50:00 0.0
2017_11_21_S22 11/21/2017 19:55:00 0.0
2017_11_21_S22 11/21/2017 20:00:00 0.0
2017_11_21_S22 11/21/2017 20:05:00 0.0
2017_11_21_S22 11/21/2017 20:10:00 0.0
2017_11_21_S22 11/21/2017 20:15:00 0.0
2017_11_21_S22 11/21/2017 20:20:00 0.0
2017_11_21_S22 11/21/2017 20:25:00 0.0
2017_11_21_S22 11/21/2017 20:30:00 0.0
2017_11_21_S22 11/21/2017 20:35:00 0.0
2017_11_21_S22 11/21/2017 20:40:00 0.0
2017_11_21_S22 11/21/2017 20:45:00 0.0
2017_11_21_S22 11/21/2017 20:50:00 0.0
2017_11_21_S22 11/21/2017 20:55:00 0.0
2017_11_21_S22 11/21/2017 21:00:00 0.0
2017_11_21_S22 11/21/2017 21:05:00 0.0
2017_11_21_S22 11/21/2017 21:10:00 0.0
2017_11_21_S22 11/21/2017 21:15:00 0.0
2017_11_21_S22 11/21/2017 21:20:00 0.0
2017_11_21_S22 11/21/2017 21:25:00 0.0
2017_11_21_S22 11/21/2017 21:30:00 0.0
2017_11_21_S22 11/21/2017 21:35:00 0.0
2017_11_21_S22 11/21/2017 21:40:00 0.0
2017_11_21_S22 11/21/2017 21:45:00 0.0
2017_11_21_S22 11/21/2017 21:50:00 0.0
2017_11_21_S22 11/21/2017 21:55:00 0.0
2017_11_21_S22 11/21/2017 22:00:00 0.0
2017_11_21_S22 11/21/2017 22:05:00 0.0
2017_11_21_S22 11/21/2017 22:10:00 0.0
2017_11_21_S22 11/21/2017 22:15:00 0.0
2017_11_21_S22 11/21/2017 22:20:00 0.0
2017_11_21_S22 11/21/2017 22:25:00 0.0
2017_11_21_S22 11/21/2017 22:30:00 0.0
2017_11_21_S22 11/21/2017 22:35:00 0.0
2017_11_21_S22 11/21/2017 22:40:00 0.0
2017_11_21_S22 11/21/2017 22:45:00 0.0013
2017_11_21_S22 11/21/2017 22:50:00 0.0
2017_11_21_S22 11/21/2017 22:55:00 0.0
2017_11_21_S22 11/21/2017 23:00:00 0.0012
2017_11_21_S22 11/21/2017 23:05:00 0.0
2017_11_21_S22 11/21/2017 23:10:00 0.0018
2017_11_21_S22 11/21/2017 23:15:00 0.0015
2017_11_21_S22 11/21/2017 23:20:00 0.0
2017_11_21_S22 11/21/2017 23:25:00 0.0
2017_11_21_S22 11/21/2017 23:30:00 0.0
2017_11_21_S22 11/21/2017 23:35:00 0.0
2017_11_21_S22 11/21/2017 23:40:00 0.0
2017_11_21_S22 11/21/2017 23:45:00 0.0
2017_11_21_S22 11/21/2017 23:50:00 0.0
2017_11_21_S22 11/21/2017 23:55:00 0.0
2017_11_21_S22 11/22/2017 00:00:00 0.0
2017_11_21_S22 11/22/2017 00:05:00 0.0
2017_11_21_S22 11/22/2017 00:10:00 0.0
2017_11_21_S22 11/22/2017 00:15:00 0.0
2017_11_21_S22 11/22/2017 00:20:00 0.0
2017_11_21_S22 11/22/2017 00:25:00 0.0
2017_11_21_S22 11/22/2017 00:30:00 0.0
2017_11_21_S22 11/22/2017 00:35:00 0.0
2017_11_21_S22 11/22/2017 00:40:00 0.0
2017_11_21_S22 11/22/2017 00:45:00 0.0
2017_11_21_S22 11/22/2017 00:50:00 0.0
2017_11_21_S22 11/22/2017 00:55:00 0.0
2017_11_21_S22 11/22/2017 01:00:00 0.0
2017_11_21_S22 11/22/2017 01:05:00 0.0
2017_11_21_S22 11/22/2017 01:10:00 0.0
2017_11_21_S22 11/22/2017 01:15:00 0.0
2017_11_21_S22 11/22/2017 01:20:00 0.0
2017_11_21_S22 11/22/2017 01:25:00 0.0
2017_11_21_S22 11/22/2017 01:30:00 0.0
2017_11_21_S22 11/22/2017 01:35:00 0.0017
2017_11_21_S22 11/22/2017 01:40:00 0.0107
2017_11_21_S22 11/22/2017 01:45:00 0.0
2017_11_21_S22 11/22/2017 01:50:00 0.1535
2017_11_21_S22 11/22/2017 01:55:00 0.0
2017_11_21_S22 11/22/2017 02:00:00 0.0
2017_11_21_S22 11/22/2017 02:05:00 0.0
2017_11_21_S22 11/22/2017 02:10:00 0.0
2017_11_21_S22 11/22/2017 02:15:00 0.0
2017_11_21_S22 11/22/2017 02:20:00 0.0
2017_11_21_S22 11/22/2017 02:25:00 0.0
2017_11_21_S22 11/22/2017 02:30:00 0.0222
2017_11_21_S22 11/22/2017 02:35:00 0.0019
2017_11_21_S22 11/22/2017 02:40:00 0.0
2017_11_21_S22 11/22/2017 02:45:00 0.0
2017_11_21_S22 11/22/2017 02:50:00 0.0
2017_11_21_S22 11/22/2017 02:55:00 0.0
2017_11_21_S22 11/22/2017 03:00:00 0.0
2017_11_21_S22 11/22/2017 03:05:00 0.0
2017_11_21_S22 11/22/2017 03:10:00 0.0
2017_11_21_S22 11/22/2017 03:15:00 0.0
2017_11_21_S22 11/22/2017 03:20:00 0.0
2017_11_21_S22 11/22/2017 03:25:00 0.0
2017_11_21_S22 11/22/2017 03:30:00 0.0
2017_11_21_S22 11/22/2017 03:35:00 0.0
2017_11_21_S22 11/22/2017 03:40:00 0.0
2017_11_21_S22 11/22/2017 03:45:00 0.0
2017_11_21_S22 11/22/2017 03:50:00 0.0
2017_11_21_S22 11/22/2017 03:55:00 0.0
2017_11_21_S22 11/22/2017 04:00:00 0.0
2017_11_21_S22 11/22/2017 04:05:00 0.0
2017_11_21_S22 11/22/2017 04:10:00 0.0
2017_11_21_S22 11/22/2017 04:15:00 0.0
2017_11_21_S22 11/22/2017 04:20:00 0.0
2017_11_21_S22 11/22/2017 04:25:00 0.0
2017_11_21_S22 11/22/2017 04:30:00 0.0
2017_11_21_S22 11/22/2017 04:35:00 0.0
2017_11_21_S22 11/22/2017 04:40:00 0.0
2017_11_21_S22 11/22/2017 04:45:00 0.0
2017_11_21_S22 11/22/2017 04:50:00 0.0
2017_11_21_S22 11/22/2017 04:55:00 0.0
2017_11_21_S22 11/22/2017 05:00:00 0.0
2017_11_21_S22 11/22/2017 05:05:00 0.0
2017_11_21_S22 11/22/2017 05:10:00 0.0
2017_11_21_S22 11/22/2017 05:15:00 0.0
2017_11_21_S22 11/22/2017 05:20:00 0.0
2017_11_21_S22 11/22/2017 05:25:00 0.0
2017_11_21_S22 11/22/2017 05:30:00 0.0
2017_11_21_S22 11/22/2017 05:35:00 0.0
2017_11_21_S22 11/22/2017 05:40:00 0.0
2017_11_21_S22 11/22/2017 05:45:00 0.0
2017_11_21_S22 11/22/2017 05:50:00 0.0
2017_11_21_S22 11/22/2017 05:55:00 0.0
2017_11_21_S22 11/22/2017 06:00:00 0.0
2017_11_21_S22 11/22/2017 06:05:00 0.0
2017_11_21_S22 11/22/2017 06:10:00 0.0
2017_11_21_S22 11/22/2017 06:15:00 0.0
2017_11_21_S22 11/22/2017 06:20:00 0.0
2017_11_21_S22 11/22/2017 06:25:00 0.0
2017_11_21_S22 11/22/2017 06:30:00 0.0
2017_11_21_S22 11/22/2017 06:35:00 0.0
2017_11_21_S22 11/22/2017 06:40:00 0.0
2017_11_21_S22 11/22/2017 06:45:00 0.0
2017_11_21_S22 11/22/2017 06:50:00 0.0
2017_11_21_S22 11/22/2017 06:55:00 0.0
2017_11_21_S22 11/22/2017 07:00:00 0.0
2017_11_21_S22 11/22/2017 07:05:00 0.0
2017_11_21_S22 11/22/2017 07:10:00 0.0
2017_11_21_S22 11/22/2017 07:15:00 0.0
2017_11_21_S22 11/22/2017 07:20:00 0.0
2017_11_21_S22 11/22/2017 07:25:00 0.0
2017_11_21_S22 11/22/2017 07:30:00 0.0
2017_11_21_S22 11/22/2017 07:35:00 0.0
2017_11_21_S22 11/22/2017 07:40:00 0.0
2017_11_21_S22 11/22/2017 07:45:00 0.0
2017_11_21_S22 11/22/2017 07:50:00 0.0
2017_11_21_S22 11/22/2017 07:55:00 0.0
2017_11_21_S22 11/22/2017 08:00:00 0.0

2017_11_21_S23 11/20/2017 22:55:00 0.0047
2017_11_21_S23 11/20/2017 23:00:00 0.3044
2017_11_21_S23 11/20/2017 23:05:00 0.0871
2017_11_21_S23 11/20/2017 23:10:00 0.087
2017_11_21_S23 11/20/2017 23:15:00 0.0
2017_11_21_S23 11/20/2017 23:20:00 0.0
2017_11_21_S23 11/20/2017 23:25:00 0.0
2017_11_21_S23 11/20/2017 23:30:00 0.0
2017_11_21_S23 11/20/2017 23:35:00 0.0
2017_11_21_S23 11/20/2017 23:40:00 0.0
2017_11_21_S23 11/20/2017 23:45:00 0.0
2017_11_21_S23 11/20/2017 23:50:00 0.0
2017_11_21_S23 11/20/2017 23:55:00 0.0
2017_11_21_S23 11/21/2017 00:00:00 0.0
2017_11_21_S23 11/21/2017 00:05:00 0.0
2017_11_21_S23 11/21/2017 00:10:00 0.0
2017_11_21_S23 11/21/2017 00:15:00 0.0
2017_11_21_S23 11/21/2017 00:20:00 0.0
2017_11_21_S23 11/21/2017 00:25:00 0.0
2017_11_21_S23 11/21/2017 00:30:00 0.0
2017_11_21_S23 11/21/2017 00:35:00 0.0
2017_11_21_S23 11/21/2017 00:40:00 0.0
2017_11_21_S23 11/21/2017 00:45:00 0.0
2017_11_21_S23 11/21/2017 00:50:00 0.0
2017_11_21_S23 11/21/2017 00:55:00 0.0048
2017_11_21_S23 11/21/2017 01:00:00 0.0
2017_11_21_S23 11/21/2017 01:05:00 0.0
2017_11_21_S23 11/21/2017 01:10:00 0.0
2017_11_21_S23 11/21/2017 01:15:00 0.0003
2017_11_21_S23 11/21/2017 01:20:00 1.5692
2017_11_21_S23 11/21/2017 01:25:00 0.1014
2017_11_21_S23 11/21/2017 01:30:00 0.08
2017_11_21_S23 11/21/2017 01:35:00 0.0319
2017_11_21_S23 11/21/2017 01:40:00 0.002
2017_11_21_S23 11/21/2017 01:45:00 0.0
2017_11_21_S23 11/21/2017 01:50:00 0.0
2017_11_21_S23 11/21/2017 01:55:00 0.0
2017_11_21_S23 11/21/2017 02:00:00 0.0
2017_11_21_S23 11/21/2017 02:05:00 0.0
2017_11_21_S23 11/21/2017 02:10:00 0.0022
2017_11_21_S23 11/21/2017 02:15:00 0.2127
2017_11_21_S23 11/21/2017 02:20:00 0.0361
2017_11_21_S23 11/21/2017 02:25:00 0.0287
2017_11_21_S23 11/21/2017 02:30:00 0.0465
2017_11_21_S23 11/21/2017 02:35:00 0.0619
2017_11_21_S23 11/21/2017 02:40:00 0.0671
2017_11_21_S23 11/21/2017 02:45:00 0.0333
2017_11_21_S23 11/21/2017 02:50:00 0.0
2017_11_21_S23 11/21/2017 02:55:00 0.0
2017_11_21_S23 11/21/2017 03:00:00 0.0
2017_11_21_S23 11/21/2017 03:05:00 0.0126
2017_11_21_S23 11/21/2017 03:10:00 1.1495
2017_11_21_S23 11/21/2017 03:15:00 0.0
2017_11_21_S23 11/21/2017 03:20:00 0.0041
2017_11_21_S23 11/21/2017 03:25:00 0.2753
2017_11_21_S23 11/21/2017 03:30:00 0.1102
2017_11_21_S23 11/21/2017 03:35:00 0.1379
2017_11_21_S23 11/21/2017 03:40:00 0.01
2017_11_21_S23 11/21/2017 03:45:00 0.0192
2017_11_21_S23 11/21/2017 03:50:00 0.021
2017_11_21_S23 11/21/2017 03:55:00 0.0744
2017_11_21_S23 11/21/2017 04:00:00 0.0601
2017_11_21_S23 11/21/2017 04:05:00 0.018
2017_11_21_S23 11/21/2017 04:10:00 0.0157
2017_11_21_S23 11/21/2017 04:15:00 0.1113
2017_11_21_S23 11/21/2017 04:20:00 0.0226
2017_11_21_S23 11/21/2017 04:25:00 0.0
2017_11_21_S23 11/21/2017 04:30:00 0.6798
2017_11_21_S23 11/21/2017 04:35:00 2.2783
2017_11_21_S23 11/21/2017 04:40:00 0.0618
2017_11_21_S23 11/21/2017 04:45:00 0.0091
2017_11_21_S23 11/21/2017 04:50:00 0.0
2017_11_21_S23 11/21/2017 04:55:00 0.0
2017_11_21_S23 11/21/2017 05:00:00 0.0
2017_11_21_S23 11/21/2017 05:05:00 0.0
2017_11_21_S23 11/21/2017 05:10:00 0.0
2017_11_21_S23 11/21/2017 05:15:00 0.4955
2017_11_21_S23 11/21/2017 05:20:00 3.2183
2017_11_21_S23 11/21/2017 05:25:00 1.41
2017_11_21_S23 11/21/2017 05:30:00 3.634
2017_11_21_S23 11/21/2017 05:35:00 0.222
2017_11_21_S23 11/21/2017 05:40:00 0.018
2017_11_21_S23 11/21/2017 05:45:00 0.0
2017_11_21_S23 11/21/2017 05:50:00 0.0
2017_11_21_S23 11/21/2017 05:55:00 0.001
2017_11_21_S23 11/21/2017 06:00:00 0.0
2017_11_21_S23 11/21/2017 06:05:00 0.0
2017_11_21_S23 11/21/2017 06:10:00 0.0
2017_11_21_S23 11/21/2017 06:15:00 0.0
2017_11_21_S23 11/21/2017 06:20:00 0.0
2017_11_21_S23 11/21/2017 06:25:00 0.0
2017_11_21_S23 11/21/2017 06:30:00 0.0
2017_11_21_S23 11/21/2017 06:35:00 0.0
2017_11_21_S23 11/21/2017 06:40:00 0.0
2017_11_21_S23 11/21/2017 06:45:00 0.0
2017_11_21_S23 11/21/2017 06:50:00 0.0
2017_11_21_S23 11/21/2017 06:55:00 0.0
2017_11_21_S23 11/21/2017 07:00:00 0.0
2017_11_21_S23 11/21/2017 07:05:00 0.0
2017_11_21_S23 11/21/2017 07:10:00 0.0
2017_11_21_S23 11/21/2017 07:15:00 0.0
2017_11_21_S23 11/21/2017 07:20:00 0.0
2017_11_21_S23 11/21/2017 07:25:00 0.0007
2017_11_21_S23 11/21/2017 07:30:00 0.0183
2017_11_21_S23 11/21/2017 07:35:00 0.0014
2017_11_21_S23 11/21/2017 07:40:00 0.001
2017_11_21_S23 11/21/2017 07:45:00 0.0
2017_11_21_S23 11/21/2017 07:50:00 0.0
2017_11_21_S23 11/21/2017 07:55:00 0.0
2017_11_21_S23 11/21/2017 08:00:00 0.0
2017_11_21_S23 11/21/2017 08:05:00 0.0692
2017_11_21_S23 11/21/2017 08:10:00 0.083
2017_11_21_S23 11/21/2017 08:15:00 0.07
2017_11_21_S23 11/21/2017 08:20:00 0.0
2017_11_21_S23 11/21/2017 08:25:00 0.0222
2017_11_21_S23 11/21/2017 08:30:00 0.0925
2017_11_21_S23 11/21/2017 08:35:00 1.2977
2017_11_21_S23 11/21/2017 08:40:00 0.5338
2017_11_21_S23 11/21/2017 08:45:00 0.1741
2017_11_21_S23 11/21/2017 08:50:00 0.0708
2017_11_21_S23 11/21/2017 08:55:00 0.0
2017_11_21_S23 11/21/2017 09:00:00 0.0
2017_11_21_S23 11/21/2017 09:05:00 0.0
2017_11_21_S23 11/21/2017 09:10:00 0.0
2017_11_21_S23 11/21/2017 09:15:00 0.0
2017_11_21_S23 11/21/2017 09:20:00 0.0
2017_11_21_S23 11/21/2017 09:25:00 0.0
2017_11_21_S23 11/21/2017 09:30:00 0.0
2017_11_21_S23 11/21/2017 09:35:00 0.0
2017_11_21_S23 11/21/2017 09:40:00 0.0
2017_11_21_S23 11/21/2017 09:45:00 0.0003
2017_11_21_S23 11/21/2017 09:50:00 0.1196
2017_11_21_S23 11/21/2017 09:55:00 0.5438
2017_11_21_S23 11/21/2017 10:00:00 0.0418
2017_11_21_S23 11/21/2017 10:05:00 0.0111
2017_11_21_S23 11/21/2017 10:10:00 0.0075
2017_11_21_S23 11/21/2017 10:15:00 0.2072
2017_11_21_S23 11/21/2017 10:20:00 0.0
2017_11_21_S23 11/21/2017 10:25:00 0.0
2017_11_21_S23 11/21/2017 10:30:00 0.0
2017_11_21_S23 11/21/2017 10:35:00 0.0
2017_11_21_S23 11/21/2017 10:40:00 0.0
2017_11_21_S23 11/21/2017 10:45:00 0.0048
2017_11_21_S23 11/21/2017 10:50:00 0.0
2017_11_21_S23 11/21/2017 10:55:00 0.0
2017_11_21_S23 11/21/2017 11:00:00 0.0
2017_11_21_S23 11/21/2017 11:05:00 0.0
2017_11_21_S23 11/21/2017 11:10:00 0.0
2017_11_21_S23 11/21/2017 11:15:00 0.0
2017_11_21_S23 11/21/2017 11:20:00 0.0
2017_11_21_S23 11/21/2017 11:25:00 0.0
2017_11_21_S23 11/21/2017 11:30:00 0.0
2017_11_21_S23 11/21/2017 11:35:00 0.0
2017_11_21_S23 11/21/2017 11:40:00 0.0
2017_11_21_S23 11/21/2017 11:45:00 0.0
2017_11_21_S23 11/21/2017 11:50:00 0.0
2017_11_21_S23 11/21/2017 11:55:00 0.0
2017_11_21_S23 11/21/2017 12:00:00 0.0
2017_11_21_S23 11/21/2017 12:05:00 0.0
2017_11_21_S23 11/21/2017 12:10:00 0.0
2017_11_21_S23 11/21/2017 12:15:00 0.0
2017_11_21_S23 11/21/2017 12:20:00 0.0
2017_11_21_S23 11/21/2017 12:25:00 0.0
2017_11_21_S23 11/21/2017 12:30:00 0.0
2017_11_21_S23 11/21/2017 12:35:00 0.0
2017_11_21_S23 11/21/2017 12:40:00 0.0
2017_11_21_S23 11/21/2017 12:45:00 0.0
2017_11_21_S23 11/21/2017 12:50:00 0.0
2017_11_21_S23 11/21/2017 12:55:00 0.0
2017_11_21_S23 11/21/2017 13:00:00 0.0
2017_11_21_S23 11/21/2017 13:05:00 0.0
2017_11_21_S23 11/21/2017 13:10:00 0.0
2017_11_21_S23 11/21/2017 13:15:00 0.0
2017_11_21_S23 11/21/2017 13:20:00 0.0
2017_11_21_S23 11/21/2017 13:25:00 0.0
2017_11_21_S23 11/21/2017 13:30:00 0.0
2017_11_21_S23 11/21/2017 13:35:00 0.0
2017_11_21_S23 11/21/2017 13:40:00 0.0
2017_11_21_S23 11/21/2017 13:45:00 0.0
2017_11_21_S23 11/21/2017 13:50:00 0.0
2017_11_21_S23 11/21/2017 13:55:00 0.0
2017_11_21_S23 11/21/2017 14:00:00 0.0
2017_11_21_S23 11/21/2017 14:05:00 0.0
2017_11_21_S23 11/21/2017 14:10:00 0.0
2017_11_21_S23 11/21/2017 14:15:00 0.0
2017_11_21_S23 11/21/2017 14:20:00 0.0
2017_11_21_S23 11/21/2017 14:25:00 0.0
2017_11_21_S23 11/21/2017 14:30:00 0.0
2017_11_21_S23 11/21/2017 14:35:00 0.0
2017_11_21_S23 11/21/2017 14:40:00 0.0
2017_11_21_S23 11/21/2017 14:45:00 0.0
2017_11_21_S23 11/21/2017 14:50:00 0.0
2017_11_21_S23 11/21/2017 14:55:00 0.0
2017_11_21_S23 11/21/2017 15:00:00 0.0
2017_11_21_S23 11/21/2017 15:05:00 0.0
2017_11_21_S23 11/21/2017 15:10:00 0.0
2017_11_21_S23 11/21/2017 15:15:00 0.0
2017_11_21_S23 11/21/2017 15:20:00 0.0
2017_11_21_S23 11/21/2017 15:25:00 0.0
2017_11_21_S23 11/21/2017 15:30:00 0.0
2017_11_21_S23 11/21/2017 15:35:00 0.0
2017_11_21_S23 11/21/2017 15:40:00 0.0
2017_11_21_S23 11/21/2017 15:45:00 0.0
2017_11_21_S23 11/21/2017 15:50:00 0.0
2017_11_21_S23 11/21/2017 15:55:00 0.0
2017_11_21_S23 11/21/2017 16:00:00 0.0
2017_11_21_S23 11/21/2017 16:05:00 0.0
2017_11_21_S23 11/21/2017 16:10:00 0.0
2017_11_21_S23 11/21/2017 16:15:00 0.0
2017_11_21_S23 11/21/2017 16:20:00 0.0
2017_11_21_S23 11/21/2017 16:25:00 0.0
2017_11_21_S23 11/21/2017 16:30:00 0.0
2017_11_21_S23 11/21/2017 16:35:00 0.0
2017_11_21_S23 11/21/2017 16:40:00 0.0
2017_11_21_S23 11/21/2017 16:45:00 0.0005
2017_11_21_S23 11/21/2017 16:50:00 0.0
2017_11_21_S23 11/21/2017 16:55:00 0.0
2017_11_21_S23 11/21/2017 17:00:00 0.0
2017_11_21_S23 11/21/2017 17:05:00 0.0
2017_11_21_S23 11/21/2017 17:10:00 0.0
2017_11_21_S23 11/21/2017 17:15:00 0.0
2017_11_21_S23 11/21/2017 17:20:00 0.0
2017_11_21_S23 11/21/2017 17:25:00 0.0
2017_11_21_S23 11/21/2017 17:30:00 0.0
2017_11_21_S23 11/21/2017 17:35:00 0.0
2017_11_21_S23 11/21/2017 17:40:00 0.0
2017_11_21_S23 11/21/2017 17:45:00 0.0
2017_11_21_S23 11/21/2017 17:50:00 0.0
2017_11_21_S23 11/21/2017 17:55:00 0.0
2017_11_21_S23 11/21/2017 18:00:00 0.0
2017_11_21_S23 11/21/2017 18:05:00 0.0
2017_11_21_S23 11/21/2017 18:10:00 0.0
2017_11_21_S23 11/21/2017 18:15:00 0.0
2017_11_21_S23 11/21/2017 18:20:00 0.0
2017_11_21_S23 11/21/2017 18:25:00 0.0
2017_11_21_S23 11/21/2017 18:30:00 0.0
2017_11_21_S23 11/21/2017 18:35:00 0.0
2017_11_21_S23 11/21/2017 18:40:00 0.0
2017_11_21_S23 11/21/2017 18:45:00 0.0
2017_11_21_S23 11/21/2017 18:50:00 0.0
2017_11_21_S23 11/21/2017 18:55:00 0.0
2017_11_21_S23 11/21/2017 19:00:00 0.0
2017_11_21_S23 11/21/2017 19:05:00 0.0
2017_11_21_S23 11/21/2017 19:10:00 0.0
2017_11_21_S23 11/21/2017 19:15:00 0.0
2017_11_21_S23 11/21/2017 19:20:00 0.0
2017_11_21_S23 11/21/2017 19:25:00 0.0
2017_11_21_S23 11/21/2017 19:30:00 0.0
2017_11_21_S23 11/21/2017 19:35:00 0.0
2017_11_21_S23 11/21/2017 19:40:00 0.0
2017_11_21_S23 11/21/2017 19:45:00 0.0
2017_11_21_S23 11/21/2017 19:50:00 0.0
2017_11_21_S23 11/21/2017 19:55:00 0.0
2017_11_21_S23 11/21/2017 20:00:00 0.0
2017_11_21_S23 11/21/2017 20:05:00 0.0
2017_11_21_S23 11/21/2017 20:10:00 0.0
2017_11_21_S23 11/21/2017 20:15:00 0.0
2017_11_21_S23 11/21/2017 20:20:00 0.0
2017_11_21_S23 11/21/2017 20:25:00 0.0
2017_11_21_S23 11/21/2017 20:30:00 0.0
2017_11_21_S23 11/21/2017 20:35:00 0.0
2017_11_21_S23 11/21/2017 20:40:00 0.0
2017_11_21_S23 11/21/2017 20:45:00 0.0
2017_11_21_S23 11/21/2017 20:50:00 0.0
2017_11_21_S23 11/21/2017 20:55:00 0.0
2017_11_21_S23 11/21/2017 21:00:00 0.0
2017_11_21_S23 11/21/2017 21:05:00 0.0
2017_11_21_S23 11/21/2017 21:10:00 0.0
2017_11_21_S23 11/21/2017 21:15:00 0.0
2017_11_21_S23 11/21/2017 21:20:00 0.0
2017_11_21_S23 11/21/2017 21:25:00 0.0
2017_11_21_S23 11/21/2017 21:30:00 0.0
2017_11_21_S23 11/21/2017 21:35:00 0.0
2017_11_21_S23 11/21/2017 21:40:00 0.0
2017_11_21_S23 11/21/2017 21:45:00 0.0
2017_11_21_S23 11/21/2017 21:50:00 0.0007
2017_11_21_S23 11/21/2017 21:55:00 0.0
2017_11_21_S23 11/21/2017 22:00:00 0.0
2017_11_21_S23 11/21/2017 22:05:00 0.0
2017_11_21_S23 11/21/2017 22:10:00 0.0
2017_11_21_S23 11/21/2017 22:15:00 0.0
2017_11_21_S23 11/21/2017 22:20:00 0.0
2017_11_21_S23 11/21/2017 22:25:00 0.0
2017_11_21_S23 11/21/2017 22:30:00 0.0
2017_11_21_S23 11/21/2017 22:35:00 0.0
2017_11_21_S23 11/21/2017 22:40:00 0.0038
2017_11_21_S23 11/21/2017 22:45:00 0.0
2017_11_21_S23 11/21/2017 22:50:00 0.0
2017_11_21_S23 11/21/2017 22:55:00 0.0
2017_11_21_S23 11/21/2017 23:00:00 0.0
2017_11_21_S23 11/21/2017 23:05:00 0.0001
2017_11_21_S23 11/21/2017 23:10:00 0.0
2017_11_21_S23 11/21/2017 23:15:00 0.0037
2017_11_21_S23 11/21/2017 23:20:00 0.0
2017_11_21_S23 11/21/2017 23:25:00 0.0
2017_11_21_S23 11/21/2017 23:30:00 0.0
2017_11_21_S23 11/21/2017 23:35:00 0.0
2017_11_21_S23 11/21/2017 23:40:00 0.0
2017_11_21_S23 11/21/2017 23:45:00 0.0
2017_11_21_S23 11/21/2017 23:50:00 0.0
2017_11_21_S23 11/21/2017 23:55:00 0.0
2017_11_21_S23 11/22/2017 00:00:00 0.0
2017_11_21_S23 11/22/2017 00:05:00 0.0
2017_11_21_S23 11/22/2017 00:10:00 0.0
2017_11_21_S23 11/22/2017 00:15:00 0.0
2017_11_21_S23 11/22/2017 00:20:00 0.0
2017_11_21_S23 11/22/2017 00:25:00 0.0
2017_11_21_S23 11/22/2017 00:30:00 0.0
2017_11_21_S23 11/22/2017 00:35:00 0.0
2017_11_21_S23 11/22/2017 00:40:00 0.0
2017_11_21_S23 11/22/2017 00:45:00 0.0
2017_11_21_S23 11/22/2017 00:50:00 0.0
2017_11_21_S23 11/22/2017 00:55:00 0.0
2017_11_21_S23 11/22/2017 01:00:00 0.0
2017_11_21_S23 11/22/2017 01:05:00 0.0
2017_11_21_S23 11/22/2017 01:10:00 0.0
2017_11_21_S23 11/22/2017 01:15:00 0.0003
2017_11_21_S23 11/22/2017 01:20:00 0.0002
2017_11_21_S23 11/22/2017 01:25:00 0.0
2017_11_21_S23 11/22/2017 01:30:00 0.0
2017_11_21_S23 11/22/2017 01:35:00 0.0
2017_11_21_S23 11/22/2017 01:40:00 0.006
2017_11_21_S23 11/22/2017 01:45:00 0.0052
2017_11_21_S23 11/22/2017 01:50:00 0.0581
2017_11_21_S23 11/22/2017 01:55:00 0.0
2017_11_21_S23 11/22/2017 02:00:00 0.0002
2017_11_21_S23 11/22/2017 02:05:00 0.0
2017_11_21_S23 11/22/2017 02:10:00 0.0
2017_11_21_S23 11/22/2017 02:15:00 0.0
2017_11_21_S23 11/22/2017 02:20:00 0.0
2017_11_21_S23 11/22/2017 02:25:00 0.0
2017_11_21_S23 11/22/2017 02:30:00 0.0131
2017_11_21_S23 11/22/2017 02:35:00 0.0
2017_11_21_S23 11/22/2017 02:40:00 0.0
2017_11_21_S23 11/22/2017 02:45:00 0.0
2017_11_21_S23 11/22/2017 02:50:00 0.0
2017_11_21_S23 11/22/2017 02:55:00 0.0
2017_11_21_S23 11/22/2017 03:00:00 0.0
2017_11_21_S23 11/22/2017 03:05:00 0.0
2017_11_21_S23 11/22/2017 03:10:00 0.0
2017_11_21_S23 11/22/2017 03:15:00 0.0
2017_11_21_S23 11/22/2017 03:20:00 0.0
2017_11_21_S23 11/22/2017 03:25:00 0.0
2017_11_21_S23 11/22/2017 03:30:00 0.0
2017_11_21_S23 11/22/2017 03:35:00 0.0
2017_11_21_S23 11/22/2017 03:40:00 0.0
2017_11_21_S23 11/22/2017 03:45:00 0.0
2017_11_21_S23 11/22/2017 03:50:00 0.0
2017_11_21_S23 11/22/2017 03:55:00 0.0
2017_11_21_S23 11/22/2017 04:00:00 0.0
2017_11_21_S23 11/22/2017 04:05:00 0.0
2017_11_21_S23 11/22/2017 04:10:00 0.0
2017_11_21_S23 11/22/2017 04:15:00 0.0
2017_11_21_S23 11/22/2017 04:20:00 0.0
2017_11_21_S23 11/22/2017 04:25:00 0.0
2017_11_21_S23 11/22/2017 04:30:00 0.0
2017_11_21_S23 11/22/2017 04:35:00 0.0
2017_11_21_S23 11/22/2017 04:40:00 0.0
2017_11_21_S23 11/22/2017 04:45:00 0.0
2017_11_21_S23 11/22/2017 04:50:00 0.0
2017_11_21_S23 11/22/2017 04:55:00 0.0
2017_11_21_S23 11/22/2017 05:00:00 0.0
2017_11_21_S23 11/22/2017 05:05:00 0.0
2017_11_21_S23 11/22/2017 05:10:00 0.0
2017_11_21_S23 11/22/2017 05:15:00 0.0
2017_11_21_S23 11/22/2017 05:20:00 0.0
2017_11_21_S23 11/22/2017 05:25:00 0.0
2017_11_21_S23 11/22/2017 05:30:00 0.0
2017_11_21_S23 11/22/2017 05:35:00 0.0
2017_11_21_S23 11/22/2017 05:40:00 0.0
2017_11_21_S23 11/22/2017 05:45:00 0.0
2017_11_21_S23 11/22/2017 05:50:00 0.0
2017_11_21_S23 11/22/2017 05:55:00 0.0
2017_11_21_S23 11/22/2017 06:00:00 0.0
2017_11_21_S23 11/22/2017 06:05:00 0.0
2017_11_21_S23 11/22/2017 06:10:00 0.0
2017_11_21_S23 11/22/2017 06:15:00 0.0
2017_11_21_S23 11/22/2017 06:20:00 0.0
2017_11_21_S23 11/22/2017 06:25:00 0.0
2017_11_21_S23 11/22/2017 06:30:00 0.0
2017_11_21_S23 11/22/2017 06:35:00 0.0
2017_11_21_S23 11/22/2017 06:40:00 0.0
2017_11_21_S23 11/22/2017 06:45:00 0.0
2017_11_21_S23 11/22/2017 06:50:00 0.0
2017_11_21_S23 11/22/2017 06:55:00 0.0
2017_11_21_S23 11/22/2017 07:00:00 0.0
2017_11_21_S23 11/22/2017 07:05:00 0.0
2017_11_21_S23 11/22/2017 07:10:00 0.0
2017_11_21_S23 11/22/2017 07:15:00 0.0
2017_11_21_S23 11/22/2017 07:20:00 0.0
2017_11_21_S23 11/22/2017 07:25:00 0.0
2017_11_21_S23 11/22/2017 07:30:00 0.0
2017_11_21_S23 11/22/2017 07:35:00 0.0
2017_11_21_S23 11/22/2017 07:40:00 0.0
2017_11_21_S23 11/22/2017 07:45:00 0.0
2017_11_21_S23 11/22/2017 07:50:00 0.0
2017_11_21_S23 11/22/2017 07:55:00 0.0
2017_11_21_S23 11/22/2017 08:00:00 0.0

2017_11_21_S24 11/20/2017 22:55:00 0.0247
2017_11_21_S24 11/20/2017 23:00:00 0.4367
2017_11_21_S24 11/20/2017 23:05:00 0.0953
2017_11_21_S24 11/20/2017 23:10:00 0.02
2017_11_21_S24 11/20/2017 23:15:00 0.0
2017_11_21_S24 11/20/2017 23:20:00 0.0
2017_11_21_S24 11/20/2017 23:25:00 0.0
2017_11_21_S24 11/20/2017 23:30:00 0.0
2017_11_21_S24 11/20/2017 23:35:00 0.0
2017_11_21_S24 11/20/2017 23:40:00 0.0
2017_11_21_S24 11/20/2017 23:45:00 0.0
2017_11_21_S24 11/20/2017 23:50:00 0.0
2017_11_21_S24 11/20/2017 23:55:00 0.0
2017_11_21_S24 11/21/2017 00:00:00 0.0
2017_11_21_S24 11/21/2017 00:05:00 0.0
2017_11_21_S24 11/21/2017 00:10:00 0.0
2017_11_21_S24 11/21/2017 00:15:00 0.0
2017_11_21_S24 11/21/2017 00:20:00 0.0
2017_11_21_S24 11/21/2017 00:25:00 0.0
2017_11_21_S24 11/21/2017 00:30:00 0.0
2017_11_21_S24 11/21/2017 00:35:00 0.0
2017_11_21_S24 11/21/2017 00:40:00 0.0
2017_11_21_S24 11/21/2017 00:45:00 0.0
2017_11_21_S24 11/21/2017 00:50:00 0.0
2017_11_21_S24 11/21/2017 00:55:00 0.0
2017_11_21_S24 11/21/2017 01:00:00 0.0
2017_11_21_S24 11/21/2017 01:05:00 0.0
2017_11_21_S24 11/21/2017 01:10:00 0.0
2017_11_21_S24 11/21/2017 01:15:00 0.0079
2017_11_21_S24 11/21/2017 01:20:00 0.6524
2017_11_21_S24 11/21/2017 01:25:00 0.0424
2017_11_21_S24 11/21/2017 01:30:00 0.0722
2017_11_21_S24 11/21/2017 01:35:00 0.0224
2017_11_21_S24 11/21/2017 01:40:00 0.0
2017_11_21_S24 11/21/2017 01:45:00 0.0
2017_11_21_S24 11/21/2017 01:50:00 0.0
2017_11_21_S24 11/21/2017 01:55:00 0.0
2017_11_21_S24 11/21/2017 02:00:00 0.0
2017_11_21_S24 11/21/2017 02:05:00 0.0054
2017_11_21_S24 11/21/2017 02:10:00 0.015
2017_11_21_S24 11/21/2017 02:15:00 0.2987
2017_11_21_S24 11/21/2017 02:20:00 0.0122
2017_11_21_S24 11/21/2017 02:25:00 0.0314
2017_11_21_S24 11/21/2017 02:30:00 0.003
2017_11_21_S24 11/21/2017 02:35:00 0.1197
2017_11_21_S24 11/21/2017 02:40:00 0.0661
2017_11_21_S24 11/21/2017 02:45:00 0.023
2017_11_21_S24 11/21/2017 02:50:00 0.0
2017_11_21_S24 11/21/2017 02:55:00 0.0
2017_11_21_S24 11/21/2017 03:00:00 0.0
2017_11_21_S24 11/21/2017 03:05:00 0.1012
2017_11_21_S24 11/21/2017 03:10:00 1.3032
2017_11_21_S24 11/21/2017 03:15:00 0.0
2017_11_21_S24 11/21/2017 03:20:00 0.0172
2017_11_21_S24 11/21/2017 03:25:00 0.623
2017_11_21_S24 11/21/2017 03:30:00 0.1509
2017_11_21_S24 11/21/2017 03:35:00 0.3052
2017_11_21_S24 11/21/2017 03:40:00 0.0155
2017_11_21_S24 11/21/2017 03:45:00 0.0254
2017_11_21_S24 11/21/2017 03:50:00 0.0
2017_11_21_S24 11/21/2017 03:55:00 0.0842
2017_11_21_S24 11/21/2017 04:00:00 0.0835
2017_11_21_S24 11/21/2017 04:05:00 0.0151
2017_11_21_S24 11/21/2017 04:10:00 0.0149
2017_11_21_S24 11/21/2017 04:15:00 0.0651
2017_11_21_S24 11/21/2017 04:20:00 0.0192
2017_11_21_S24 11/21/2017 04:25:00 0.002
2017_11_21_S24 11/21/2017 04:30:00 1.0195
2017_11_21_S24 11/21/2017 04:35:00 1.1059
2017_11_21_S24 11/21/2017 04:40:00 0.039
2017_11_21_S24 11/21/2017 04:45:00 0.0067
2017_11_21_S24 11/21/2017 04:50:00 0.0
2017_11_21_S24 11/21/2017 04:55:00 0.0
2017_11_21_S24 11/21/2017 05:00:00 0.0
2017_11_21_S24 11/21/2017 05:05:00 0.0
2017_11_21_S24 11/21/2017 05:10:00 0.0
2017_11_21_S24 11/21/2017 05:15:00 1.2654
2017_11_21_S24 11/21/2017 05:20:00 3.7515
2017_11_21_S24 11/21/2017 05:25:00 2.2614
2017_11_21_S24 11/21/2017 05:30:00 2.2366
2017_11_21_S24 11/21/2017 05:35:00 0.1598
2017_11_21_S24 11/21/2017 05:40:00 0.0109
2017_11_21_S24 11/21/2017 05:45:00 0.0
2017_11_21_S24 11/21/2017 05:50:00 0.0
2017_11_21_S24 11/21/2017 05:55:00 0.0029
2017_11_21_S24 11/21/2017 06:00:00 0.0
2017_11_21_S24 11/21/2017 06:05:00 0.0
2017_11_21_S24 11/21/2017 06:10:00 0.0
2017_11_21_S24 11/21/2017 06:15:00 0.0
2017_11_21_S24 11/21/2017 06:20:00 0.0
2017_11_21_S24 11/21/2017 06:25:00 0.0
2017_11_21_S24 11/21/2017 06:30:00 0.0
2017_11_21_S24 11/21/2017 06:35:00 0.0
2017_11_21_S24 11/21/2017 06:40:00 0.0
2017_11_21_S24 11/21/2017 06:45:00 0.0
2017_11_21_S24 11/21/2017 06:50:00 0.0
2017_11_21_S24 11/21/2017 06:55:00 0.0
2017_11_21_S24 11/21/2017 07:00:00 0.0
2017_11_21_S24 11/21/2017 07:05:00 0.0
2017_11_21_S24 11/21/2017 07:10:00 0.0
2017_11_21_S24 11/21/2017 07:15:00 0.0
2017_11_21_S24 11/21/2017 07:20:00 0.0
2017_11_21_S24 11/21/2017 07:25:00 0.0
2017_11_21_S24 11/21/2017 07:30:00 0.0
2017_11_21_S24 11/21/2017 07:35:00 0.0
2017_11_21_S24 11/21/2017 07:40:00 0.0
2017_11_21_S24 11/21/2017 07:45:00 0.0
2017_11_21_S24 11/21/2017 07:50:00 0.0
2017_11_21_S24 11/21/2017 07:55:00 0.0
2017_11_21_S24 11/21/2017 08:00:00 0.0
2017_11_21_S24 11/21/2017 08:05:00 0.071
2017_11_21_S24 11/21/2017 08:10:00 0.0263
2017_11_21_S24 11/21/2017 08:15:00 0.0183
2017_11_21_S24 11/21/2017 08:20:00 0.0
2017_11_21_S24 11/21/2017 08:25:00 0.0125
2017_11_21_S24 11/21/2017 08:30:00 0.2858
2017_11_21_S24 11/21/2017 08:35:00 1.0617
2017_11_21_S24 11/21/2017 08:40:00 0.2416
2017_11_21_S24 11/21/2017 08:45:00 0.1813
2017_11_21_S24 11/21/2017 08:50:00 0.017
2017_11_21_S24 11/21/2017 08:55:00 0.0
2017_11_21_S24 11/21/2017 09:00:00 0.0
2017_11_21_S24 11/21/2017 09:05:00 0.0
2017_11_21_S24 11/21/2017 09:10:00 0.0
2017_11_21_S24 11/21/2017 09:15:00 0.0
2017_11_21_S24 11/21/2017 09:20:00 0.0
2017_11_21_S24 11/21/2017 09:25:00 0.0
2017_11_21_S24 11/21/2017 09:30:00 0.0
2017_11_21_S24 11/21/2017 09:35:00 0.0
2017_11_21_S24 11/21/2017 09:40:00 0.0
2017_11_21_S24 11/21/2017 09:45:00 0.0041
2017_11_21_S24 11/21/2017 09:50:00 0.081
2017_11_21_S24 11/21/2017 09:55:00 1.2629
2017_11_21_S24 11/21/2017 10:00:00 0.0303
2017_11_21_S24 11/21/2017 10:05:00 0.007
2017_11_21_S24 11/21/2017 10:10:00 0.0144
2017_11_21_S24 11/21/2017 10:15:00 0.0382
2017_11_21_S24 11/21/2017 10:20:00 0.0
2017_11_21_S24 11/21/2017 10:25:00 0.0
2017_11_21_S24 11/21/2017 10:30:00 0.0
2017_11_21_S24 11/21/2017 10:35:00 0.0
2017_11_21_S24 11/21/2017 10:40:00 0.0
2017_11_21_S24 11/21/2017 10:45:00 0.0038
2017_11_21_S24 11/21/2017 10:50:00 0.0
2017_11_21_S24 11/21/2017 10:55:00 0.0
2017_11_21_S24 11/21/2017 11:00:00 0.0
2017_11_21_S24 11/21/2017 11:05:00 0.0
2017_11_21_S24 11/21/2017 11:10:00 0.0
2017_11_21_S24 11/21/2017 11:15:00 0.0
2017_11_21_S24 11/21/2017 11:20:00 0.0
2017_11_21_S24 11/21/2017 11:25:00 0.0
2017_11_21_S24 11/21/2017 11:30:00 0.0
2017_11_21_S24 11/21/2017 11:35:00 0.0
2017_11_21_S24 11/21/2017 11:40:00 0.0
2017_11_21_S24 11/21/2017 11:45:00 0.0
2017_11_21_S24 11/21/2017 11:50:00 0.0
2017_11_21_S24 11/21/2017 11:55:00 0.0
2017_11_21_S24 11/21/2017 12:00:00 0.0
2017_11_21_S24 11/21/2017 12:05:00 0.0
2017_11_21_S24 11/21/2017 12:10:00 0.0
2017_11_21_S24 11/21/2017 12:15:00 0.0
2017_11_21_S24 11/21/2017 12:20:00 0.0
2017_11_21_S24 11/21/2017 12:25:00 0.0
2017_11_21_S24 11/21/2017 12:30:00 0.0
2017_11_21_S24 11/21/2017 12:35:00 0.0
2017_11_21_S24 11/21/2017 12:40:00 0.0
2017_11_21_S24 11/21/2017 12:45:00 0.0
2017_11_21_S24 11/21/2017 12:50:00 0.0
2017_11_21_S24 11/21/2017 12:55:00 0.0
2017_11_21_S24 11/21/2017 13:00:00 0.0
2017_11_21_S24 11/21/2017 13:05:00 0.0
2017_11_21_S24 11/21/2017 13:10:00 0.0
2017_11_21_S24 11/21/2017 13:15:00 0.0
2017_11_21_S24 11/21/2017 13:20:00 0.0
2017_11_21_S24 11/21/2017 13:25:00 0.0
2017_11_21_S24 11/21/2017 13:30:00 0.0
2017_11_21_S24 11/21/2017 13:35:00 0.0
2017_11_21_S24 11/21/2017 13:40:00 0.0
2017_11_21_S24 11/21/2017 13:45:00 0.0
2017_11_21_S24 11/21/2017 13:50:00 0.0
2017_11_21_S24 11/21/2017 13:55:00 0.0
2017_11_21_S24 11/21/2017 14:00:00 0.0
2017_11_21_S24 11/21/2017 14:05:00 0.0
2017_11_21_S24 11/21/2017 14:10:00 0.0
2017_11_21_S24 11/21/2017 14:15:00 0.0
2017_11_21_S24 11/21/2017 14:20:00 0.0
2017_11_21_S24 11/21/2017 14:25:00 0.0
2017_11_21_S24 11/21/2017 14:30:00 0.0
2017_11_21_S24 11/21/2017 14:35:00 0.0
2017_11_21_S24 11/21/2017 14:40:00 0.0
2017_11_21_S24 11/21/2017 14:45:00 0.0
2017_11_21_S24 11/21/2017 14:50:00 0.0
2017_11_21_S24 11/21/2017 14:55:00 0.0
2017_11_21_S24 11/21/2017 15:00:00 0.0
2017_11_21_S24 11/21/2017 15:05:00 0.0
2017_11_21_S24 11/21/2017 15:10:00 0.0
2017_11_21_S24 11/21/2017 15:15:00 0.0
2017_11_21_S24 11/21/2017 15:20:00 0.0
2017_11_21_S24 11/21/2017 15:25:00 0.0
2017_11_21_S24 11/21/2017 15:30:00 0.0
2017_11_21_S24 11/21/2017 15:35:00 0.0
2017_11_21_S24 11/21/2017 15:40:00 0.0
2017_11_21_S24 11/21/2017 15:45:00 0.0
2017_11_21_S24 11/21/2017 15:50:00 0.0
2017_11_21_S24 11/21/2017 15:55:00 0.0
2017_11_21_S24 11/21/2017 16:00:00 0.0
2017_11_21_S24 11/21/2017 16:05:00 0.0
2017_11_21_S24 11/21/2017 16:10:00 0.0
2017_11_21_S24 11/21/2017 16:15:00 0.0
2017_11_21_S24 11/21/2017 16:20:00 0.0
2017_11_21_S24 11/21/2017 16:25:00 0.0
2017_11_21_S24 11/21/2017 16:30:00 0.0
2017_11_21_S24 11/21/2017 16:35:00 0.0
2017_11_21_S24 11/21/2017 16:40:00 0.0
2017_11_21_S24 11/21/2017 16:45:00 0.004
2017_11_21_S24 11/21/2017 16:50:00 0.0
2017_11_21_S24 11/21/2017 16:55:00 0.0
2017_11_21_S24 11/21/2017 17:00:00 0.0
2017_11_21_S24 11/21/2017 17:05:00 0.0
2017_11_21_S24 11/21/2017 17:10:00 0.0
2017_11_21_S24 11/21/2017 17:15:00 0.0
2017_11_21_S24 11/21/2017 17:20:00 0.0
2017_11_21_S24 11/21/2017 17:25:00 0.0
2017_11_21_S24 11/21/2017 17:30:00 0.0
2017_11_21_S24 11/21/2017 17:35:00 0.0
2017_11_21_S24 11/21/2017 17:40:00 0.0
2017_11_21_S24 11/21/2017 17:45:00 0.0
2017_11_21_S24 11/21/2017 17:50:00 0.0
2017_11_21_S24 11/21/2017 17:55:00 0.0
2017_11_21_S24 11/21/2017 18:00:00 0.0
2017_11_21_S24 11/21/2017 18:05:00 0.0
2017_11_21_S24 11/21/2017 18:10:00 0.0
2017_11_21_S24 11/21/2017 18:15:00 0.0
2017_11_21_S24 11/21/2017 18:20:00 0.0
2017_11_21_S24 11/21/2017 18:25:00 0.0
2017_11_21_S24 11/21/2017 18:30:00 0.0
2017_11_21_S24 11/21/2017 18:35:00 0.0
2017_11_21_S24 11/21/2017 18:40:00 0.0
2017_11_21_S24 11/21/2017 18:45:00 0.0
2017_11_21_S24 11/21/2017 18:50:00 0.0
2017_11_21_S24 11/21/2017 18:55:00 0.0
2017_11_21_S24 11/21/2017 19:00:00 0.0
2017_11_21_S24 11/21/2017 19:05:00 0.0
2017_11_21_S24 11/21/2017 19:10:00 0.0
2017_11_21_S24 11/21/2017 19:15:00 0.0
2017_11_21_S24 11/21/2017 19:20:00 0.0
2017_11_21_S24 11/21/2017 19:25:00 0.0
2017_11_21_S24 11/21/2017 19:30:00 0.0
2017_11_21_S24 11/21/2017 19:35:00 0.0
2017_11_21_S24 11/21/2017 19:40:00 0.0
2017_11_21_S24 11/21/2017 19:45:00 0.0
2017_11_21_S24 11/21/2017 19:50:00 0.0
2017_11_21_S24 11/21/2017 19:55:00 0.0
2017_11_21_S24 11/21/2017 20:00:00 0.0
2017_11_21_S24 11/21/2017 20:05:00 0.0
2017_11_21_S24 11/21/2017 20:10:00 0.0
2017_11_21_S24 11/21/2017 20:15:00 0.0
2017_11_21_S24 11/21/2017 20:20:00 0.0
2017_11_21_S24 11/21/2017 20:25:00 0.0
2017_11_21_S24 11/21/2017 20:30:00 0.0
2017_11_21_S24 11/21/2017 20:35:00 0.0
2017_11_21_S24 11/21/2017 20:40:00 0.0
2017_11_21_S24 11/21/2017 20:45:00 0.0
2017_11_21_S24 11/21/2017 20:50:00 0.0
2017_11_21_S24 11/21/2017 20:55:00 0.0
2017_11_21_S24 11/21/2017 21:00:00 0.0
2017_11_21_S24 11/21/2017 21:05:00 0.0
2017_11_21_S24 11/21/2017 21:10:00 0.0
2017_11_21_S24 11/21/2017 21:15:00 0.0
2017_11_21_S24 11/21/2017 21:20:00 0.0
2017_11_21_S24 11/21/2017 21:25:00 0.0
2017_11_21_S24 11/21/2017 21:30:00 0.0
2017_11_21_S24 11/21/2017 21:35:00 0.0
2017_11_21_S24 11/21/2017 21:40:00 0.0
2017_11_21_S24 11/21/2017 21:45:00 0.0
2017_11_21_S24 11/21/2017 21:50:00 0.0
2017_11_21_S24 11/21/2017 21:55:00 0.0
2017_11_21_S24 11/21/2017 22:00:00 0.0
2017_11_21_S24 11/21/2017 22:05:00 0.0
2017_11_21_S24 11/21/2017 22:10:00 0.0
2017_11_21_S24 11/21/2017 22:15:00 0.0
2017_11_21_S24 11/21/2017 22:20:00 0.0
2017_11_21_S24 11/21/2017 22:25:00 0.0
2017_11_21_S24 11/21/2017 22:30:00 0.0
2017_11_21_S24 11/21/2017 22:35:00 0.0
2017_11_21_S24 11/21/2017 22:40:00 0.0032
2017_11_21_S24 11/21/2017 22:45:00 0.0
2017_11_21_S24 11/21/2017 22:50:00 0.0
2017_11_21_S24 11/21/2017 22:55:00 0.0
2017_11_21_S24 11/21/2017 23:00:00 0.0
2017_11_21_S24 11/21/2017 23:05:00 0.0
2017_11_21_S24 11/21/2017 23:10:00 0.0
2017_11_21_S24 11/21/2017 23:15:00 0.0057
2017_11_21_S24 11/21/2017 23:20:00 0.0
2017_11_21_S24 11/21/2017 23:25:00 0.0
2017_11_21_S24 11/21/2017 23:30:00 0.0
2017_11_21_S24 11/21/2017 23:35:00 0.0
2017_11_21_S24 11/21/2017 23:40:00 0.0
2017_11_21_S24 11/21/2017 23:45:00 0.0
2017_11_21_S24 11/21/2017 23:50:00 0.0
2017_11_21_S24 11/21/2017 23:55:00 0.0
2017_11_21_S24 11/22/2017 00:00:00 0.0
2017_11_21_S24 11/22/2017 00:05:00 0.0
2017_11_21_S24 11/22/2017 00:10:00 0.0
2017_11_21_S24 11/22/2017 00:15:00 0.0
2017_11_21_S24 11/22/2017 00:20:00 0.0
2017_11_21_S24 11/22/2017 00:25:00 0.0
2017_11_21_S24 11/22/2017 00:30:00 0.0
2017_11_21_S24 11/22/2017 00:35:00 0.0
2017_11_21_S24 11/22/2017 00:40:00 0.0
2017_11_21_S24 11/22/2017 00:45:00 0.0
2017_11_21_S24 11/22/2017 00:50:00 0.0
2017_11_21_S24 11/22/2017 00:55:00 0.0
2017_11_21_S24 11/22/2017 01:00:00 0.0
2017_11_21_S24 11/22/2017 01:05:00 0.0
2017_11_21_S24 11/22/2017 01:10:00 0.0
2017_11_21_S24 11/22/2017 01:15:00 0.0025
2017_11_21_S24 11/22/2017 01:20:00 0.0023
2017_11_21_S24 11/22/2017 01:25:00 0.0
2017_11_21_S24 11/22/2017 01:30:00 0.0
2017_11_21_S24 11/22/2017 01:35:00 0.0011
2017_11_21_S24 11/22/2017 01:40:00 0.0
2017_11_21_S24 11/22/2017 01:45:00 0.0157
2017_11_21_S24 11/22/2017 01:50:00 0.0
2017_11_21_S24 11/22/2017 01:55:00 0.0
2017_11_21_S24 11/22/2017 02:00:00 0.0035
2017_11_21_S24 11/22/2017 02:05:00 0.0
2017_11_21_S24 11/22/2017 02:10:00 0.0
2017_11_21_S24 11/22/2017 02:15:00 0.0
2017_11_21_S24 11/22/2017 02:20:00 0.0
2017_11_21_S24 11/22/2017 02:25:00 0.0
2017_11_21_S24 11/22/2017 02:30:00 0.0
2017_11_21_S24 11/22/2017 02:35:00 0.0
2017_11_21_S24 11/22/2017 02:40:00 0.0
2017_11_21_S24 11/22/2017 02:45:00 0.0
2017_11_21_S24 11/22/2017 02:50:00 0.0
2017_11_21_S24 11/22/2017 02:55:00 0.0
2017_11_21_S24 11/22/2017 03:00:00 0.0
2017_11_21_S24 11/22/2017 03:05:00 0.0
2017_11_21_S24 11/22/2017 03:10:00 0.0
2017_11_21_S24 11/22/2017 03:15:00 0.0
2017_11_21_S24 11/22/2017 03:20:00 0.0
2017_11_21_S24 11/22/2017 03:25:00 0.0
2017_11_21_S24 11/22/2017 03:30:00 0.0
2017_11_21_S24 11/22/2017 03:35:00 0.0
2017_11_21_S24 11/22/2017 03:40:00 0.0
2017_11_21_S24 11/22/2017 03:45:00 0.0
2017_11_21_S24 11/22/2017 03:50:00 0.0
2017_11_21_S24 11/22/2017 03:55:00 0.0
2017_11_21_S24 11/22/2017 04:00:00 0.0
2017_11_21_S24 11/22/2017 04:05:00 0.0
2017_11_21_S24 11/22/2017 04:10:00 0.0
2017_11_21_S24 11/22/2017 04:15:00 0.0
2017_11_21_S24 11/22/2017 04:20:00 0.0
2017_11_21_S24 11/22/2017 04:25:00 0.0
2017_11_21_S24 11/22/2017 04:30:00 0.0
2017_11_21_S24 11/22/2017 04:35:00 0.0
2017_11_21_S24 11/22/2017 04:40:00 0.0
2017_11_21_S24 11/22/2017 04:45:00 0.0
2017_11_21_S24 11/22/2017 04:50:00 0.0
2017_11_21_S24 11/22/2017 04:55:00 0.0
2017_11_21_S24 11/22/2017 05:00:00 0.0
2017_11_21_S24 11/22/2017 05:05:00 0.0
2017_11_21_S24 11/22/2017 05:10:00 0.0
2017_11_21_S24 11/22/2017 05:15:00 0.0
2017_11_21_S24 11/22/2017 05:20:00 0.0
2017_11_21_S24 11/22/2017 05:25:00 0.0
2017_11_21_S24 11/22/2017 05:30:00 0.0
2017_11_21_S24 11/22/2017 05:35:00 0.0
2017_11_21_S24 11/22/2017 05:40:00 0.0
2017_11_21_S24 11/22/2017 05:45:00 0.0
2017_11_21_S24 11/22/2017 05:50:00 0.0
2017_11_21_S24 11/22/2017 05:55:00 0.0
2017_11_21_S24 11/22/2017 06:00:00 0.0
2017_11_21_S24 11/22/2017 06:05:00 0.0
2017_11_21_S24 11/22/2017 06:10:00 0.0
2017_11_21_S24 11/22/2017 06:15:00 0.0
2017_11_21_S24 11/22/2017 06:20:00 0.0
2017_11_21_S24 11/22/2017 06:25:00 0.0
2017_11_21_S24 11/22/2017 06:30:00 0.0
2017_11_21_S24 11/22/2017 06:35:00 0.0
2017_11_21_S24 11/22/2017 06:40:00 0.0
2017_11_21_S24 11/22/2017 06:45:00 0.0
2017_11_21_S24 11/22/2017 06:50:00 0.0
2017_11_21_S24 11/22/2017 06:55:00 0.0
2017_11_21_S24 11/22/2017 07:00:00 0.0
2017_11_21_S24 11/22/2017 07:05:00 0.0
2017_11_21_S24 11/22/2017 07:10:00 0.0
2017_11_21_S24 11/22/2017 07:15:00 0.0
2017_11_21_S24 11/22/2017 07:20:00 0.0
2017_11_21_S24 11/22/2017 07:25:00 0.0
2017_11_21_S24 11/22/2017 07:30:00 0.0
2017_11_21_S24 11/22/2017 07:35:00 0.0
2017_11_21_S24 11/22/2017 07:40:00 0.0
2017_11_21_S24 11/22/2017 07:45:00 0.0
2017_11_21_S24 11/22/2017 07:50:00 0.0
2017_11_21_S24 11/22/2017 07:55:00 0.0
2017_11_21_S24 11/22/2017 08:00:00 0.0

2017_11_21_S25 11/20/2017 22:55:00 0.0119
2017_11_21_S25 11/20/2017 23:00:00 0.2888
2017_11_21_S25 11/20/2017 23:05:00 0.0844
2017_11_21_S25 11/20/2017 23:10:00 0.0055
2017_11_21_S25 11/20/2017 23:15:00 0.0
2017_11_21_S25 11/20/2017 23:20:00 0.0
2017_11_21_S25 11/20/2017 23:25:00 0.0
2017_11_21_S25 11/20/2017 23:30:00 0.0
2017_11_21_S25 11/20/2017 23:35:00 0.0
2017_11_21_S25 11/20/2017 23:40:00 0.0
2017_11_21_S25 11/20/2017 23:45:00 0.0
2017_11_21_S25 11/20/2017 23:50:00 0.0
2017_11_21_S25 11/20/2017 23:55:00 0.0
2017_11_21_S25 11/21/2017 00:00:00 0.0
2017_11_21_S25 11/21/2017 00:05:00 0.0
2017_11_21_S25 11/21/2017 00:10:00 0.0
2017_11_21_S25 11/21/2017 00:15:00 0.0
2017_11_21_S25 11/21/2017 00:20:00 0.0
2017_11_21_S25 11/21/2017 00:25:00 0.0
2017_11_21_S25 11/21/2017 00:30:00 0.0
2017_11_21_S25 11/21/2017 00:35:00 0.0
2017_11_21_S25 11/21/2017 00:40:00 0.0
2017_11_21_S25 11/21/2017 00:45:00 0.0
2017_11_21_S25 11/21/2017 00:50:00 0.0
2017_11_21_S25 11/21/2017 00:55:00 0.0
2017_11_21_S25 11/21/2017 01:00:00 0.0
2017_11_21_S25 11/21/2017 01:05:00 0.0
2017_11_21_S25 11/21/2017 01:10:00 0.0
2017_11_21_S25 11/21/2017 01:15:00 0.0111
2017_11_21_S25 11/21/2017 01:20:00 0.5977
2017_11_21_S25 11/21/2017 01:25:00 0.0342
2017_11_21_S25 11/21/2017 01:30:00 0.0746
2017_11_21_S25 11/21/2017 01:35:00 0.0235
2017_11_21_S25 11/21/2017 01:40:00 0.0
2017_11_21_S25 11/21/2017 01:45:00 0.0
2017_11_21_S25 11/21/2017 01:50:00 0.0
2017_11_21_S25 11/21/2017 01:55:00 0.0
2017_11_21_S25 11/21/2017 02:00:00 0.0
2017_11_21_S25 11/21/2017 02:05:00 0.0011
2017_11_21_S25 11/21/2017 02:10:00 0.0434
2017_11_21_S25 11/21/2017 02:15:00 0.2748
2017_11_21_S25 11/21/2017 02:20:00 0.0145
2017_11_21_S25 11/21/2017 02:25:00 0.0678
2017_11_21_S25 11/21/2017 02:30:00 0.0
2017_11_21_S25 11/21/2017 02:35:00 0.1057
2017_11_21_S25 11/21/2017 02:40:00 0.0604
2017_11_21_S25 11/21/2017 02:45:00 0.0069
2017_11_21_S25 11/21/2017 02:50:00 0.0
2017_11_21_S25 11/21/2017 02:55:00 0.0
2017_11_21_S25 11/21/2017 03:00:00 0.0
2017_11_21_S25 11/21/2017 03:05:00 0.0447
2017_11_21_S25 11/21/2017 03:10:00 0.7108
2017_11_21_S25 11/21/2017 03:15:00 0.0
2017_11_21_S25 11/21/2017 03:20:00 0.0009
2017_11_21_S25 11/21/2017 03:25:00 0.4168
2017_11_21_S25 11/21/2017 03:30:00 0.1133
2017_11_21_S25 11/21/2017 03:35:00 0.2807
2017_11_21_S25 11/21/2017 03:40:00 0.0126
2017_11_21_S25 11/21/2017 03:45:00 0.0625
2017_11_21_S25 11/21/2017 03:50:00 0.0
2017_11_21_S25 11/21/2017 03:55:00 0.0889
2017_11_21_S25 11/21/2017 04:00:00 0.0685
2017_11_21_S25 11/21/2017 04:05:00 0.008
2017_11_21_S25 11/21/2017 04:10:00 0.0193
2017_11_21_S25 11/21/2017 04:15:00 0.053
2017_11_21_S25 11/21/2017 04:20:00 0.0127
2017_11_21_S25 11/21/2017 04:25:00 0.0004
2017_11_21_S25 11/21/2017 04:30:00 1.0112
2017_11_21_S25 11/21/2017 04:35:00 1.248
2017_11_21_S25 11/21/2017 04:40:00 0.0399
2017_11_21_S25 11/21/2017 04:45:00 0.0069
2017_11_21_S25 11/21/2017 04:50:00 0.0
2017_11_21_S25 11/21/2017 04:55:00 0.0
2017_11_21_S25 11/21/2017 05:00:00 0.0
2017_11_21_S25 11/21/2017 05:05:00 0.0
2017_11_21_S25 11/21/2017 05:10:00 0.0
2017_11_21_S25 11/21/2017 05:15:00 0.9112
2017_11_21_S25 11/21/2017 05:20:00 4.1798
2017_11_21_S25 11/21/2017 05:25:00 2.3488
2017_11_21_S25 11/21/2017 05:30:00 2.4849
2017_11_21_S25 11/21/2017 05:35:00 0.0854
2017_11_21_S25 11/21/2017 05:40:00 0.0144
2017_11_21_S25 11/21/2017 05:45:00 0.0
2017_11_21_S25 11/21/2017 05:50:00 0.0
2017_11_21_S25 11/21/2017 05:55:00 0.0027
2017_11_21_S25 11/21/2017 06:00:00 0.0
2017_11_21_S25 11/21/2017 06:05:00 0.0
2017_11_21_S25 11/21/2017 06:10:00 0.0
2017_11_21_S25 11/21/2017 06:15:00 0.0
2017_11_21_S25 11/21/2017 06:20:00 0.0
2017_11_21_S25 11/21/2017 06:25:00 0.0
2017_11_21_S25 11/21/2017 06:30:00 0.0
2017_11_21_S25 11/21/2017 06:35:00 0.0
2017_11_21_S25 11/21/2017 06:40:00 0.0
2017_11_21_S25 11/21/2017 06:45:00 0.0
2017_11_21_S25 11/21/2017 06:50:00 0.0
2017_11_21_S25 11/21/2017 06:55:00 0.0
2017_11_21_S25 11/21/2017 07:00:00 0.0
2017_11_21_S25 11/21/2017 07:05:00 0.0
2017_11_21_S25 11/21/2017 07:10:00 0.0
2017_11_21_S25 11/21/2017 07:15:00 0.0
2017_11_21_S25 11/21/2017 07:20:00 0.0
2017_11_21_S25 11/21/2017 07:25:00 0.0074
2017_11_21_S25 11/21/2017 07:30:00 0.0
2017_11_21_S25 11/21/2017 07:35:00 0.0
2017_11_21_S25 11/21/2017 07:40:00 0.0
2017_11_21_S25 11/21/2017 07:45:00 0.0
2017_11_21_S25 11/21/2017 07:50:00 0.0
2017_11_21_S25 11/21/2017 07:55:00 0.0
2017_11_21_S25 11/21/2017 08:00:00 0.0
2017_11_21_S25 11/21/2017 08:05:00 0.0978
2017_11_21_S25 11/21/2017 08:10:00 0.0208
2017_11_21_S25 11/21/2017 08:15:00 0.0203
2017_11_21_S25 11/21/2017 08:20:00 0.0
2017_11_21_S25 11/21/2017 08:25:00 0.0143
2017_11_21_S25 11/21/2017 08:30:00 0.1169
2017_11_21_S25 11/21/2017 08:35:00 0.9688
2017_11_21_S25 11/21/2017 08:40:00 0.2645
2017_11_21_S25 11/21/2017 08:45:00 0.1857
2017_11_21_S25 11/21/2017 08:50:00 0.0224
2017_11_21_S25 11/21/2017 08:55:00 0.0
2017_11_21_S25 11/21/2017 09:00:00 0.0
2017_11_21_S25 11/21/2017 09:05:00 0.0
2017_11_21_S25 11/21/2017 09:10:00 0.0
2017_11_21_S25 11/21/2017 09:15:00 0.0
2017_11_21_S25 11/21/2017 09:20:00 0.0
2017_11_21_S25 11/21/2017 09:25:00 0.0
2017_11_21_S25 11/21/2017 09:30:00 0.0
2017_11_21_S25 11/21/2017 09:35:00 0.0
2017_11_21_S25 11/21/2017 09:40:00 0.0
2017_11_21_S25 11/21/2017 09:45:00 0.0053
2017_11_21_S25 11/21/2017 09:50:00 0.1317
2017_11_21_S25 11/21/2017 09:55:00 1.2669
2017_11_21_S25 11/21/2017 10:00:00 0.0341
2017_11_21_S25 11/21/2017 10:05:00 0.0077
2017_11_21_S25 11/21/2017 10:10:00 0.0152
2017_11_21_S25 11/21/2017 10:15:00 0.0277
2017_11_21_S25 11/21/2017 10:20:00 0.0
2017_11_21_S25 11/21/2017 10:25:00 0.0
2017_11_21_S25 11/21/2017 10:30:00 0.0
2017_11_21_S25 11/21/2017 10:35:00 0.0
2017_11_21_S25 11/21/2017 10:40:00 0.0
2017_11_21_S25 11/21/2017 10:45:00 0.0073
2017_11_21_S25 11/21/2017 10:50:00 0.0
2017_11_21_S25 11/21/2017 10:55:00 0.0
2017_11_21_S25 11/21/2017 11:00:00 0.0
2017_11_21_S25 11/21/2017 11:05:00 0.0
2017_11_21_S25 11/21/2017 11:10:00 0.0
2017_11_21_S25 11/21/2017 11:15:00 0.0
2017_11_21_S25 11/21/2017 11:20:00 0.0
2017_11_21_S25 11/21/2017 11:25:00 0.0
2017_11_21_S25 11/21/2017 11:30:00 0.0
2017_11_21_S25 11/21/2017 11:35:00 0.0
2017_11_21_S25 11/21/2017 11:40:00 0.0
2017_11_21_S25 11/21/2017 11:45:00 0.0
2017_11_21_S25 11/21/2017 11:50:00 0.0
2017_11_21_S25 11/21/2017 11:55:00 0.0
2017_11_21_S25 11/21/2017 12:00:00 0.0
2017_11_21_S25 11/21/2017 12:05:00 0.0
2017_11_21_S25 11/21/2017 12:10:00 0.0
2017_11_21_S25 11/21/2017 12:15:00 0.0
2017_11_21_S25 11/21/2017 12:20:00 0.0
2017_11_21_S25 11/21/2017 12:25:00 0.0
2017_11_21_S25 11/21/2017 12:30:00 0.0
2017_11_21_S25 11/21/2017 12:35:00 0.0
2017_11_21_S25 11/21/2017 12:40:00 0.0
2017_11_21_S25 11/21/2017 12:45:00 0.0
2017_11_21_S25 11/21/2017 12:50:00 0.0
2017_11_21_S25 11/21/2017 12:55:00 0.0
2017_11_21_S25 11/21/2017 13:00:00 0.0
2017_11_21_S25 11/21/2017 13:05:00 0.0
2017_11_21_S25 11/21/2017 13:10:00 0.0
2017_11_21_S25 11/21/2017 13:15:00 0.0
2017_11_21_S25 11/21/2017 13:20:00 0.0
2017_11_21_S25 11/21/2017 13:25:00 0.0
2017_11_21_S25 11/21/2017 13:30:00 0.0
2017_11_21_S25 11/21/2017 13:35:00 0.0
2017_11_21_S25 11/21/2017 13:40:00 0.0
2017_11_21_S25 11/21/2017 13:45:00 0.0
2017_11_21_S25 11/21/2017 13:50:00 0.0
2017_11_21_S25 11/21/2017 13:55:00 0.0
2017_11_21_S25 11/21/2017 14:00:00 0.0
2017_11_21_S25 11/21/2017 14:05:00 0.0
2017_11_21_S25 11/21/2017 14:10:00 0.0
2017_11_21_S25 11/21/2017 14:15:00 0.0
2017_11_21_S25 11/21/2017 14:20:00 0.0
2017_11_21_S25 11/21/2017 14:25:00 0.0
2017_11_21_S25 11/21/2017 14:30:00 0.0
2017_11_21_S25 11/21/2017 14:35:00 0.0
2017_11_21_S25 11/21/2017 14:40:00 0.0
2017_11_21_S25 11/21/2017 14:45:00 0.0
2017_11_21_S25 11/21/2017 14:50:00 0.0
2017_11_21_S25 11/21/2017 14:55:00 0.0
2017_11_21_S25 11/21/2017 15:00:00 0.0
2017_11_21_S25 11/21/2017 15:05:00 0.0
2017_11_21_S25 11/21/2017 15:10:00 0.0
2017_11_21_S25 11/21/2017 15:15:00 0.0
2017_11_21_S25 11/21/2017 15:20:00 0.0
2017_11_21_S25 11/21/2017 15:25:00 0.0
2017_11_21_S25 11/21/2017 15:30:00 0.0
2017_11_21_S25 11/21/2017 15:35:00 0.0
2017_11_21_S25 11/21/2017 15:40:00 0.0
2017_11_21_S25 11/21/2017 15:45:00 0.0
2017_11_21_S25 11/21/2017 15:50:00 0.0
2017_11_21_S25 11/21/2017 15:55:00 0.0
2017_11_21_S25 11/21/2017 16:00:00 0.0
2017_11_21_S25 11/21/2017 16:05:00 0.0
2017_11_21_S25 11/21/2017 16:10:00 0.0
2017_11_21_S25 11/21/2017 16:15:00 0.0
2017_11_21_S25 11/21/2017 16:20:00 0.0
2017_11_21_S25 11/21/2017 16:25:00 0.0
2017_11_21_S25 11/21/2017 16:30:00 0.0
2017_11_21_S25 11/21/2017 16:35:00 0.0
2017_11_21_S25 11/21/2017 16:40:00 0.0
2017_11_21_S25 11/21/2017 16:45:00 0.0037
2017_11_21_S25 11/21/2017 16:50:00 0.0
2017_11_21_S25 11/21/2017 16:55:00 0.0
2017_11_21_S25 11/21/2017 17:00:00 0.0
2017_11_21_S25 11/21/2017 17:05:00 0.0
2017_11_21_S25 11/21/2017 17:10:00 0.0
2017_11_21_S25 11/21/2017 17:15:00 0.0
2017_11_21_S25 11/21/2017 17:20:00 0.0
2017_11_21_S25 11/21/2017 17:25:00 0.0
2017_11_21_S25 11/21/2017 17:30:00 0.0
2017_11_21_S25 11/21/2017 17:35:00 0.0
2017_11_21_S25 11/21/2017 17:40:00 0.0
2017_11_21_S25 11/21/2017 17:45:00 0.0
2017_11_21_S25 11/21/2017 17:50:00 0.0
2017_11_21_S25 11/21/2017 17:55:00 0.0
2017_11_21_S25 11/21/2017 18:00:00 0.0
2017_11_21_S25 11/21/2017 18:05:00 0.0
2017_11_21_S25 11/21/2017 18:10:00 0.0
2017_11_21_S25 11/21/2017 18:15:00 0.0
2017_11_21_S25 11/21/2017 18:20:00 0.0
2017_11_21_S25 11/21/2017 18:25:00 0.0
2017_11_21_S25 11/21/2017 18:30:00 0.0
2017_11_21_S25 11/21/2017 18:35:00 0.0
2017_11_21_S25 11/21/2017 18:40:00 0.0
2017_11_21_S25 11/21/2017 18:45:00 0.0
2017_11_21_S25 11/21/2017 18:50:00 0.0
2017_11_21_S25 11/21/2017 18:55:00 0.0
2017_11_21_S25 11/21/2017 19:00:00 0.0
2017_11_21_S25 11/21/2017 19:05:00 0.0
2017_11_21_S25 11/21/2017 19:10:00 0.0
2017_11_21_S25 11/21/2017 19:15:00 0.0
2017_11_21_S25 11/21/2017 19:20:00 0.0
2017_11_21_S25 11/21/2017 19:25:00 0.0
2017_11_21_S25 11/21/2017 19:30:00 0.0
2017_11_21_S25 11/21/2017 19:35:00 0.0
2017_11_21_S25 11/21/2017 19:40:00 0.0
2017_11_21_S25 11/21/2017 19:45:00 0.0
2017_11_21_S25 11/21/2017 19:50:00 0.0
2017_11_21_S25 11/21/2017 19:55:00 0.0
2017_11_21_S25 11/21/2017 20:00:00 0.0
2017_11_21_S25 11/21/2017 20:05:00 0.0
2017_11_21_S25 11/21/2017 20:10:00 0.0
2017_11_21_S25 11/21/2017 20:15:00 0.0
2017_11_21_S25 11/21/2017 20:20:00 0.0
2017_11_21_S25 11/21/2017 20:25:00 0.0
2017_11_21_S25 11/21/2017 20:30:00 0.0
2017_11_21_S25 11/21/2017 20:35:00 0.0
2017_11_21_S25 11/21/2017 20:40:00 0.0
2017_11_21_S25 11/21/2017 20:45:00 0.0
2017_11_21_S25 11/21/2017 20:50:00 0.0
2017_11_21_S25 11/21/2017 20:55:00 0.0
2017_11_21_S25 11/21/2017 21:00:00 0.0
2017_11_21_S25 11/21/2017 21:05:00 0.0
2017_11_21_S25 11/21/2017 21:10:00 0.0
2017_11_21_S25 11/21/2017 21:15:00 0.0
2017_11_21_S25 11/21/2017 21:20:00 0.0
2017_11_21_S25 11/21/2017 21:25:00 0.0
2017_11_21_S25 11/21/2017 21:30:00 0.0
2017_11_21_S25 11/21/2017 21:35:00 0.0
2017_11_21_S25 11/21/2017 21:40:00 0.0
2017_11_21_S25 11/21/2017 21:45:00 0.0
2017_11_21_S25 11/21/2017 21:50:00 0.0
2017_11_21_S25 11/21/2017 21:55:00 0.0
2017_11_21_S25 11/21/2017 22:00:00 0.0
2017_11_21_S25 11/21/2017 22:05:00 0.0
2017_11_21_S25 11/21/2017 22:10:00 0.0
2017_11_21_S25 11/21/2017 22:15:00 0.0
2017_11_21_S25 11/21/2017 22:20:00 0.0
2017_11_21_S25 11/21/2017 22:25:00 0.0
2017_11_21_S25 11/21/2017 22:30:00 0.0
2017_11_21_S25 11/21/2017 22:35:00 0.0
2017_11_21_S25 11/21/2017 22:40:00 0.0063
2017_11_21_S25 11/21/2017 22:45:00 0.0
2017_11_21_S25 11/21/2017 22:50:00 0.0
2017_11_21_S25 11/21/2017 22:55:00 0.0
2017_11_21_S25 11/21/2017 23:00:00 0.0
2017_11_21_S25 11/21/2017 23:05:00 0.0
2017_11_21_S25 11/21/2017 23:10:00 0.0
2017_11_21_S25 11/21/2017 23:15:00 0.007
2017_11_21_S25 11/21/2017 23:20:00 0.0
2017_11_21_S25 11/21/2017 23:25:00 0.0
2017_11_21_S25 11/21/2017 23:30:00 0.0
2017_11_21_S25 11/21/2017 23:35:00 0.0
2017_11_21_S25 11/21/2017 23:40:00 0.0
2017_11_21_S25 11/21/2017 23:45:00 0.0
2017_11_21_S25 11/21/2017 23:50:00 0.0
2017_11_21_S25 11/21/2017 23:55:00 0.0
2017_11_21_S25 11/22/2017 00:00:00 0.0
2017_11_21_S25 11/22/2017 00:05:00 0.0
2017_11_21_S25 11/22/2017 00:10:00 0.0
2017_11_21_S25 11/22/2017 00:15:00 0.0
2017_11_21_S25 11/22/2017 00:20:00 0.0
2017_11_21_S25 11/22/2017 00:25:00 0.0
2017_11_21_S25 11/22/2017 00:30:00 0.0
2017_11_21_S25 11/22/2017 00:35:00 0.0
2017_11_21_S25 11/22/2017 00:40:00 0.0
2017_11_21_S25 11/22/2017 00:45:00 0.0
2017_11_21_S25 11/22/2017 00:50:00 0.0
2017_11_21_S25 11/22/2017 00:55:00 0.0
2017_11_21_S25 11/22/2017 01:00:00 0.0
2017_11_21_S25 11/22/2017 01:05:00 0.0
2017_11_21_S25 11/22/2017 01:10:00 0.0
2017_11_21_S25 11/22/2017 01:15:00 0.0
2017_11_21_S25 11/22/2017 01:20:00 0.0
2017_11_21_S25 11/22/2017 01:25:00 0.0
2017_11_21_S25 11/22/2017 01:30:00 0.0034
2017_11_21_S25 11/22/2017 01:35:00 0.0041
2017_11_21_S25 11/22/2017 01:40:00 0.0
2017_11_21_S25 11/22/2017 01:45:00 0.0226
2017_11_21_S25 11/22/2017 01:50:00 0.0
2017_11_21_S25 11/22/2017 01:55:00 0.0
2017_11_21_S25 11/22/2017 02:00:00 0.0002
2017_11_21_S25 11/22/2017 02:05:00 0.0
2017_11_21_S25 11/22/2017 02:10:00 0.0
2017_11_21_S25 11/22/2017 02:15:00 0.0
2017_11_21_S25 11/22/2017 02:20:00 0.0
2017_11_21_S25 11/22/2017 02:25:00 0.0
2017_11_21_S25 11/22/2017 02:30:00 0.0
2017_11_21_S25 11/22/2017 02:35:00 0.0
2017_11_21_S25 11/22/2017 02:40:00 0.0
2017_11_21_S25 11/22/2017 02:45:00 0.0
2017_11_21_S25 11/22/2017 02:50:00 0.0
2017_11_21_S25 11/22/2017 02:55:00 0.0
2017_11_21_S25 11/22/2017 03:00:00 0.0
2017_11_21_S25 11/22/2017 03:05:00 0.0
2017_11_21_S25 11/22/2017 03:10:00 0.0
2017_11_21_S25 11/22/2017 03:15:00 0.0
2017_11_21_S25 11/22/2017 03:20:00 0.0
2017_11_21_S25 11/22/2017 03:25:00 0.0
2017_11_21_S25 11/22/2017 03:30:00 0.0
2017_11_21_S25 11/22/2017 03:35:00 0.0
2017_11_21_S25 11/22/2017 03:40:00 0.0
2017_11_21_S25 11/22/2017 03:45:00 0.0
2017_11_21_S25 11/22/2017 03:50:00 0.0
2017_11_21_S25 11/22/2017 03:55:00 0.0
2017_11_21_S25 11/22/2017 04:00:00 0.0
2017_11_21_S25 11/22/2017 04:05:00 0.0
2017_11_21_S25 11/22/2017 04:10:00 0.0
2017_11_21_S25 11/22/2017 04:15:00 0.0
2017_11_21_S25 11/22/2017 04:20:00 0.0
2017_11_21_S25 11/22/2017 04:25:00 0.0
2017_11_21_S25 11/22/2017 04:30:00 0.0
2017_11_21_S25 11/22/2017 04:35:00 0.0
2017_11_21_S25 11/22/2017 04:40:00 0.0
2017_11_21_S25 11/22/2017 04:45:00 0.0
2017_11_21_S25 11/22/2017 04:50:00 0.0
2017_11_21_S25 11/22/2017 04:55:00 0.0
2017_11_21_S25 11/22/2017 05:00:00 0.0
2017_11_21_S25 11/22/2017 05:05:00 0.0
2017_11_21_S25 11/22/2017 05:10:00 0.0
2017_11_21_S25 11/22/2017 05:15:00 0.0
2017_11_21_S25 11/22/2017 05:20:00 0.0
2017_11_21_S25 11/22/2017 05:25:00 0.0
2017_11_21_S25 11/22/2017 05:30:00 0.0
2017_11_21_S25 11/22/2017 05:35:00 0.0
2017_11_21_S25 11/22/2017 05:40:00 0.0
2017_11_21_S25 11/22/2017 05:45:00 0.0
2017_11_21_S25 11/22/2017 05:50:00 0.0
2017_11_21_S25 11/22/2017 05:55:00 0.0
2017_11_21_S25 11/22/2017 06:00:00 0.0
2017_11_21_S25 11/22/2017 06:05:00 0.0
2017_11_21_S25 11/22/2017 06:10:00 0.0
2017_11_21_S25 11/22/2017 06:15:00 0.0
2017_11_21_S25 11/22/2017 06:20:00 0.0
2017_11_21_S25 11/22/2017 06:25:00 0.0
2017_11_21_S25 11/22/2017 06:30:00 0.0
2017_11_21_S25 11/22/2017 06:35:00 0.0
2017_11_21_S25 11/22/2017 06:40:00 0.0
2017_11_21_S25 11/22/2017 06:45:00 0.0
2017_11_21_S25 11/22/2017 06:50:00 0.0
2017_11_21_S25 11/22/2017 06:55:00 0.0
2017_11_21_S25 11/22/2017 07:00:00 0.0
2017_11_21_S25 11/22/2017 07:05:00 0.0
2017_11_21_S25 11/22/2017 07:10:00 0.0
2017_11_21_S25 11/22/2017 07:15:00 0.0
2017_11_21_S25 11/22/2017 07:20:00 0.0
2017_11_21_S25 11/22/2017 07:25:00 0.0
2017_11_21_S25 11/22/2017 07:30:00 0.0
2017_11_21_S25 11/22/2017 07:35:00 0.0
2017_11_21_S25 11/22/2017 07:40:00 0.0
2017_11_21_S25 11/22/2017 07:45:00 0.0
2017_11_21_S25 11/22/2017 07:50:00 0.0
2017_11_21_S25 11/22/2017 07:55:00 0.0
2017_11_21_S25 11/22/2017 08:00:00 0.0

2017_11_21_S26 11/20/2017 22:55:00 0.0063
2017_11_21_S26 11/20/2017 23:00:00 0.7213
2017_11_21_S26 11/20/2017 23:05:00 0.1824
2017_11_21_S26 11/20/2017 23:10:00 0.1529
2017_11_21_S26 11/20/2017 23:15:00 0.0
2017_11_21_S26 11/20/2017 23:20:00 0.0
2017_11_21_S26 11/20/2017 23:25:00 0.0
2017_11_21_S26 11/20/2017 23:30:00 0.0
2017_11_21_S26 11/20/2017 23:35:00 0.0
2017_11_21_S26 11/20/2017 23:40:00 0.0
2017_11_21_S26 11/20/2017 23:45:00 0.0
2017_11_21_S26 11/20/2017 23:50:00 0.0
2017_11_21_S26 11/20/2017 23:55:00 0.0
2017_11_21_S26 11/21/2017 00:00:00 0.0
2017_11_21_S26 11/21/2017 00:05:00 0.0
2017_11_21_S26 11/21/2017 00:10:00 0.0
2017_11_21_S26 11/21/2017 00:15:00 0.0
2017_11_21_S26 11/21/2017 00:20:00 0.0
2017_11_21_S26 11/21/2017 00:25:00 0.0
2017_11_21_S26 11/21/2017 00:30:00 0.0
2017_11_21_S26 11/21/2017 00:35:00 0.0
2017_11_21_S26 11/21/2017 00:40:00 0.0
2017_11_21_S26 11/21/2017 00:45:00 0.0
2017_11_21_S26 11/21/2017 00:50:00 0.0
2017_11_21_S26 11/21/2017 00:55:00 0.0
2017_11_21_S26 11/21/2017 01:00:00 0.0
2017_11_21_S26 11/21/2017 01:05:00 0.0
2017_11_21_S26 11/21/2017 01:10:00 0.0
2017_11_21_S26 11/21/2017 01:15:00 0.0017
2017_11_21_S26 11/21/2017 01:20:00 0.6583
2017_11_21_S26 11/21/2017 01:25:00 0.067
2017_11_21_S26 11/21/2017 01:30:00 0.0282
2017_11_21_S26 11/21/2017 01:35:00 0.0106
2017_11_21_S26 11/21/2017 01:40:00 0.0
2017_11_21_S26 11/21/2017 01:45:00 0.0
2017_11_21_S26 11/21/2017 01:50:00 0.0
2017_11_21_S26 11/21/2017 01:55:00 0.0
2017_11_21_S26 11/21/2017 02:00:00 0.0
2017_11_21_S26 11/21/2017 02:05:00 0.0
2017_11_21_S26 11/21/2017 02:10:00 0.0037
2017_11_21_S26 11/21/2017 02:15:00 0.2482
2017_11_21_S26 11/21/2017 02:20:00 0.0077
2017_11_21_S26 11/21/2017 02:25:00 0.0423
2017_11_21_S26 11/21/2017 02:30:00 0.0263
2017_11_21_S26 11/21/2017 02:35:00 0.069
2017_11_21_S26 11/21/2017 02:40:00 0.0519
2017_11_21_S26 11/21/2017 02:45:00 0.0329
2017_11_21_S26 11/21/2017 02:50:00 0.0
2017_11_21_S26 11/21/2017 02:55:00 0.0
2017_11_21_S26 11/21/2017 03:00:00 0.0
2017_11_21_S26 11/21/2017 03:05:00 0.074
2017_11_21_S26 11/21/2017 03:10:00 1.5011
2017_11_21_S26 11/21/2017 03:15:00 0.0
2017_11_21_S26 11/21/2017 03:20:00 0.0275
2017_11_21_S26 11/21/2017 03:25:00 0.5769
2017_11_21_S26 11/21/2017 03:30:00 0.1379
2017_11_21_S26 11/21/2017 03:35:00 0.2462
2017_11_21_S26 11/21/2017 03:40:00 0.0208
2017_11_21_S26 11/21/2017 03:45:00 0.0
2017_11_21_S26 11/21/2017 03:50:00 0.0085
2017_11_21_S26 11/21/2017 03:55:00 0.0596
2017_11_21_S26 11/21/2017 04:00:00 0.1006
2017_11_21_S26 11/21/2017 04:05:00 0.0233
2017_11_21_S26 11/21/2017 04:10:00 0.011
2017_11_21_S26 11/21/2017 04:15:00 0.0998
2017_11_21_S26 11/21/2017 04:20:00 0.0175
2017_11_21_S26 11/21/2017 04:25:00 0.0
2017_11_21_S26 11/21/2017 04:30:00 0.9822
2017_11_21_S26 11/21/2017 04:35:00 0.8307
2017_11_21_S26 11/21/2017 04:40:00 0.0479
2017_11_21_S26 11/21/2017 04:45:00 0.0078
2017_11_21_S26 11/21/2017 04:50:00 0.0
2017_11_21_S26 11/21/2017 04:55:00 0.0
2017_11_21_S26 11/21/2017 05:00:00 0.0
2017_11_21_S26 11/21/2017 05:05:00 0.0
2017_11_21_S26 11/21/2017 05:10:00 0.0
2017_11_21_S26 11/21/2017 05:15:00 0.5977
2017_11_21_S26 11/21/2017 05:20:00 3.1767
2017_11_21_S26 11/21/2017 05:25:00 1.3369
2017_11_21_S26 11/21/2017 05:30:00 2.107
2017_11_21_S26 11/21/2017 05:35:00 0.6745
2017_11_21_S26 11/21/2017 05:40:00 0.0153
2017_11_21_S26 11/21/2017 05:45:00 0.0
2017_11_21_S26 11/21/2017 05:50:00 0.0
2017_11_21_S26 11/21/2017 05:55:00 0.0
2017_11_21_S26 11/21/2017 06:00:00 0.0
2017_11_21_S26 11/21/2017 06:05:00 0.0
2017_11_21_S26 11/21/2017 06:10:00 0.0
2017_11_21_S26 11/21/2017 06:15:00 0.0
2017_11_21_S26 11/21/2017 06:20:00 0.0
2017_11_21_S26 11/21/2017 06:25:00 0.0
2017_11_21_S26 11/21/2017 06:30:00 0.0
2017_11_21_S26 11/21/2017 06:35:00 0.0
2017_11_21_S26 11/21/2017 06:40:00 0.0
2017_11_21_S26 11/21/2017 06:45:00 0.0
2017_11_21_S26 11/21/2017 06:50:00 0.0
2017_11_21_S26 11/21/2017 06:55:00 0.0
2017_11_21_S26 11/21/2017 07:00:00 0.0
2017_11_21_S26 11/21/2017 07:05:00 0.0
2017_11_21_S26 11/21/2017 07:10:00 0.0
2017_11_21_S26 11/21/2017 07:15:00 0.0
2017_11_21_S26 11/21/2017 07:20:00 0.0
2017_11_21_S26 11/21/2017 07:25:00 0.0
2017_11_21_S26 11/21/2017 07:30:00 0.003
2017_11_21_S26 11/21/2017 07:35:00 0.0
2017_11_21_S26 11/21/2017 07:40:00 0.0
2017_11_21_S26 11/21/2017 07:45:00 0.0
2017_11_21_S26 11/21/2017 07:50:00 0.0
2017_11_21_S26 11/21/2017 07:55:00 0.0
2017_11_21_S26 11/21/2017 08:00:00 0.0
2017_11_21_S26 11/21/2017 08:05:00 0.04
2017_11_21_S26 11/21/2017 08:10:00 0.0296
2017_11_21_S26 11/21/2017 08:15:00 0.0258
2017_11_21_S26 11/21/2017 08:20:00 0.0
2017_11_21_S26 11/21/2017 08:25:00 0.014
2017_11_21_S26 11/21/2017 08:30:00 0.3594
2017_11_21_S26 11/21/2017 08:35:00 1.2733
2017_11_21_S26 11/21/2017 08:40:00 0.4386
2017_11_21_S26 11/21/2017 08:45:00 0.1558
2017_11_21_S26 11/21/2017 08:50:00 0.0014
2017_11_21_S26 11/21/2017 08:55:00 0.0
2017_11_21_S26 11/21/2017 09:00:00 0.0
2017_11_21_S26 11/21/2017 09:05:00 0.0
2017_11_21_S26 11/21/2017 09:10:00 0.0
2017_11_21_S26 11/21/2017 09:15:00 0.0
2017_11_21_S26 11/21/2017 09:20:00 0.0
2017_11_21_S26 11/21/2017 09:25:00 0.0
2017_11_21_S26 11/21/2017 09:30:00 0.0
2017_11_21_S26 11/21/2017 09:35:00 0.0
2017_11_21_S26 11/21/2017 09:40:00 0.0
2017_11_21_S26 11/21/2017 09:45:00 0.0014
2017_11_21_S26 11/21/2017 09:50:00 0.0485
2017_11_21_S26 11/21/2017 09:55:00 0.7896
2017_11_21_S26 11/21/2017 10:00:00 0.0235
2017_11_21_S26 11/21/2017 10:05:00 0.0111
2017_11_21_S26 11/21/2017 10:10:00 0.0123
2017_11_21_S26 11/21/2017 10:15:00 0.3017
2017_11_21_S26 11/21/2017 10:20:00 0.0
2017_11_21_S26 11/21/2017 10:25:00 0.0
2017_11_21_S26 11/21/2017 10:30:00 0.0
2017_11_21_S26 11/21/2017 10:35:00 0.0
2017_11_21_S26 11/21/2017 10:40:00 0.0
2017_11_21_S26 11/21/2017 10:45:00 0.0
2017_11_21_S26 11/21/2017 10:50:00 0.0
2017_11_21_S26 11/21/2017 10:55:00 0.0
2017_11_21_S26 11/21/2017 11:00:00 0.0
2017_11_21_S26 11/21/2017 11:05:00 0.0
2017_11_21_S26 11/21/2017 11:10:00 0.0
2017_11_21_S26 11/21/2017 11:15:00 0.0
2017_11_21_S26 11/21/2017 11:20:00 0.0
2017_11_21_S26 11/21/2017 11:25:00 0.0
2017_11_21_S26 11/21/2017 11:30:00 0.0
2017_11_21_S26 11/21/2017 11:35:00 0.0
2017_11_21_S26 11/21/2017 11:40:00 0.0
2017_11_21_S26 11/21/2017 11:45:00 0.0
2017_11_21_S26 11/21/2017 11:50:00 0.0
2017_11_21_S26 11/21/2017 11:55:00 0.0
2017_11_21_S26 11/21/2017 12:00:00 0.0
2017_11_21_S26 11/21/2017 12:05:00 0.0
2017_11_21_S26 11/21/2017 12:10:00 0.0
2017_11_21_S26 11/21/2017 12:15:00 0.0
2017_11_21_S26 11/21/2017 12:20:00 0.0
2017_11_21_S26 11/21/2017 12:25:00 0.0
2017_11_21_S26 11/21/2017 12:30:00 0.0
2017_11_21_S26 11/21/2017 12:35:00 0.0
2017_11_21_S26 11/21/2017 12:40:00 0.0
2017_11_21_S26 11/21/2017 12:45:00 0.0
2017_11_21_S26 11/21/2017 12:50:00 0.0
2017_11_21_S26 11/21/2017 12:55:00 0.0
2017_11_21_S26 11/21/2017 13:00:00 0.0
2017_11_21_S26 11/21/2017 13:05:00 0.0
2017_11_21_S26 11/21/2017 13:10:00 0.0
2017_11_21_S26 11/21/2017 13:15:00 0.0
2017_11_21_S26 11/21/2017 13:20:00 0.0
2017_11_21_S26 11/21/2017 13:25:00 0.0
2017_11_21_S26 11/21/2017 13:30:00 0.0
2017_11_21_S26 11/21/2017 13:35:00 0.0
2017_11_21_S26 11/21/2017 13:40:00 0.0
2017_11_21_S26 11/21/2017 13:45:00 0.0
2017_11_21_S26 11/21/2017 13:50:00 0.0
2017_11_21_S26 11/21/2017 13:55:00 0.0
2017_11_21_S26 11/21/2017 14:00:00 0.0
2017_11_21_S26 11/21/2017 14:05:00 0.0
2017_11_21_S26 11/21/2017 14:10:00 0.0
2017_11_21_S26 11/21/2017 14:15:00 0.0
2017_11_21_S26 11/21/2017 14:20:00 0.0
2017_11_21_S26 11/21/2017 14:25:00 0.0
2017_11_21_S26 11/21/2017 14:30:00 0.0
2017_11_21_S26 11/21/2017 14:35:00 0.0
2017_11_21_S26 11/21/2017 14:40:00 0.0
2017_11_21_S26 11/21/2017 14:45:00 0.0
2017_11_21_S26 11/21/2017 14:50:00 0.0
2017_11_21_S26 11/21/2017 14:55:00 0.0
2017_11_21_S26 11/21/2017 15:00:00 0.0
2017_11_21_S26 11/21/2017 15:05:00 0.0
2017_11_21_S26 11/21/2017 15:10:00 0.0
2017_11_21_S26 11/21/2017 15:15:00 0.0
2017_11_21_S26 11/21/2017 15:20:00 0.0
2017_11_21_S26 11/21/2017 15:25:00 0.0
2017_11_21_S26 11/21/2017 15:30:00 0.0
2017_11_21_S26 11/21/2017 15:35:00 0.0
2017_11_21_S26 11/21/2017 15:40:00 0.0
2017_11_21_S26 11/21/2017 15:45:00 0.0
2017_11_21_S26 11/21/2017 15:50:00 0.0
2017_11_21_S26 11/21/2017 15:55:00 0.0
2017_11_21_S26 11/21/2017 16:00:00 0.0
2017_11_21_S26 11/21/2017 16:05:00 0.0
2017_11_21_S26 11/21/2017 16:10:00 0.0
2017_11_21_S26 11/21/2017 16:15:00 0.0
2017_11_21_S26 11/21/2017 16:20:00 0.0
2017_11_21_S26 11/21/2017 16:25:00 0.0
2017_11_21_S26 11/21/2017 16:30:00 0.0
2017_11_21_S26 11/21/2017 16:35:00 0.0
2017_11_21_S26 11/21/2017 16:40:00 0.0
2017_11_21_S26 11/21/2017 16:45:00 0.0
2017_11_21_S26 11/21/2017 16:50:00 0.0
2017_11_21_S26 11/21/2017 16:55:00 0.0
2017_11_21_S26 11/21/2017 17:00:00 0.0
2017_11_21_S26 11/21/2017 17:05:00 0.0
2017_11_21_S26 11/21/2017 17:10:00 0.0
2017_11_21_S26 11/21/2017 17:15:00 0.0
2017_11_21_S26 11/21/2017 17:20:00 0.0
2017_11_21_S26 11/21/2017 17:25:00 0.0
2017_11_21_S26 11/21/2017 17:30:00 0.0
2017_11_21_S26 11/21/2017 17:35:00 0.0
2017_11_21_S26 11/21/2017 17:40:00 0.0
2017_11_21_S26 11/21/2017 17:45:00 0.0
2017_11_21_S26 11/21/2017 17:50:00 0.0
2017_11_21_S26 11/21/2017 17:55:00 0.0
2017_11_21_S26 11/21/2017 18:00:00 0.0
2017_11_21_S26 11/21/2017 18:05:00 0.0
2017_11_21_S26 11/21/2017 18:10:00 0.0
2017_11_21_S26 11/21/2017 18:15:00 0.0
2017_11_21_S26 11/21/2017 18:20:00 0.0
2017_11_21_S26 11/21/2017 18:25:00 0.0
2017_11_21_S26 11/21/2017 18:30:00 0.0
2017_11_21_S26 11/21/2017 18:35:00 0.0
2017_11_21_S26 11/21/2017 18:40:00 0.0
2017_11_21_S26 11/21/2017 18:45:00 0.0
2017_11_21_S26 11/21/2017 18:50:00 0.0
2017_11_21_S26 11/21/2017 18:55:00 0.0
2017_11_21_S26 11/21/2017 19:00:00 0.0
2017_11_21_S26 11/21/2017 19:05:00 0.0
2017_11_21_S26 11/21/2017 19:10:00 0.0
2017_11_21_S26 11/21/2017 19:15:00 0.0
2017_11_21_S26 11/21/2017 19:20:00 0.0
2017_11_21_S26 11/21/2017 19:25:00 0.0
2017_11_21_S26 11/21/2017 19:30:00 0.0
2017_11_21_S26 11/21/2017 19:35:00 0.0
2017_11_21_S26 11/21/2017 19:40:00 0.0
2017_11_21_S26 11/21/2017 19:45:00 0.0
2017_11_21_S26 11/21/2017 19:50:00 0.0
2017_11_21_S26 11/21/2017 19:55:00 0.0
2017_11_21_S26 11/21/2017 20:00:00 0.0
2017_11_21_S26 11/21/2017 20:05:00 0.0
2017_11_21_S26 11/21/2017 20:10:00 0.0
2017_11_21_S26 11/21/2017 20:15:00 0.0
2017_11_21_S26 11/21/2017 20:20:00 0.0
2017_11_21_S26 11/21/2017 20:25:00 0.0
2017_11_21_S26 11/21/2017 20:30:00 0.0
2017_11_21_S26 11/21/2017 20:35:00 0.0
2017_11_21_S26 11/21/2017 20:40:00 0.0
2017_11_21_S26 11/21/2017 20:45:00 0.0
2017_11_21_S26 11/21/2017 20:50:00 0.0
2017_11_21_S26 11/21/2017 20:55:00 0.0
2017_11_21_S26 11/21/2017 21:00:00 0.0
2017_11_21_S26 11/21/2017 21:05:00 0.0
2017_11_21_S26 11/21/2017 21:10:00 0.0
2017_11_21_S26 11/21/2017 21:15:00 0.0
2017_11_21_S26 11/21/2017 21:20:00 0.0
2017_11_21_S26 11/21/2017 21:25:00 0.0
2017_11_21_S26 11/21/2017 21:30:00 0.0
2017_11_21_S26 11/21/2017 21:35:00 0.0
2017_11_21_S26 11/21/2017 21:40:00 0.0
2017_11_21_S26 11/21/2017 21:45:00 0.0
2017_11_21_S26 11/21/2017 21:50:00 0.0052
2017_11_21_S26 11/21/2017 21:55:00 0.0
2017_11_21_S26 11/21/2017 22:00:00 0.0
2017_11_21_S26 11/21/2017 22:05:00 0.0
2017_11_21_S26 11/21/2017 22:10:00 0.0
2017_11_21_S26 11/21/2017 22:15:00 0.0
2017_11_21_S26 11/21/2017 22:20:00 0.0
2017_11_21_S26 11/21/2017 22:25:00 0.0
2017_11_21_S26 11/21/2017 22:30:00 0.0
2017_11_21_S26 11/21/2017 22:35:00 0.0
2017_11_21_S26 11/21/2017 22:40:00 0.0038
2017_11_21_S26 11/21/2017 22:45:00 0.0
2017_11_21_S26 11/21/2017 22:50:00 0.0
2017_11_21_S26 11/21/2017 22:55:00 0.0
2017_11_21_S26 11/21/2017 23:00:00 0.0
2017_11_21_S26 11/21/2017 23:05:00 0.0013
2017_11_21_S26 11/21/2017 23:10:00 0.0
2017_11_21_S26 11/21/2017 23:15:00 0.0027
2017_11_21_S26 11/21/2017 23:20:00 0.0
2017_11_21_S26 11/21/2017 23:25:00 0.0
2017_11_21_S26 11/21/2017 23:30:00 0.0
2017_11_21_S26 11/21/2017 23:35:00 0.0
2017_11_21_S26 11/21/2017 23:40:00 0.0
2017_11_21_S26 11/21/2017 23:45:00 0.0
2017_11_21_S26 11/21/2017 23:50:00 0.0
2017_11_21_S26 11/21/2017 23:55:00 0.0
2017_11_21_S26 11/22/2017 00:00:00 0.0
2017_11_21_S26 11/22/2017 00:05:00 0.0
2017_11_21_S26 11/22/2017 00:10:00 0.0
2017_11_21_S26 11/22/2017 00:15:00 0.0
2017_11_21_S26 11/22/2017 00:20:00 0.0
2017_11_21_S26 11/22/2017 00:25:00 0.0
2017_11_21_S26 11/22/2017 00:30:00 0.0
2017_11_21_S26 11/22/2017 00:35:00 0.0
2017_11_21_S26 11/22/2017 00:40:00 0.0
2017_11_21_S26 11/22/2017 00:45:00 0.0
2017_11_21_S26 11/22/2017 00:50:00 0.0
2017_11_21_S26 11/22/2017 00:55:00 0.0
2017_11_21_S26 11/22/2017 01:00:00 0.0
2017_11_21_S26 11/22/2017 01:05:00 0.0
2017_11_21_S26 11/22/2017 01:10:00 0.0
2017_11_21_S26 11/22/2017 01:15:00 0.0014
2017_11_21_S26 11/22/2017 01:20:00 0.0013
2017_11_21_S26 11/22/2017 01:25:00 0.0
2017_11_21_S26 11/22/2017 01:30:00 0.0
2017_11_21_S26 11/22/2017 01:35:00 0.0
2017_11_21_S26 11/22/2017 01:40:00 0.0
2017_11_21_S26 11/22/2017 01:45:00 0.0066
2017_11_21_S26 11/22/2017 01:50:00 0.003
2017_11_21_S26 11/22/2017 01:55:00 0.0
2017_11_21_S26 11/22/2017 02:00:00 0.0013
2017_11_21_S26 11/22/2017 02:05:00 0.0
2017_11_21_S26 11/22/2017 02:10:00 0.0
2017_11_21_S26 11/22/2017 02:15:00 0.0
2017_11_21_S26 11/22/2017 02:20:00 0.0
2017_11_21_S26 11/22/2017 02:25:00 0.0
2017_11_21_S26 11/22/2017 02:30:00 0.0077
2017_11_21_S26 11/22/2017 02:35:00 0.0
2017_11_21_S26 11/22/2017 02:40:00 0.0
2017_11_21_S26 11/22/2017 02:45:00 0.0
2017_11_21_S26 11/22/2017 02:50:00 0.0
2017_11_21_S26 11/22/2017 02:55:00 0.0
2017_11_21_S26 11/22/2017 03:00:00 0.0
2017_11_21_S26 11/22/2017 03:05:00 0.0
2017_11_21_S26 11/22/2017 03:10:00 0.0
2017_11_21_S26 11/22/2017 03:15:00 0.0
2017_11_21_S26 11/22/2017 03:20:00 0.0
2017_11_21_S26 11/22/2017 03:25:00 0.0
2017_11_21_S26 11/22/2017 03:30:00 0.0
2017_11_21_S26 11/22/2017 03:35:00 0.0
2017_11_21_S26 11/22/2017 03:40:00 0.0
2017_11_21_S26 11/22/2017 03:45:00 0.0
2017_11_21_S26 11/22/2017 03:50:00 0.0
2017_11_21_S26 11/22/2017 03:55:00 0.0
2017_11_21_S26 11/22/2017 04:00:00 0.0
2017_11_21_S26 11/22/2017 04:05:00 0.0
2017_11_21_S26 11/22/2017 04:10:00 0.0
2017_11_21_S26 11/22/2017 04:15:00 0.0
2017_11_21_S26 11/22/2017 04:20:00 0.0
2017_11_21_S26 11/22/2017 04:25:00 0.0
2017_11_21_S26 11/22/2017 04:30:00 0.0
2017_11_21_S26 11/22/2017 04:35:00 0.0
2017_11_21_S26 11/22/2017 04:40:00 0.0
2017_11_21_S26 11/22/2017 04:45:00 0.0
2017_11_21_S26 11/22/2017 04:50:00 0.0
2017_11_21_S26 11/22/2017 04:55:00 0.0
2017_11_21_S26 11/22/2017 05:00:00 0.0
2017_11_21_S26 11/22/2017 05:05:00 0.0
2017_11_21_S26 11/22/2017 05:10:00 0.0
2017_11_21_S26 11/22/2017 05:15:00 0.0
2017_11_21_S26 11/22/2017 05:20:00 0.0
2017_11_21_S26 11/22/2017 05:25:00 0.0
2017_11_21_S26 11/22/2017 05:30:00 0.0
2017_11_21_S26 11/22/2017 05:35:00 0.0
2017_11_21_S26 11/22/2017 05:40:00 0.0
2017_11_21_S26 11/22/2017 05:45:00 0.0
2017_11_21_S26 11/22/2017 05:50:00 0.0
2017_11_21_S26 11/22/2017 05:55:00 0.0
2017_11_21_S26 11/22/2017 06:00:00 0.0
2017_11_21_S26 11/22/2017 06:05:00 0.0
2017_11_21_S26 11/22/2017 06:10:00 0.0
2017_11_21_S26 11/22/2017 06:15:00 0.0
2017_11_21_S26 11/22/2017 06:20:00 0.0
2017_11_21_S26 11/22/2017 06:25:00 0.0
2017_11_21_S26 11/22/2017 06:30:00 0.0
2017_11_21_S26 11/22/2017 06:35:00 0.0
2017_11_21_S26 11/22/2017 06:40:00 0.0
2017_11_21_S26 11/22/2017 06:45:00 0.0
2017_11_21_S26 11/22/2017 06:50:00 0.0
2017_11_21_S26 11/22/2017 06:55:00 0.0
2017_11_21_S26 11/22/2017 07:00:00 0.0
2017_11_21_S26 11/22/2017 07:05:00 0.0
2017_11_21_S26 11/22/2017 07:10:00 0.0
2017_11_21_S26 11/22/2017 07:15:00 0.0
2017_11_21_S26 11/22/2017 07:20:00 0.0
2017_11_21_S26 11/22/2017 07:25:00 0.0
2017_11_21_S26 11/22/2017 07:30:00 0.0
2017_11_21_S26 11/22/2017 07:35:00 0.0
2017_11_21_S26 11/22/2017 07:40:00 0.0
2017_11_21_S26 11/22/2017 07:45:00 0.0
2017_11_21_S26 11/22/2017 07:50:00 0.0
2017_11_21_S26 11/22/2017 07:55:00 0.0
2017_11_21_S26 11/22/2017 08:00:00 0.0

2017_11_21_S27 11/20/2017 22:55:00 0.0147
2017_11_21_S27 11/20/2017 23:00:00 1.147
2017_11_21_S27 11/20/2017 23:05:00 0.2427
2017_11_21_S27 11/20/2017 23:10:00 0.1767
2017_11_21_S27 11/20/2017 23:15:00 0.0
2017_11_21_S27 11/20/2017 23:20:00 0.0
2017_11_21_S27 11/20/2017 23:25:00 0.0
2017_11_21_S27 11/20/2017 23:30:00 0.0
2017_11_21_S27 11/20/2017 23:35:00 0.0
2017_11_21_S27 11/20/2017 23:40:00 0.0
2017_11_21_S27 11/20/2017 23:45:00 0.0
2017_11_21_S27 11/20/2017 23:50:00 0.0
2017_11_21_S27 11/20/2017 23:55:00 0.0
2017_11_21_S27 11/21/2017 00:00:00 0.0
2017_11_21_S27 11/21/2017 00:05:00 0.0
2017_11_21_S27 11/21/2017 00:10:00 0.0
2017_11_21_S27 11/21/2017 00:15:00 0.0
2017_11_21_S27 11/21/2017 00:20:00 0.0
2017_11_21_S27 11/21/2017 00:25:00 0.0
2017_11_21_S27 11/21/2017 00:30:00 0.0
2017_11_21_S27 11/21/2017 00:35:00 0.0
2017_11_21_S27 11/21/2017 00:40:00 0.0
2017_11_21_S27 11/21/2017 00:45:00 0.0
2017_11_21_S27 11/21/2017 00:50:00 0.0
2017_11_21_S27 11/21/2017 00:55:00 0.0
2017_11_21_S27 11/21/2017 01:00:00 0.0
2017_11_21_S27 11/21/2017 01:05:00 0.0
2017_11_21_S27 11/21/2017 01:10:00 0.0
2017_11_21_S27 11/21/2017 01:15:00 0.0146
2017_11_21_S27 11/21/2017 01:20:00 0.9161
2017_11_21_S27 11/21/2017 01:25:00 0.0382
2017_11_21_S27 11/21/2017 01:30:00 0.0273
2017_11_21_S27 11/21/2017 01:35:00 0.0105
2017_11_21_S27 11/21/2017 01:40:00 0.0001
2017_11_21_S27 11/21/2017 01:45:00 0.0
2017_11_21_S27 11/21/2017 01:50:00 0.0
2017_11_21_S27 11/21/2017 01:55:00 0.0
2017_11_21_S27 11/21/2017 02:00:00 0.0
2017_11_21_S27 11/21/2017 02:05:00 0.0063
2017_11_21_S27 11/21/2017 02:10:00 0.0097
2017_11_21_S27 11/21/2017 02:15:00 0.2077
2017_11_21_S27 11/21/2017 02:20:00 0.0009
2017_11_21_S27 11/21/2017 02:25:00 0.0129
2017_11_21_S27 11/21/2017 02:30:00 0.0012
2017_11_21_S27 11/21/2017 02:35:00 0.1009
2017_11_21_S27 11/21/2017 02:40:00 0.0473
2017_11_21_S27 11/21/2017 02:45:00 0.0521
2017_11_21_S27 11/21/2017 02:50:00 0.0
2017_11_21_S27 11/21/2017 02:55:00 0.0
2017_11_21_S27 11/21/2017 03:00:00 0.0
2017_11_21_S27 11/21/2017 03:05:00 0.094
2017_11_21_S27 11/21/2017 03:10:00 1.6635
2017_11_21_S27 11/21/2017 03:15:00 0.0
2017_11_21_S27 11/21/2017 03:20:00 0.1388
2017_11_21_S27 11/21/2017 03:25:00 0.731
2017_11_21_S27 11/21/2017 03:30:00 0.1159
2017_11_21_S27 11/21/2017 03:35:00 0.1881
2017_11_21_S27 11/21/2017 03:40:00 0.0427
2017_11_21_S27 11/21/2017 03:45:00 0.0152
2017_11_21_S27 11/21/2017 03:50:00 0.0204
2017_11_21_S27 11/21/2017 03:55:00 0.0665
2017_11_21_S27 11/21/2017 04:00:00 0.0672
2017_11_21_S27 11/21/2017 04:05:00 0.0254
2017_11_21_S27 11/21/2017 04:10:00 0.0054
2017_11_21_S27 11/21/2017 04:15:00 0.0722
2017_11_21_S27 11/21/2017 04:20:00 0.0126
2017_11_21_S27 11/21/2017 04:25:00 0.0079
2017_11_21_S27 11/21/2017 04:30:00 0.6453
2017_11_21_S27 11/21/2017 04:35:00 0.2185
2017_11_21_S27 11/21/2017 04:40:00 0.0304
2017_11_21_S27 11/21/2017 04:45:00 0.0011
2017_11_21_S27 11/21/2017 04:50:00 0.0
2017_11_21_S27 11/21/2017 04:55:00 0.0
2017_11_21_S27 11/21/2017 05:00:00 0.0
2017_11_21_S27 11/21/2017 05:05:00 0.0
2017_11_21_S27 11/21/2017 05:10:00 0.0
2017_11_21_S27 11/21/2017 05:15:00 0.7982
2017_11_21_S27 11/21/2017 05:20:00 2.9907
2017_11_21_S27 11/21/2017 05:25:00 1.1687
2017_11_21_S27 11/21/2017 05:30:00 2.1778
2017_11_21_S27 11/21/2017 05:35:00 0.5648
2017_11_21_S27 11/21/2017 05:40:00 0.0137
2017_11_21_S27 11/21/2017 05:45:00 0.0
2017_11_21_S27 11/21/2017 05:50:00 0.0
2017_11_21_S27 11/21/2017 05:55:00 0.0
2017_11_21_S27 11/21/2017 06:00:00 0.0
2017_11_21_S27 11/21/2017 06:05:00 0.0016
2017_11_21_S27 11/21/2017 06:10:00 0.0
2017_11_21_S27 11/21/2017 06:15:00 0.0
2017_11_21_S27 11/21/2017 06:20:00 0.0
2017_11_21_S27 11/21/2017 06:25:00 0.0
2017_11_21_S27 11/21/2017 06:30:00 0.0
2017_11_21_S27 11/21/2017 06:35:00 0.0
2017_11_21_S27 11/21/2017 06:40:00 0.0
2017_11_21_S27 11/21/2017 06:45:00 0.0
2017_11_21_S27 11/21/2017 06:50:00 0.0
2017_11_21_S27 11/21/2017 06:55:00 0.0
2017_11_21_S27 11/21/2017 07:00:00 0.0
2017_11_21_S27 11/21/2017 07:05:00 0.0
2017_11_21_S27 11/21/2017 07:10:00 0.0
2017_11_21_S27 11/21/2017 07:15:00 0.0
2017_11_21_S27 11/21/2017 07:20:00 0.0
2017_11_21_S27 11/21/2017 07:25:00 0.0
2017_11_21_S27 11/21/2017 07:30:00 0.0001
2017_11_21_S27 11/21/2017 07:35:00 0.0
2017_11_21_S27 11/21/2017 07:40:00 0.0
2017_11_21_S27 11/21/2017 07:45:00 0.0
2017_11_21_S27 11/21/2017 07:50:00 0.0
2017_11_21_S27 11/21/2017 07:55:00 0.0
2017_11_21_S27 11/21/2017 08:00:00 0.1377
2017_11_21_S27 11/21/2017 08:05:00 0.0428
2017_11_21_S27 11/21/2017 08:10:00 0.0164
2017_11_21_S27 11/21/2017 08:15:00 0.0043
2017_11_21_S27 11/21/2017 08:20:00 0.0
2017_11_21_S27 11/21/2017 08:25:00 0.0051
2017_11_21_S27 11/21/2017 08:30:00 1.8147
2017_11_21_S27 11/21/2017 08:35:00 1.6438
2017_11_21_S27 11/21/2017 08:40:00 0.4823
2017_11_21_S27 11/21/2017 08:45:00 0.1108
2017_11_21_S27 11/21/2017 08:50:00 0.001
2017_11_21_S27 11/21/2017 08:55:00 0.0
2017_11_21_S27 11/21/2017 09:00:00 0.0
2017_11_21_S27 11/21/2017 09:05:00 0.0
2017_11_21_S27 11/21/2017 09:10:00 0.0
2017_11_21_S27 11/21/2017 09:15:00 0.0
2017_11_21_S27 11/21/2017 09:20:00 0.0
2017_11_21_S27 11/21/2017 09:25:00 0.0
2017_11_21_S27 11/21/2017 09:30:00 0.0
2017_11_21_S27 11/21/2017 09:35:00 0.0
2017_11_21_S27 11/21/2017 09:40:00 0.0
2017_11_21_S27 11/21/2017 09:45:00 0.0011
2017_11_21_S27 11/21/2017 09:50:00 0.0336
2017_11_21_S27 11/21/2017 09:55:00 0.9391
2017_11_21_S27 11/21/2017 10:00:00 0.0272
2017_11_21_S27 11/21/2017 10:05:00 0.0107
2017_11_21_S27 11/21/2017 10:10:00 0.0178
2017_11_21_S27 11/21/2017 10:15:00 0.2237
2017_11_21_S27 11/21/2017 10:20:00 0.0
2017_11_21_S27 11/21/2017 10:25:00 0.0
2017_11_21_S27 11/21/2017 10:30:00 0.0
2017_11_21_S27 11/21/2017 10:35:00 0.0
2017_11_21_S27 11/21/2017 10:40:00 0.0
2017_11_21_S27 11/21/2017 10:45:00 0.0
2017_11_21_S27 11/21/2017 10:50:00 0.0
2017_11_21_S27 11/21/2017 10:55:00 0.0
2017_11_21_S27 11/21/2017 11:00:00 0.0
2017_11_21_S27 11/21/2017 11:05:00 0.0
2017_11_21_S27 11/21/2017 11:10:00 0.0
2017_11_21_S27 11/21/2017 11:15:00 0.0
2017_11_21_S27 11/21/2017 11:20:00 0.0
2017_11_21_S27 11/21/2017 11:25:00 0.0
2017_11_21_S27 11/21/2017 11:30:00 0.0
2017_11_21_S27 11/21/2017 11:35:00 0.0
2017_11_21_S27 11/21/2017 11:40:00 0.0
2017_11_21_S27 11/21/2017 11:45:00 0.0
2017_11_21_S27 11/21/2017 11:50:00 0.0
2017_11_21_S27 11/21/2017 11:55:00 0.0
2017_11_21_S27 11/21/2017 12:00:00 0.0
2017_11_21_S27 11/21/2017 12:05:00 0.0
2017_11_21_S27 11/21/2017 12:10:00 0.0
2017_11_21_S27 11/21/2017 12:15:00 0.0
2017_11_21_S27 11/21/2017 12:20:00 0.0
2017_11_21_S27 11/21/2017 12:25:00 0.0
2017_11_21_S27 11/21/2017 12:30:00 0.0
2017_11_21_S27 11/21/2017 12:35:00 0.0
2017_11_21_S27 11/21/2017 12:40:00 0.0
2017_11_21_S27 11/21/2017 12:45:00 0.0
2017_11_21_S27 11/21/2017 12:50:00 0.0
2017_11_21_S27 11/21/2017 12:55:00 0.0
2017_11_21_S27 11/21/2017 13:00:00 0.0
2017_11_21_S27 11/21/2017 13:05:00 0.0032
2017_11_21_S27 11/21/2017 13:10:00 0.0
2017_11_21_S27 11/21/2017 13:15:00 0.0
2017_11_21_S27 11/21/2017 13:20:00 0.0
2017_11_21_S27 11/21/2017 13:25:00 0.0
2017_11_21_S27 11/21/2017 13:30:00 0.0
2017_11_21_S27 11/21/2017 13:35:00 0.0
2017_11_21_S27 11/21/2017 13:40:00 0.0
2017_11_21_S27 11/21/2017 13:45:00 0.0
2017_11_21_S27 11/21/2017 13:50:00 0.0
2017_11_21_S27 11/21/2017 13:55:00 0.0
2017_11_21_S27 11/21/2017 14:00:00 0.0
2017_11_21_S27 11/21/2017 14:05:00 0.0
2017_11_21_S27 11/21/2017 14:10:00 0.0
2017_11_21_S27 11/21/2017 14:15:00 0.0
2017_11_21_S27 11/21/2017 14:20:00 0.0
2017_11_21_S27 11/21/2017 14:25:00 0.0
2017_11_21_S27 11/21/2017 14:30:00 0.0
2017_11_21_S27 11/21/2017 14:35:00 0.0
2017_11_21_S27 11/21/2017 14:40:00 0.0
2017_11_21_S27 11/21/2017 14:45:00 0.0
2017_11_21_S27 11/21/2017 14:50:00 0.0
2017_11_21_S27 11/21/2017 14:55:00 0.0
2017_11_21_S27 11/21/2017 15:00:00 0.0
2017_11_21_S27 11/21/2017 15:05:00 0.0
2017_11_21_S27 11/21/2017 15:10:00 0.0
2017_11_21_S27 11/21/2017 15:15:00 0.0
2017_11_21_S27 11/21/2017 15:20:00 0.0
2017_11_21_S27 11/21/2017 15:25:00 0.0
2017_11_21_S27 11/21/2017 15:30:00 0.0
2017_11_21_S27 11/21/2017 15:35:00 0.0
2017_11_21_S27 11/21/2017 15:40:00 0.0
2017_11_21_S27 11/21/2017 15:45:00 0.0
2017_11_21_S27 11/21/2017 15:50:00 0.0
2017_11_21_S27 11/21/2017 15:55:00 0.0
2017_11_21_S27 11/21/2017 16:00:00 0.0
2017_11_21_S27 11/21/2017 16:05:00 0.0
2017_11_21_S27 11/21/2017 16:10:00 0.0
2017_11_21_S27 11/21/2017 16:15:00 0.0
2017_11_21_S27 11/21/2017 16:20:00 0.0
2017_11_21_S27 11/21/2017 16:25:00 0.0
2017_11_21_S27 11/21/2017 16:30:00 0.0
2017_11_21_S27 11/21/2017 16:35:00 0.0
2017_11_21_S27 11/21/2017 16:40:00 0.0
2017_11_21_S27 11/21/2017 16:45:00 0.0
2017_11_21_S27 11/21/2017 16:50:00 0.0
2017_11_21_S27 11/21/2017 16:55:00 0.0
2017_11_21_S27 11/21/2017 17:00:00 0.0
2017_11_21_S27 11/21/2017 17:05:00 0.0
2017_11_21_S27 11/21/2017 17:10:00 0.0
2017_11_21_S27 11/21/2017 17:15:00 0.0
2017_11_21_S27 11/21/2017 17:20:00 0.0
2017_11_21_S27 11/21/2017 17:25:00 0.0
2017_11_21_S27 11/21/2017 17:30:00 0.0
2017_11_21_S27 11/21/2017 17:35:00 0.0
2017_11_21_S27 11/21/2017 17:40:00 0.0
2017_11_21_S27 11/21/2017 17:45:00 0.0
2017_11_21_S27 11/21/2017 17:50:00 0.0
2017_11_21_S27 11/21/2017 17:55:00 0.0
2017_11_21_S27 11/21/2017 18:00:00 0.0
2017_11_21_S27 11/21/2017 18:05:00 0.0
2017_11_21_S27 11/21/2017 18:10:00 0.0
2017_11_21_S27 11/21/2017 18:15:00 0.0
2017_11_21_S27 11/21/2017 18:20:00 0.0
2017_11_21_S27 11/21/2017 18:25:00 0.0
2017_11_21_S27 11/21/2017 18:30:00 0.0
2017_11_21_S27 11/21/2017 18:35:00 0.0
2017_11_21_S27 11/21/2017 18:40:00 0.0
2017_11_21_S27 11/21/2017 18:45:00 0.0
2017_11_21_S27 11/21/2017 18:50:00 0.0
2017_11_21_S27 11/21/2017 18:55:00 0.0
2017_11_21_S27 11/21/2017 19:00:00 0.0
2017_11_21_S27 11/21/2017 19:05:00 0.0
2017_11_21_S27 11/21/2017 19:10:00 0.0
2017_11_21_S27 11/21/2017 19:15:00 0.0
2017_11_21_S27 11/21/2017 19:20:00 0.0
2017_11_21_S27 11/21/2017 19:25:00 0.0
2017_11_21_S27 11/21/2017 19:30:00 0.0
2017_11_21_S27 11/21/2017 19:35:00 0.0
2017_11_21_S27 11/21/2017 19:40:00 0.0
2017_11_21_S27 11/21/2017 19:45:00 0.0
2017_11_21_S27 11/21/2017 19:50:00 0.0
2017_11_21_S27 11/21/2017 19:55:00 0.0
2017_11_21_S27 11/21/2017 20:00:00 0.0
2017_11_21_S27 11/21/2017 20:05:00 0.0
2017_11_21_S27 11/21/2017 20:10:00 0.0
2017_11_21_S27 11/21/2017 20:15:00 0.0
2017_11_21_S27 11/21/2017 20:20:00 0.0
2017_11_21_S27 11/21/2017 20:25:00 0.0
2017_11_21_S27 11/21/2017 20:30:00 0.0
2017_11_21_S27 11/21/2017 20:35:00 0.0
2017_11_21_S27 11/21/2017 20:40:00 0.0
2017_11_21_S27 11/21/2017 20:45:00 0.0
2017_11_21_S27 11/21/2017 20:50:00 0.0
2017_11_21_S27 11/21/2017 20:55:00 0.0
2017_11_21_S27 11/21/2017 21:00:00 0.0
2017_11_21_S27 11/21/2017 21:05:00 0.0
2017_11_21_S27 11/21/2017 21:10:00 0.0
2017_11_21_S27 11/21/2017 21:15:00 0.0
2017_11_21_S27 11/21/2017 21:20:00 0.0
2017_11_21_S27 11/21/2017 21:25:00 0.0
2017_11_21_S27 11/21/2017 21:30:00 0.0
2017_11_21_S27 11/21/2017 21:35:00 0.0
2017_11_21_S27 11/21/2017 21:40:00 0.0
2017_11_21_S27 11/21/2017 21:45:00 0.0
2017_11_21_S27 11/21/2017 21:50:00 0.0021
2017_11_21_S27 11/21/2017 21:55:00 0.0
2017_11_21_S27 11/21/2017 22:00:00 0.0
2017_11_21_S27 11/21/2017 22:05:00 0.0
2017_11_21_S27 11/21/2017 22:10:00 0.0
2017_11_21_S27 11/21/2017 22:15:00 0.0
2017_11_21_S27 11/21/2017 22:20:00 0.0
2017_11_21_S27 11/21/2017 22:25:00 0.0
2017_11_21_S27 11/21/2017 22:30:00 0.0
2017_11_21_S27 11/21/2017 22:35:00 0.0
2017_11_21_S27 11/21/2017 22:40:00 0.0001
2017_11_21_S27 11/21/2017 22:45:00 0.0
2017_11_21_S27 11/21/2017 22:50:00 0.0039
2017_11_21_S27 11/21/2017 22:55:00 0.0
2017_11_21_S27 11/21/2017 23:00:00 0.0
2017_11_21_S27 11/21/2017 23:05:00 0.0025
2017_11_21_S27 11/21/2017 23:10:00 0.0
2017_11_21_S27 11/21/2017 23:15:00 0.0063
2017_11_21_S27 11/21/2017 23:20:00 0.0
2017_11_21_S27 11/21/2017 23:25:00 0.0
2017_11_21_S27 11/21/2017 23:30:00 0.0
2017_11_21_S27 11/21/2017 23:35:00 0.0
2017_11_21_S27 11/21/2017 23:40:00 0.0
2017_11_21_S27 11/21/2017 23:45:00 0.0
2017_11_21_S27 11/21/2017 23:50:00 0.0
2017_11_21_S27 11/21/2017 23:55:00 0.0
2017_11_21_S27 11/22/2017 00:00:00 0.0
2017_11_21_S27 11/22/2017 00:05:00 0.0
2017_11_21_S27 11/22/2017 00:10:00 0.0
2017_11_21_S27 11/22/2017 00:15:00 0.0
2017_11_21_S27 11/22/2017 00:20:00 0.0
2017_11_21_S27 11/22/2017 00:25:00 0.0
2017_11_21_S27 11/22/2017 00:30:00 0.0
2017_11_21_S27 11/22/2017 00:35:00 0.0
2017_11_21_S27 11/22/2017 00:40:00 0.0
2017_11_21_S27 11/22/2017 00:45:00 0.0
2017_11_21_S27 11/22/2017 00:50:00 0.0
2017_11_21_S27 11/22/2017 00:55:00 0.0
2017_11_21_S27 11/22/2017 01:00:00 0.0
2017_11_21_S27 11/22/2017 01:05:00 0.0
2017_11_21_S27 11/22/2017 01:10:00 0.0
2017_11_21_S27 11/22/2017 01:15:00 0.0024
2017_11_21_S27 11/22/2017 01:20:00 0.0045
2017_11_21_S27 11/22/2017 01:25:00 0.0
2017_11_21_S27 11/22/2017 01:30:00 0.0
2017_11_21_S27 11/22/2017 01:35:00 0.0003
2017_11_21_S27 11/22/2017 01:40:00 0.0
2017_11_21_S27 11/22/2017 01:45:00 0.0134
2017_11_21_S27 11/22/2017 01:50:00 0.0002
2017_11_21_S27 11/22/2017 01:55:00 0.0
2017_11_21_S27 11/22/2017 02:00:00 0.001
2017_11_21_S27 11/22/2017 02:05:00 0.0
2017_11_21_S27 11/22/2017 02:10:00 0.0
2017_11_21_S27 11/22/2017 02:15:00 0.0
2017_11_21_S27 11/22/2017 02:20:00 0.0
2017_11_21_S27 11/22/2017 02:25:00 0.0
2017_11_21_S27 11/22/2017 02:30:00 0.0001
2017_11_21_S27 11/22/2017 02:35:00 0.0
2017_11_21_S27 11/22/2017 02:40:00 0.0
2017_11_21_S27 11/22/2017 02:45:00 0.0
2017_11_21_S27 11/22/2017 02:50:00 0.0
2017_11_21_S27 11/22/2017 02:55:00 0.0
2017_11_21_S27 11/22/2017 03:00:00 0.0
2017_11_21_S27 11/22/2017 03:05:00 0.0
2017_11_21_S27 11/22/2017 03:10:00 0.0
2017_11_21_S27 11/22/2017 03:15:00 0.0
2017_11_21_S27 11/22/2017 03:20:00 0.0
2017_11_21_S27 11/22/2017 03:25:00 0.0
2017_11_21_S27 11/22/2017 03:30:00 0.0
2017_11_21_S27 11/22/2017 03:35:00 0.0
2017_11_21_S27 11/22/2017 03:40:00 0.0
2017_11_21_S27 11/22/2017 03:45:00 0.0
2017_11_21_S27 11/22/2017 03:50:00 0.0
2017_11_21_S27 11/22/2017 03:55:00 0.0
2017_11_21_S27 11/22/2017 04:00:00 0.0
2017_11_21_S27 11/22/2017 04:05:00 0.0
2017_11_21_S27 11/22/2017 04:10:00 0.0
2017_11_21_S27 11/22/2017 04:15:00 0.0
2017_11_21_S27 11/22/2017 04:20:00 0.0
2017_11_21_S27 11/22/2017 04:25:00 0.0
2017_11_21_S27 11/22/2017 04:30:00 0.0
2017_11_21_S27 11/22/2017 04:35:00 0.0
2017_11_21_S27 11/22/2017 04:40:00 0.0
2017_11_21_S27 11/22/2017 04:45:00 0.0
2017_11_21_S27 11/22/2017 04:50:00 0.0
2017_11_21_S27 11/22/2017 04:55:00 0.0
2017_11_21_S27 11/22/2017 05:00:00 0.0
2017_11_21_S27 11/22/2017 05:05:00 0.0
2017_11_21_S27 11/22/2017 05:10:00 0.0
2017_11_21_S27 11/22/2017 05:15:00 0.0
2017_11_21_S27 11/22/2017 05:20:00 0.0
2017_11_21_S27 11/22/2017 05:25:00 0.0
2017_11_21_S27 11/22/2017 05:30:00 0.0
2017_11_21_S27 11/22/2017 05:35:00 0.0
2017_11_21_S27 11/22/2017 05:40:00 0.0
2017_11_21_S27 11/22/2017 05:45:00 0.0
2017_11_21_S27 11/22/2017 05:50:00 0.0
2017_11_21_S27 11/22/2017 05:55:00 0.0
2017_11_21_S27 11/22/2017 06:00:00 0.0
2017_11_21_S27 11/22/2017 06:05:00 0.0
2017_11_21_S27 11/22/2017 06:10:00 0.0
2017_11_21_S27 11/22/2017 06:15:00 0.0
2017_11_21_S27 11/22/2017 06:20:00 0.0
2017_11_21_S27 11/22/2017 06:25:00 0.0
2017_11_21_S27 11/22/2017 06:30:00 0.0
2017_11_21_S27 11/22/2017 06:35:00 0.0
2017_11_21_S27 11/22/2017 06:40:00 0.0
2017_11_21_S27 11/22/2017 06:45:00 0.0
2017_11_21_S27 11/22/2017 06:50:00 0.0
2017_11_21_S27 11/22/2017 06:55:00 0.0
2017_11_21_S27 11/22/2017 07:00:00 0.0
2017_11_21_S27 11/22/2017 07:05:00 0.0
2017_11_21_S27 11/22/2017 07:10:00 0.0
2017_11_21_S27 11/22/2017 07:15:00 0.0
2017_11_21_S27 11/22/2017 07:20:00 0.0
2017_11_21_S27 11/22/2017 07:25:00 0.0
2017_11_21_S27 11/22/2017 07:30:00 0.0
2017_11_21_S27 11/22/2017 07:35:00 0.0
2017_11_21_S27 11/22/2017 07:40:00 0.0
2017_11_21_S27 11/22/2017 07:45:00 0.0
2017_11_21_S27 11/22/2017 07:50:00 0.0
2017_11_21_S27 11/22/2017 07:55:00 0.0
2017_11_21_S27 11/22/2017 08:00:00 0.0

2017_11_21_S28 11/20/2017 22:55:00 0.0198
2017_11_21_S28 11/20/2017 23:00:00 1.3525
2017_11_21_S28 11/20/2017 23:05:00 0.1619
2017_11_21_S28 11/20/2017 23:10:00 0.1765
2017_11_21_S28 11/20/2017 23:15:00 0.0
2017_11_21_S28 11/20/2017 23:20:00 0.0
2017_11_21_S28 11/20/2017 23:25:00 0.0
2017_11_21_S28 11/20/2017 23:30:00 0.0
2017_11_21_S28 11/20/2017 23:35:00 0.0
2017_11_21_S28 11/20/2017 23:40:00 0.0
2017_11_21_S28 11/20/2017 23:45:00 0.0
2017_11_21_S28 11/20/2017 23:50:00 0.0
2017_11_21_S28 11/20/2017 23:55:00 0.0
2017_11_21_S28 11/21/2017 00:00:00 0.0
2017_11_21_S28 11/21/2017 00:05:00 0.0
2017_11_21_S28 11/21/2017 00:10:00 0.0
2017_11_21_S28 11/21/2017 00:15:00 0.0
2017_11_21_S28 11/21/2017 00:20:00 0.0
2017_11_21_S28 11/21/2017 00:25:00 0.0
2017_11_21_S28 11/21/2017 00:30:00 0.0
2017_11_21_S28 11/21/2017 00:35:00 0.0
2017_11_21_S28 11/21/2017 00:40:00 0.0
2017_11_21_S28 11/21/2017 00:45:00 0.0
2017_11_21_S28 11/21/2017 00:50:00 0.0
2017_11_21_S28 11/21/2017 00:55:00 0.0
2017_11_21_S28 11/21/2017 01:00:00 0.0
2017_11_21_S28 11/21/2017 01:05:00 0.0
2017_11_21_S28 11/21/2017 01:10:00 0.0
2017_11_21_S28 11/21/2017 01:15:00 0.0416
2017_11_21_S28 11/21/2017 01:20:00 1.551
2017_11_21_S28 11/21/2017 01:25:00 0.0257
2017_11_21_S28 11/21/2017 01:30:00 0.0143
2017_11_21_S28 11/21/2017 01:35:00 0.0113
2017_11_21_S28 11/21/2017 01:40:00 0.0001
2017_11_21_S28 11/21/2017 01:45:00 0.0
2017_11_21_S28 11/21/2017 01:50:00 0.0
2017_11_21_S28 11/21/2017 01:55:00 0.0
2017_11_21_S28 11/21/2017 02:00:00 0.0
2017_11_21_S28 11/21/2017 02:05:00 0.019
2017_11_21_S28 11/21/2017 02:10:00 0.0
2017_11_21_S28 11/21/2017 02:15:00 0.1392
2017_11_21_S28 11/21/2017 02:20:00 0.0
2017_11_21_S28 11/21/2017 02:25:00 0.0008
2017_11_21_S28 11/21/2017 02:30:00 0.0
2017_11_21_S28 11/21/2017 02:35:00 0.1275
2017_11_21_S28 11/21/2017 02:40:00 0.0388
2017_11_21_S28 11/21/2017 02:45:00 0.1355
2017_11_21_S28 11/21/2017 02:50:00 0.0
2017_11_21_S28 11/21/2017 02:55:00 0.0
2017_11_21_S28 11/21/2017 03:00:00 0.0
2017_11_21_S28 11/21/2017 03:05:00 0.3313
2017_11_21_S28 11/21/2017 03:10:00 2.3227
2017_11_21_S28 11/21/2017 03:15:00 0.0
2017_11_21_S28 11/21/2017 03:20:00 0.3175
2017_11_21_S28 11/21/2017 03:25:00 0.5825
2017_11_21_S28 11/21/2017 03:30:00 0.0692
2017_11_21_S28 11/21/2017 03:35:00 0.1691
2017_11_21_S28 11/21/2017 03:40:00 0.0734
2017_11_21_S28 11/21/2017 03:45:00 0.031
2017_11_21_S28 11/21/2017 03:50:00 0.0565
2017_11_21_S28 11/21/2017 03:55:00 0.0877
2017_11_21_S28 11/21/2017 04:00:00 0.0265
2017_11_21_S28 11/21/2017 04:05:00 0.0221
2017_11_21_S28 11/21/2017 04:10:00 0.0001
2017_11_21_S28 11/21/2017 04:15:00 0.0402
2017_11_21_S28 11/21/2017 04:20:00 0.0077
2017_11_21_S28 11/21/2017 04:25:00 0.0165
2017_11_21_S28 11/21/2017 04:30:00 0.2739
2017_11_21_S28 11/21/2017 04:35:00 0.0921
2017_11_21_S28 11/21/2017 04:40:00 0.0328
2017_11_21_S28 11/21/2017 04:45:00 0.0
2017_11_21_S28 11/21/2017 04:50:00 0.0
2017_11_21_S28 11/21/2017 04:55:00 0.0
2017_11_21_S28 11/21/2017 05:00:00 0.0
2017_11_21_S28 11/21/2017 05:05:00 0.0
2017_11_21_S28 11/21/2017 05:10:00 0.0
2017_11_21_S28 11/21/2017 05:15:00 0.668
2017_11_21_S28 11/21/2017 05:20:00 3.1039
2017_11_21_S28 11/21/2017 05:25:00 1.1832
2017_11_21_S28 11/21/2017 05:30:00 2.0535
2017_11_21_S28 11/21/2017 05:35:00 0.5426
2017_11_21_S28 11/21/2017 05:40:00 0.0121
2017_11_21_S28 11/21/2017 05:45:00 0.0
2017_11_21_S28 11/21/2017 05:50:00 0.0
2017_11_21_S28 11/21/2017 05:55:00 0.0
2017_11_21_S28 11/21/2017 06:00:00 0.0
2017_11_21_S28 11/21/2017 06:05:00 0.0053
2017_11_21_S28 11/21/2017 06:10:00 0.0
2017_11_21_S28 11/21/2017 06:15:00 0.0
2017_11_21_S28 11/21/2017 06:20:00 0.0
2017_11_21_S28 11/21/2017 06:25:00 0.0
2017_11_21_S28 11/21/2017 06:30:00 0.0
2017_11_21_S28 11/21/2017 06:35:00 0.0
2017_11_21_S28 11/21/2017 06:40:00 0.0
2017_11_21_S28 11/21/2017 06:45:00 0.0
2017_11_21_S28 11/21/2017 06:50:00 0.0
2017_11_21_S28 11/21/2017 06:55:00 0.0
2017_11_21_S28 11/21/2017 07:00:00 0.0
2017_11_21_S28 11/21/2017 07:05:00 0.0
2017_11_21_S28 11/21/2017 07:10:00 0.0
2017_11_21_S28 11/21/2017 07:15:00 0.0
2017_11_21_S28 11/21/2017 07:20:00 0.0
2017_11_21_S28 11/21/2017 07:25:00 0.0
2017_11_21_S28 11/21/2017 07:30:00 0.0
2017_11_21_S28 11/21/2017 07:35:00 0.0
2017_11_21_S28 11/21/2017 07:40:00 0.0
2017_11_21_S28 11/21/2017 07:45:00 0.0
2017_11_21_S28 11/21/2017 07:50:00 0.0
2017_11_21_S28 11/21/2017 07:55:00 0.0027
2017_11_21_S28 11/21/2017 08:00:00 0.3614
2017_11_21_S28 11/21/2017 08:05:00 0.0443
2017_11_21_S28 11/21/2017 08:10:00 0.0
2017_11_21_S28 11/21/2017 08:15:00 0.0006
2017_11_21_S28 11/21/2017 08:20:00 0.0
2017_11_21_S28 11/21/2017 08:25:00 0.0001
2017_11_21_S28 11/21/2017 08:30:00 4.2846
2017_11_21_S28 11/21/2017 08:35:00 1.8832
2017_11_21_S28 11/21/2017 08:40:00 1.1488
2017_11_21_S28 11/21/2017 08:45:00 0.0805
2017_11_21_S28 11/21/2017 08:50:00 0.0
2017_11_21_S28 11/21/2017 08:55:00 0.0
2017_11_21_S28 11/21/2017 09:00:00 0.0
2017_11_21_S28 11/21/2017 09:05:00 0.0
2017_11_21_S28 11/21/2017 09:10:00 0.0
2017_11_21_S28 11/21/2017 09:15:00 0.0
2017_11_21_S28 11/21/2017 09:20:00 0.0
2017_11_21_S28 11/21/2017 09:25:00 0.0
2017_11_21_S28 11/21/2017 09:30:00 0.0
2017_11_21_S28 11/21/2017 09:35:00 0.0
2017_11_21_S28 11/21/2017 09:40:00 0.0
2017_11_21_S28 11/21/2017 09:45:00 0.0
2017_11_21_S28 11/21/2017 09:50:00 0.053
2017_11_21_S28 11/21/2017 09:55:00 0.8036
2017_11_21_S28 11/21/2017 10:00:00 0.0381
2017_11_21_S28 11/21/2017 10:05:00 0.0095
2017_11_21_S28 11/21/2017 10:10:00 0.0209
2017_11_21_S28 11/21/2017 10:15:00 0.089
2017_11_21_S28 11/21/2017 10:20:00 0.0
2017_11_21_S28 11/21/2017 10:25:00 0.0
2017_11_21_S28 11/21/2017 10:30:00 0.0
2017_11_21_S28 11/21/2017 10:35:00 0.0
2017_11_21_S28 11/21/2017 10:40:00 0.0
2017_11_21_S28 11/21/2017 10:45:00 0.0
2017_11_21_S28 11/21/2017 10:50:00 0.0
2017_11_21_S28 11/21/2017 10:55:00 0.0
2017_11_21_S28 11/21/2017 11:00:00 0.0
2017_11_21_S28 11/21/2017 11:05:00 0.0
2017_11_21_S28 11/21/2017 11:10:00 0.0
2017_11_21_S28 11/21/2017 11:15:00 0.0
2017_11_21_S28 11/21/2017 11:20:00 0.0
2017_11_21_S28 11/21/2017 11:25:00 0.0
2017_11_21_S28 11/21/2017 11:30:00 0.0
2017_11_21_S28 11/21/2017 11:35:00 0.0
2017_11_21_S28 11/21/2017 11:40:00 0.0
2017_11_21_S28 11/21/2017 11:45:00 0.0
2017_11_21_S28 11/21/2017 11:50:00 0.0
2017_11_21_S28 11/21/2017 11:55:00 0.0
2017_11_21_S28 11/21/2017 12:00:00 0.0
2017_11_21_S28 11/21/2017 12:05:00 0.0
2017_11_21_S28 11/21/2017 12:10:00 0.0
2017_11_21_S28 11/21/2017 12:15:00 0.0
2017_11_21_S28 11/21/2017 12:20:00 0.0
2017_11_21_S28 11/21/2017 12:25:00 0.0
2017_11_21_S28 11/21/2017 12:30:00 0.0
2017_11_21_S28 11/21/2017 12:35:00 0.0
2017_11_21_S28 11/21/2017 12:40:00 0.0
2017_11_21_S28 11/21/2017 12:45:00 0.0
2017_11_21_S28 11/21/2017 12:50:00 0.0
2017_11_21_S28 11/21/2017 12:55:00 0.0
2017_11_21_S28 11/21/2017 13:00:00 0.0
2017_11_21_S28 11/21/2017 13:05:00 0.0
2017_11_21_S28 11/21/2017 13:10:00 0.0
2017_11_21_S28 11/21/2017 13:15:00 0.0
2017_11_21_S28 11/21/2017 13:20:00 0.0
2017_11_21_S28 11/21/2017 13:25:00 0.0
2017_11_21_S28 11/21/2017 13:30:00 0.0
2017_11_21_S28 11/21/2017 13:35:00 0.0
2017_11_21_S28 11/21/2017 13:40:00 0.0
2017_11_21_S28 11/21/2017 13:45:00 0.0
2017_11_21_S28 11/21/2017 13:50:00 0.0
2017_11_21_S28 11/21/2017 13:55:00 0.0
2017_11_21_S28 11/21/2017 14:00:00 0.0
2017_11_21_S28 11/21/2017 14:05:00 0.0
2017_11_21_S28 11/21/2017 14:10:00 0.0
2017_11_21_S28 11/21/2017 14:15:00 0.0
2017_11_21_S28 11/21/2017 14:20:00 0.0
2017_11_21_S28 11/21/2017 14:25:00 0.0
2017_11_21_S28 11/21/2017 14:30:00 0.0
2017_11_21_S28 11/21/2017 14:35:00 0.0
2017_11_21_S28 11/21/2017 14:40:00 0.0
2017_11_21_S28 11/21/2017 14:45:00 0.0
2017_11_21_S28 11/21/2017 14:50:00 0.0
2017_11_21_S28 11/21/2017 14:55:00 0.0
2017_11_21_S28 11/21/2017 15:00:00 0.0
2017_11_21_S28 11/21/2017 15:05:00 0.0
2017_11_21_S28 11/21/2017 15:10:00 0.0
2017_11_21_S28 11/21/2017 15:15:00 0.0
2017_11_21_S28 11/21/2017 15:20:00 0.0
2017_11_21_S28 11/21/2017 15:25:00 0.0
2017_11_21_S28 11/21/2017 15:30:00 0.0
2017_11_21_S28 11/21/2017 15:35:00 0.0
2017_11_21_S28 11/21/2017 15:40:00 0.0
2017_11_21_S28 11/21/2017 15:45:00 0.0
2017_11_21_S28 11/21/2017 15:50:00 0.0
2017_11_21_S28 11/21/2017 15:55:00 0.0
2017_11_21_S28 11/21/2017 16:00:00 0.0
2017_11_21_S28 11/21/2017 16:05:00 0.0
2017_11_21_S28 11/21/2017 16:10:00 0.0
2017_11_21_S28 11/21/2017 16:15:00 0.0
2017_11_21_S28 11/21/2017 16:20:00 0.0
2017_11_21_S28 11/21/2017 16:25:00 0.0
2017_11_21_S28 11/21/2017 16:30:00 0.0
2017_11_21_S28 11/21/2017 16:35:00 0.0
2017_11_21_S28 11/21/2017 16:40:00 0.0
2017_11_21_S28 11/21/2017 16:45:00 0.0
2017_11_21_S28 11/21/2017 16:50:00 0.0
2017_11_21_S28 11/21/2017 16:55:00 0.0
2017_11_21_S28 11/21/2017 17:00:00 0.0
2017_11_21_S28 11/21/2017 17:05:00 0.0
2017_11_21_S28 11/21/2017 17:10:00 0.0
2017_11_21_S28 11/21/2017 17:15:00 0.0
2017_11_21_S28 11/21/2017 17:20:00 0.0
2017_11_21_S28 11/21/2017 17:25:00 0.0
2017_11_21_S28 11/21/2017 17:30:00 0.0
2017_11_21_S28 11/21/2017 17:35:00 0.0
2017_11_21_S28 11/21/2017 17:40:00 0.0
2017_11_21_S28 11/21/2017 17:45:00 0.0
2017_11_21_S28 11/21/2017 17:50:00 0.0
2017_11_21_S28 11/21/2017 17:55:00 0.0
2017_11_21_S28 11/21/2017 18:00:00 0.0
2017_11_21_S28 11/21/2017 18:05:00 0.0
2017_11_21_S28 11/21/2017 18:10:00 0.0
2017_11_21_S28 11/21/2017 18:15:00 0.0
2017_11_21_S28 11/21/2017 18:20:00 0.0
2017_11_21_S28 11/21/2017 18:25:00 0.0
2017_11_21_S28 11/21/2017 18:30:00 0.0
2017_11_21_S28 11/21/2017 18:35:00 0.0
2017_11_21_S28 11/21/2017 18:40:00 0.0
2017_11_21_S28 11/21/2017 18:45:00 0.0
2017_11_21_S28 11/21/2017 18:50:00 0.0
2017_11_21_S28 11/21/2017 18:55:00 0.0
2017_11_21_S28 11/21/2017 19:00:00 0.0
2017_11_21_S28 11/21/2017 19:05:00 0.0
2017_11_21_S28 11/21/2017 19:10:00 0.0
2017_11_21_S28 11/21/2017 19:15:00 0.0
2017_11_21_S28 11/21/2017 19:20:00 0.0
2017_11_21_S28 11/21/2017 19:25:00 0.0
2017_11_21_S28 11/21/2017 19:30:00 0.0
2017_11_21_S28 11/21/2017 19:35:00 0.0
2017_11_21_S28 11/21/2017 19:40:00 0.0
2017_11_21_S28 11/21/2017 19:45:00 0.0
2017_11_21_S28 11/21/2017 19:50:00 0.0
2017_11_21_S28 11/21/2017 19:55:00 0.0
2017_11_21_S28 11/21/2017 20:00:00 0.0
2017_11_21_S28 11/21/2017 20:05:00 0.0
2017_11_21_S28 11/21/2017 20:10:00 0.0
2017_11_21_S28 11/21/2017 20:15:00 0.0
2017_11_21_S28 11/21/2017 20:20:00 0.0
2017_11_21_S28 11/21/2017 20:25:00 0.0
2017_11_21_S28 11/21/2017 20:30:00 0.0
2017_11_21_S28 11/21/2017 20:35:00 0.0
2017_11_21_S28 11/21/2017 20:40:00 0.0
2017_11_21_S28 11/21/2017 20:45:00 0.0
2017_11_21_S28 11/21/2017 20:50:00 0.0
2017_11_21_S28 11/21/2017 20:55:00 0.0
2017_11_21_S28 11/21/2017 21:00:00 0.0
2017_11_21_S28 11/21/2017 21:05:00 0.0
2017_11_21_S28 11/21/2017 21:10:00 0.0
2017_11_21_S28 11/21/2017 21:15:00 0.0
2017_11_21_S28 11/21/2017 21:20:00 0.0
2017_11_21_S28 11/21/2017 21:25:00 0.0
2017_11_21_S28 11/21/2017 21:30:00 0.0
2017_11_21_S28 11/21/2017 21:35:00 0.0
2017_11_21_S28 11/21/2017 21:40:00 0.0
2017_11_21_S28 11/21/2017 21:45:00 0.0
2017_11_21_S28 11/21/2017 21:50:00 0.0
2017_11_21_S28 11/21/2017 21:55:00 0.0
2017_11_21_S28 11/21/2017 22:00:00 0.0
2017_11_21_S28 11/21/2017 22:05:00 0.0
2017_11_21_S28 11/21/2017 22:10:00 0.0
2017_11_21_S28 11/21/2017 22:15:00 0.0
2017_11_21_S28 11/21/2017 22:20:00 0.0
2017_11_21_S28 11/21/2017 22:25:00 0.0
2017_11_21_S28 11/21/2017 22:30:00 0.0
2017_11_21_S28 11/21/2017 22:35:00 0.0
2017_11_21_S28 11/21/2017 22:40:00 0.0
2017_11_21_S28 11/21/2017 22:45:00 0.0
2017_11_21_S28 11/21/2017 22:50:00 0.0062
2017_11_21_S28 11/21/2017 22:55:00 0.0
2017_11_21_S28 11/21/2017 23:00:00 0.0007
2017_11_21_S28 11/21/2017 23:05:00 0.0069
2017_11_21_S28 11/21/2017 23:10:00 0.0
2017_11_21_S28 11/21/2017 23:15:00 0.006
2017_11_21_S28 11/21/2017 23:20:00 0.0
2017_11_21_S28 11/21/2017 23:25:00 0.0
2017_11_21_S28 11/21/2017 23:30:00 0.0
2017_11_21_S28 11/21/2017 23:35:00 0.0
2017_11_21_S28 11/21/2017 23:40:00 0.0
2017_11_21_S28 11/21/2017 23:45:00 0.0
2017_11_21_S28 11/21/2017 23:50:00 0.0
2017_11_21_S28 11/21/2017 23:55:00 0.0
2017_11_21_S28 11/22/2017 00:00:00 0.0
2017_11_21_S28 11/22/2017 00:05:00 0.0
2017_11_21_S28 11/22/2017 00:10:00 0.0
2017_11_21_S28 11/22/2017 00:15:00 0.0
2017_11_21_S28 11/22/2017 00:20:00 0.0
2017_11_21_S28 11/22/2017 00:25:00 0.0
2017_11_21_S28 11/22/2017 00:30:00 0.0
2017_11_21_S28 11/22/2017 00:35:00 0.0
2017_11_21_S28 11/22/2017 00:40:00 0.0
2017_11_21_S28 11/22/2017 00:45:00 0.0
2017_11_21_S28 11/22/2017 00:50:00 0.0
2017_11_21_S28 11/22/2017 00:55:00 0.0
2017_11_21_S28 11/22/2017 01:00:00 0.0
2017_11_21_S28 11/22/2017 01:05:00 0.0
2017_11_21_S28 11/22/2017 01:10:00 0.0
2017_11_21_S28 11/22/2017 01:15:00 0.0059
2017_11_21_S28 11/22/2017 01:20:00 0.0
2017_11_21_S28 11/22/2017 01:25:00 0.0
2017_11_21_S28 11/22/2017 01:30:00 0.0
2017_11_21_S28 11/22/2017 01:35:00 0.0
2017_11_21_S28 11/22/2017 01:40:00 0.0
2017_11_21_S28 11/22/2017 01:45:00 0.0336
2017_11_21_S28 11/22/2017 01:50:00 0.0
2017_11_21_S28 11/22/2017 01:55:00 0.0
2017_11_21_S28 11/22/2017 02:00:00 0.0
2017_11_21_S28 11/22/2017 02:05:00 0.0
2017_11_21_S28 11/22/2017 02:10:00 0.0
2017_11_21_S28 11/22/2017 02:15:00 0.0
2017_11_21_S28 11/22/2017 02:20:00 0.0
2017_11_21_S28 11/22/2017 02:25:00 0.0
2017_11_21_S28 11/22/2017 02:30:00 0.0
2017_11_21_S28 11/22/2017 02:35:00 0.0
2017_11_21_S28 11/22/2017 02:40:00 0.0
2017_11_21_S28 11/22/2017 02:45:00 0.0
2017_11_21_S28 11/22/2017 02:50:00 0.0
2017_11_21_S28 11/22/2017 02:55:00 0.0
2017_11_21_S28 11/22/2017 03:00:00 0.0
2017_11_21_S28 11/22/2017 03:05:00 0.0
2017_11_21_S28 11/22/2017 03:10:00 0.0
2017_11_21_S28 11/22/2017 03:15:00 0.0
2017_11_21_S28 11/22/2017 03:20:00 0.0
2017_11_21_S28 11/22/2017 03:25:00 0.0
2017_11_21_S28 11/22/2017 03:30:00 0.0
2017_11_21_S28 11/22/2017 03:35:00 0.0
2017_11_21_S28 11/22/2017 03:40:00 0.0
2017_11_21_S28 11/22/2017 03:45:00 0.0
2017_11_21_S28 11/22/2017 03:50:00 0.0
2017_11_21_S28 11/22/2017 03:55:00 0.0
2017_11_21_S28 11/22/2017 04:00:00 0.0
2017_11_21_S28 11/22/2017 04:05:00 0.0
2017_11_21_S28 11/22/2017 04:10:00 0.0
2017_11_21_S28 11/22/2017 04:15:00 0.0
2017_11_21_S28 11/22/2017 04:20:00 0.0
2017_11_21_S28 11/22/2017 04:25:00 0.0
2017_11_21_S28 11/22/2017 04:30:00 0.0
2017_11_21_S28 11/22/2017 04:35:00 0.0
2017_11_21_S28 11/22/2017 04:40:00 0.0
2017_11_21_S28 11/22/2017 04:45:00 0.0
2017_11_21_S28 11/22/2017 04:50:00 0.0
2017_11_21_S28 11/22/2017 04:55:00 0.0
2017_11_21_S28 11/22/2017 05:00:00 0.0
2017_11_21_S28 11/22/2017 05:05:00 0.0
2017_11_21_S28 11/22/2017 05:10:00 0.0
2017_11_21_S28 11/22/2017 05:15:00 0.0
2017_11_21_S28 11/22/2017 05:20:00 0.0
2017_11_21_S28 11/22/2017 05:25:00 0.0
2017_11_21_S28 11/22/2017 05:30:00 0.0
2017_11_21_S28 11/22/2017 05:35:00 0.0
2017_11_21_S28 11/22/2017 05:40:00 0.0
2017_11_21_S28 11/22/2017 05:45:00 0.0
2017_11_21_S28 11/22/2017 05:50:00 0.0
2017_11_21_S28 11/22/2017 05:55:00 0.0
2017_11_21_S28 11/22/2017 06:00:00 0.0
2017_11_21_S28 11/22/2017 06:05:00 0.0
2017_11_21_S28 11/22/2017 06:10:00 0.0
2017_11_21_S28 11/22/2017 06:15:00 0.0
2017_11_21_S28 11/22/2017 06:20:00 0.0
2017_11_21_S28 11/22/2017 06:25:00 0.0
2017_11_21_S28 11/22/2017 06:30:00 0.0
2017_11_21_S28 11/22/2017 06:35:00 0.0
2017_11_21_S28 11/22/2017 06:40:00 0.0
2017_11_21_S28 11/22/2017 06:45:00 0.0
2017_11_21_S28 11/22/2017 06:50:00 0.0
2017_11_21_S28 11/22/2017 06:55:00 0.0
2017_11_21_S28 11/22/2017 07:00:00 0.0
2017_11_21_S28 11/22/2017 07:05:00 0.0
2017_11_21_S28 11/22/2017 07:10:00 0.0
2017_11_21_S28 11/22/2017 07:15:00 0.0
2017_11_21_S28 11/22/2017 07:20:00 0.0
2017_11_21_S28 11/22/2017 07:25:00 0.0
2017_11_21_S28 11/22/2017 07:30:00 0.0
2017_11_21_S28 11/22/2017 07:35:00 0.0
2017_11_21_S28 11/22/2017 07:40:00 0.0
2017_11_21_S28 11/22/2017 07:45:00 0.0
2017_11_21_S28 11/22/2017 07:50:00 0.0
2017_11_21_S28 11/22/2017 07:55:00 0.0
2017_11_21_S28 11/22/2017 08:00:00 0.0

;;____________________________________________________________________________________________________
[REPORT]
;;Reporting Options
SUBCATCHMENTS ALL
NODES ALL
LINKS ALL

;;____________________________________________________________________________________________________
[MAP]
DIMENSIONS 185865.396 673350.000 190772.001 679332.930
Units      Meters

;;____________________________________________________________________________________________________
[COORDINATES]
;;Node           X-Coord            Y-Coord           
;;-------------- ------------------ ------------------
J1               188416.573         678864.133        
J10              187876.949         676421.351        
J11              187771.585         676118.430        
J12              187745.244         675971.909        
J13              187705.733         675874.777        
J14              187172.330         676006.482        
J15              186808.496         675525.760        
J16              187588.852         675315.403        
J17              187325.287         674633.430        
J18              186976.064         674336.920        
J2               188485.717         678548.042        
J20              188922.377         677824.394        
J21              189159.110         677387.020        
J22              189116.281         676672.101        
J23              188928.977         676213.404        
J24              188829.655         675802.338        
J25              188998.163         675748.871        
J26              189650.485         676542.859        
J3               188483.151         678441.702        
J4               188316.513         677812.480        
J5               188232.551         677631.386        
J6               188137.065         677425.598        
J7               188104.139         677267.552        
J8               188018.531         676976.156        
J9               187918.106         676592.567        
O1               188423.158         679007.361

;;____________________________________________________________________________________________________
[VERTICES]
;;Link           X-Coord            Y-Coord           
;;-------------- ------------------ ------------------
C2               188487.548         678593.979        
C2               188403.586         678740.501        
C21              189211.773         677639.351        
C21              189047.045         677701.947        
C21              189037.161         677797.490        
C22              189218.362         677049.625        
C22              189093.169         677092.455        
C23              188968.026         676309.700        
C23              189040.506         676306.405        
C4               188383.830         677872.897        
C4               188365.721         677925.579        
C4               188360.782         678067.161        
C4               188415.110         678221.914        
C4               188480.962         678429.349        
C5               188251.288         677708.747

;;____________________________________________________________________________________________________
[POLYGONS]
;;Subcatchment   X-Coord            Y-Coord           
;;-------------- ------------------ ------------------
S01              187279.862         678858.156        
S01              187414.939         678805.443        
S01              187494.009         678798.854        
S01              187622.496         678838.389        
S01              187675.209         678818.621        
S01              187790.519         678812.032        
S01              187823.464         678848.272        
S01              187866.293         678854.861        
S01              187899.239         678868.040        
S01              187981.603         678802.148        
S01              188027.727         678798.854        
S01              188077.145         678805.443        
S01              188123.269         678821.916        
S01              188162.804         678844.978        
S01              188205.633         678861.450        
S01              188281.408         678874.629        
S01              188337.415         678910.869        
S01              188390.128         678950.403        
S01              188406.601         678999.822        
S01              188446.135         679009.705        
S01              188446.135         678980.054        
S01              188423.073         678854.861        
S01              188416.484         678756.025        
S01              188495.554         678591.297        
S01              188067.261         678535.289        
S01              187734.511         678525.406        
S01              187095.367         678528.700        
S01              187194.204         678607.770        
S01              187167.848         678634.126        
S01              187164.553         678680.250        
S01              187276.568         678841.683        
S02              188311.826         678562.991        
S02              188093.122         678531.748        
S02              187825.817         678517.862        
S02              187121.103         678531.748        
S02              187034.315         678455.375        
S02              186964.886         678427.603        
S02              187003.072         678170.712        
S02              186968.357         678125.583        
S02              186933.642         678021.438        
S02              186874.627         677899.935        
S02              186982.243         677882.578        
S02              187207.890         677858.277        
S02              187277.320         677872.163        
S02              187659.185         677872.163        
S02              188023.692         677865.220        
S02              188318.769         677851.334        
S02              188322.241         677934.650        
S02              188339.598         678087.396        
S02              188402.085         678212.370        
S02              188412.500         678292.215        
S02              188468.044         678431.074        
S02              188464.572         678583.820        
S03              186866.088         677850.375        
S03              186852.202         677826.075        
S03              186855.674         677753.174        
S03              186914.689         677610.842        
S03              186994.534         677586.542        
S03              187067.435         677558.770        
S03              187109.093         677503.226        
S03              187154.222         677492.811        
S03              187244.481         677524.055        
S03              187383.341         677562.241        
S03              187466.657         677576.127        
S03              187570.802         677534.469        
S03              187855.465         677503.226        
S03              187987.382         677548.355        
S03              188126.241         677635.143        
S03              188188.728         677697.630        
S03              188240.801         677718.459        
S03              188285.930         677774.003        
S03              188320.645         677843.432        
S03              187740.905         677857.318        
S03              187185.466         677846.904        
S03              186886.917         677878.147        
S04              187214.648         677432.470        
S04              187264.984         677411.641        
S04              187275.399         677323.118        
S04              187509.725         677234.595        
S04              187551.383         677357.833        
S04              187709.336         677323.118        
S04              187735.372         677366.512        
S04              187898.533         677333.532        
S04              187919.361         677422.056        
S04              188125.916         677369.983        
S04              188223.117         677611.252        
S04              188240.475         677727.547        
S04              188037.392         677592.159        
S04              187900.268         677515.786        
S04              187593.041         677538.351        
S04              187488.896         677571.330        
S04              187419.466         677571.330        
S04              187232.005         677514.050        
S05              187478.475         677233.098        
S05              187442.024         677106.389        
S05              187785.702         677003.980        
S05              187822.153         677102.917        
S05              187962.749         677075.145        
S05              187985.313         677113.332        
S05              188053.008         677106.389        
S05              188139.795         677359.808        
S05              187924.562         677406.673        
S05              187910.676         677325.093        
S05              187740.573         677354.601        
S05              187712.801         677323.357        
S05              187539.226         677342.450        
S05              187527.076         677264.342        
S05              187494.097         677220.948        
S06              186705.854         677552.926        
S06              186698.911         677467.875        
S06              186665.932         677434.896        
S06              186657.253         677073.860        
S06              186627.745         677021.788        
S06              186652.046         676938.472        
S06              187217.900         676783.990        
S06              187261.293         676910.700        
S06              187933.028         676740.596        
S06              188044.116         677108.575        
S06              187981.629         677118.989        
S06              187946.914         677089.482        
S06              187813.261         677125.932        
S06              187792.432         677009.637        
S06              187441.811         677108.575        
S06              187466.112         677242.228        
S06              187259.558         677320.336        
S06              187250.879         677412.331        
S06              187197.071         677408.859        
S06              187209.221         677500.854        
S06              187117.226         677493.911        
S06              187056.475         677565.077        
S06              186898.522         677613.678        
S06              186836.035         677537.305        
S06              186711.061         677559.869        
S07              186650.642         676928.193        
S07              186604.518         676855.713        
S07              186578.162         676763.466        
S07              186650.642         676608.621        
S07              186742.890         676457.072        
S07              186917.501         676407.654        
S07              186940.563         676473.545        
S07              187457.809         676331.879        
S07              187431.452         676256.104        
S07              187790.559         676147.384        
S07              187978.348         676727.226        
S07              187260.135         676921.604        
S07              187227.190         676786.528        
S07              186644.053         676931.488        
S08              186765.952         676443.894        
S08              186848.316         676364.824        
S08              186756.068         676249.515        
S08              186769.246         676239.631        
S08              187105.291         676134.205        
S08              187141.531         676018.896        
S08              187711.489         675864.052        
S08              187810.326         676144.089        
S08              187434.747         676236.337        
S08              187464.398         676331.879        
S08              186940.563         676476.839        
S08              186930.680         676407.654        
S08              186746.184         676453.777        
S09              186774.094         676232.497        
S09              187105.622         676117.938        
S09              187136.865         676013.793        
S09              187254.896         675973.871        
S09              187091.736         675496.540        
S09              186834.845         675557.291        
S09              186846.995         675678.794        
S09              186650.856         675720.452        
S09              186619.612         675847.161        
S09              186609.198         676031.151        
S09              186640.441         676112.731        
S09              186770.622         676249.855        
S10              186660.526         675669.673        
S10              186588.046         675623.549        
S10              186541.922         675534.596        
S10              186403.551         675514.829        
S10              186370.605         675465.410        
S10              186367.310         675386.341        
S10              186291.536         675359.985        
S10              186258.590         675294.094        
S10              186278.357         675261.148        
S10              186261.885         675211.730        
S10              186268.474         675089.831        
S10              186298.125         675116.188        
S10              186360.721         675053.591        
S10              186456.263         675040.413        
S10              186476.031         674967.932        
S10              186624.286         674911.925        
S10              186848.316         675053.591        
S10              186924.090         675231.497        
S10              186999.865         675521.418        
S10              186825.254         675551.069        
S10              186851.610         675676.262        
S10              186627.580         675722.386        
S11              186996.571         675488.472        
S11              186943.858         675290.799        
S11              186854.905         675066.769        
S11              186630.875         674921.809        
S11              186627.580         674625.299        
S11              186574.867         674526.462        
S11              186739.595         674302.432        
S11              186733.006         674167.355        
S11              187306.259         674061.929        
S11              187372.150         674028.984        
S11              187263.430         674529.756        
S11              187167.888         674533.051        
S11              187227.190         674895.452        
S11              187335.910         675228.202        
S11              187319.437         675310.566        
S11              187246.957         675392.930        
S11              187131.647         675491.767        
S11              186996.571         675514.829        
S12              186752.882         674155.010        
S12              187356.922         674047.394        
S12              187353.450         673849.518        
S12              187304.850         673898.119        
S12              187204.176         673918.948        
S12              187075.731         673936.306        
S12              187016.715         673842.575        
S12              186752.882         673832.161        
S12              186669.566         673905.062        
S12              186659.151         673932.834        
S12              186738.996         674016.150        
S12              186735.524         674144.595        
S13              187362.328         673864.932        
S13              187369.271         674069.750        
S13              187279.013         674527.988        
S13              187174.868         674538.402        
S13              187268.598         675059.126        
S13              187334.556         675257.002        
S13              187289.427         675357.675        
S13              187192.225         675434.048        
S13              187108.909         675472.235        
S13              187258.184         675968.659        
S13              187806.680         675833.270        
S13              187806.680         675753.426        
S13              188230.203         675645.809        
S13              188230.203         675562.493        
S13              188414.192         675562.493        
S13              188455.850         675007.054        
S13              188275.332         674850.837        
S13              188094.814         674753.635        
S13              188039.270         674538.402        
S13              187955.954         674462.029        
S13              187917.768         674267.625        
S13              187942.068         674205.138        
S13              187949.011         674062.807        
S13              187883.053         673996.849        
S13              187848.338         674000.320        
S13              187758.079         673962.134        
S13              187695.592         673812.859        
S13              187626.162         673764.258        
S13              187476.888         673788.559        
S13              187358.857         673864.932        
S14              187715.284         675871.166        
S14              187833.314         676235.673        
S14              188503.313         676062.098        
S14              188454.712         675905.881        
S14              188291.552         675912.824        
S14              188246.423         675659.404        
S14              187819.429         675756.606        
S14              187812.486         675857.280        
S14              187729.170         675874.637        
S15              188699.856         674898.747        
S15              188604.314         674846.034        
S15              188469.237         674987.700        
S15              188423.114         675570.836        
S15              188235.324         675560.953        
S15              188228.735         675643.317        
S15              188245.207         675705.913        
S15              188274.858         675722.386        
S15              188571.369         675643.317        
S15              188614.198         675794.866        
S15              189009.545         675705.913        
S15              189035.901         675788.277        
S15              189388.419         675323.745        
S15              189312.644         675336.923        
S15              189200.629         675307.272        
S15              189095.203         675191.962        
S15              189088.614         675014.056        
S15              188956.832         674974.522        
S15              188917.297         674872.390        
S15              188762.453         674859.212        
S15              188706.445         674905.336        
S16              189072.141         675738.859        
S16              189391.713         675310.566        
S16              189427.953         675336.923        
S16              189622.332         675336.923        
S16              189734.347         675373.163        
S16              189803.533         675313.861        
S16              189935.315         675458.821        
S16              189968.260         675633.433        
S16              189510.317         675653.200        
S16              189507.023         675808.044        
S16              189605.859         676018.896        
S16              189605.859         676068.314        
S16              189424.659         676078.198        
S16              189358.767         675775.099        
S16              189049.079         675775.099        
S17              188292.964         675915.061        
S17              188470.010         675880.346        
S17              188619.285         676414.957        
S17              188640.114         676418.428        
S17              189521.874         676165.009        
S17              189501.045         676078.221        
S17              189431.615         676071.278        
S17              189421.200         676046.978        
S17              189348.299         675779.673        
S17              189028.921         675793.559        
S17              189018.507         675724.129        
S17              188612.342         675803.973        
S17              188588.041         675661.642        
S17              188275.607         675734.543        
S17              188310.322         675911.590        
S18              187933.690         676600.013        
S18              187833.017         676245.920        
S18              188506.487         676075.817        
S18              188624.518         676422.967        
S18              187937.162         676596.541        
S19              188046.282         676980.558        
S19              188310.116         676883.356        
S19              188337.888         676956.257        
S19              188712.810         676865.998        
S19              188716.281         676848.641        
S19              188629.494         676588.278        
S19              188639.908         676439.004        
S19              187931.723         676602.164        
S19              188046.282         676977.086        
S20              188151.099         677391.191        
S20              188699.596         677300.932        
S20              188692.653         677186.373        
S20              188786.383         677148.186        
S20              188716.953         676839.223        
S20              188345.503         676960.726        
S20              188314.260         676898.239        
S20              188046.954         676967.669        
S20              188151.099         677384.248        
S21              188644.301         676422.695        
S21              188630.415         676474.768        
S21              188717.202         676811.503        
S21              188800.518         677141.295        
S21              189776.009         676901.762        
S21              189633.677         676290.778        
S21              189592.019         676075.545        
S21              189505.232         676072.074        
S21              189519.118         676186.633        
S21              188640.829         676433.110        
S22              189609.358         676094.851        
S22              189796.819         676879.409        
S22              189828.062         676993.969        
S22              189848.891         676948.839        
S22              189921.793         676855.109        
S22              189977.337         676827.337        
S22              190053.710         676733.606        
S22              190119.668         676695.420        
S22              190185.627         676695.420        
S22              190268.943         676636.404        
S22              190362.673         676660.705        
S22              190432.103         676594.746        
S22              190452.932         676521.845        
S22              190425.160         676476.716        
S22              190553.605         676386.457        
S22              190557.077         676303.141        
S22              190494.590         676202.467        
S22              190525.833         676060.136        
S22              190515.419         675955.991        
S22              190414.745         675865.732        
S22              190161.326         675667.857        
S22              190088.425         675695.629        
S22              189977.337         675640.085        
S22              189522.571         675647.028        
S22              189508.685         675792.831        
S22              189619.773         676063.608        
S23              188878.835         677825.274        
S23              188944.793         677832.217        
S23              189187.798         677755.844        
S23              189392.616         677717.657        
S23              189691.165         677696.828        
S23              189684.222         677578.797        
S23              189760.595         677540.611        
S23              189750.181         677429.523        
S23              189718.937         677349.679        
S23              189791.838         677269.834        
S23              189798.781         677040.716        
S23              189777.953         676922.685        
S23              188944.793         677134.446        
S23              188965.622         677262.891        
S23              188913.550         677262.891        
S23              188930.907         677495.482        
S23              188885.778         677498.953        
S23              188861.477         677825.274        
S24              188340.468         677855.197        
S24              188784.820         677851.726        
S24              188868.135         677834.368        
S24              188864.664         677511.519        
S24              188923.679         677490.690        
S24              188902.850         677261.571        
S24              188951.451         677258.100        
S24              188947.980         677140.069        
S24              188916.736         677140.069        
S24              188708.447         677209.499        
S24              188684.146         677615.664        
S24              188267.567         677671.208        
S24              188333.525         677855.197        
S25              188250.451         677657.676        
S25              188691.331         677605.603        
S25              188691.331         677588.246        
S25              188698.274         677463.272        
S25              188712.160         677400.785        
S25              188705.217         677310.526        
S25              188160.192         677386.899        
S25              188246.979         677654.204        
S26              188709.123         678042.797        
S26              188719.538         677869.222        
S26              188820.211         677876.165        
S26              188861.869         677844.922        
S26              189007.672         677820.621        
S26              189299.278         677747.720        
S26              189688.085         677681.761        
S26              189698.500         677713.005        
S26              189681.142         677855.336        
S26              189629.070         677980.310        
S26              189483.267         678126.113        
S26              189313.163         678122.641        
S26              189268.034         678146.942        
S26              189014.615         678136.527        
S26              189004.200         678098.341        
S26              188702.180         678042.797        
S27              188509.779         678591.953        
S27              188617.395         678623.196        
S27              188929.830         678640.554        
S27              188884.700         679064.076        
S27              188981.902         679039.776        
S27              189207.550         679022.419        
S27              189259.622         678970.346        
S27              189419.311         678959.932        
S27              189467.912         678932.160        
S27              189471.383         678817.600        
S27              189433.197         678758.585        
S27              189502.627         678720.398        
S27              189572.057         678682.212        
S27              189596.357         678598.896        
S27              189565.114         678581.538        
S27              189526.927         678539.881        
S27              189509.570         678456.565        
S27              189471.383         678383.663        
S27              189471.383         678144.130        
S27              189308.223         678123.301        
S27              189290.866         678161.487        
S27              189006.203         678147.601        
S27              189009.674         678105.943        
S27              188714.597         678050.400        
S27              188718.069         677883.768        
S27              188363.976         677855.996        
S27              188363.976         677883.768        
S27              188377.862         678060.814        
S27              188409.105         678137.187        
S27              188475.064         678376.720        
S27              188506.307         678598.896        
S28              188431.500         678929.384        
S28              188415.027         678744.888        
S28              188474.329         678599.928        
S28              188569.871         678616.401        
S28              188747.777         678636.168        
S28              188849.908         678639.463        
S28              188909.210         678622.990        
S28              188912.505         678688.881        
S28              188892.738         678850.314        
S28              188863.087         679061.166        
S28              188635.762         679067.755        
S28              188606.111         679051.282        
S28              188507.274         678988.686        
S28              188434.794         678988.686

;;____________________________________________________________________________________________________
[SYMBOLS]
;;Gage           X-Coord            Y-Coord           
;;-------------- ------------------ ------------------

;;____________________________________________________________________________________________________
[BACKDROP]
FILE       "raanana_24subcatchments.png"
DIMENSIONS 185865.396 673350.000 190728.391 679250.737