[TITLE]
;;Project Title/Notes

;;____________________________________________________________________________________________________
[OPTIONS]
FLOW_UNITS           CMS
INFILTRATION         CURVE_NUMBER
FLOW_ROUTING         DYNWAVE
LINK_OFFSETS         DEPTH
MIN_SLOPE            0
ALLOW_PONDING        NO
SKIP_STEADY_STATE    NO
START_DATE           01/14/2018
START_TIME           15:00:00
REPORT_START_DATE    01/14/2018
REPORT_START_TIME    15:00:00
END_DATE             01/14/2018
END_TIME             22:00:00
SWEEP_START          01/01
SWEEP_END            12/31
DRY_DAYS             0
REPORT_STEP          00:05:00
WET_STEP             00:05:00
DRY_STEP             01:00:00
ROUTING_STEP         0:00:20
RULE_STEP            00:00:00
INERTIAL_DAMPING     PARTIAL
NORMAL_FLOW_LIMITED  BOTH
FORCE_MAIN_EQUATION  H-W
VARIABLE_STEP        0.75
LENGTHENING_STEP     0
MIN_SURFAREA         1.167
MAX_TRIALS           8
HEAD_TOLERANCE       0.0015
SYS_FLOW_TOL         5
LAT_FLOW_TOL         5
MINIMUM_STEP         0.5
THREADS              1

;;____________________________________________________________________________________________________
[EVAPORATION]
CONSTANT  4
DRY_ONLY  NO

;;____________________________________________________________________________________________________
[RAINGAGES]
R01 VOLUME 0:05 0 TIMESERIES 2018_01_14_S1
R02 VOLUME 0:05 0 TIMESERIES 2018_01_14_S2
R03 VOLUME 0:05 0 TIMESERIES 2018_01_14_S3
R04 VOLUME 0:05 0 TIMESERIES 2018_01_14_S4
R05 VOLUME 0:05 0 TIMESERIES 2018_01_14_S5
R06 VOLUME 0:05 0 TIMESERIES 2018_01_14_S6
R07 VOLUME 0:05 0 TIMESERIES 2018_01_14_S7
R08 VOLUME 0:05 0 TIMESERIES 2018_01_14_S8
R09 VOLUME 0:05 0 TIMESERIES 2018_01_14_S9
R10 VOLUME 0:05 0 TIMESERIES 2018_01_14_S10
R11 VOLUME 0:05 0 TIMESERIES 2018_01_14_S11
R12 VOLUME 0:05 0 TIMESERIES 2018_01_14_S12
R13 VOLUME 0:05 0 TIMESERIES 2018_01_14_S13
R14 VOLUME 0:05 0 TIMESERIES 2018_01_14_S14
R15 VOLUME 0:05 0 TIMESERIES 2018_01_14_S15
R16 VOLUME 0:05 0 TIMESERIES 2018_01_14_S16
R17 VOLUME 0:05 0 TIMESERIES 2018_01_14_S17
R18 VOLUME 0:05 0 TIMESERIES 2018_01_14_S18
R19 VOLUME 0:05 0 TIMESERIES 2018_01_14_S19
R20 VOLUME 0:05 0 TIMESERIES 2018_01_14_S20
R21 VOLUME 0:05 0 TIMESERIES 2018_01_14_S21
R22 VOLUME 0:05 0 TIMESERIES 2018_01_14_S22
R23 VOLUME 0:05 0 TIMESERIES 2018_01_14_S23
R24 VOLUME 0:05 0 TIMESERIES 2018_01_14_S24
R25 VOLUME 0:05 0 TIMESERIES 2018_01_14_S25
R26 VOLUME 0:05 0 TIMESERIES 2018_01_14_S26
R27 VOLUME 0:05 0 TIMESERIES 2018_01_14_S27
R28 VOLUME 0:05 0 TIMESERIES 2018_01_14_S28

;;____________________________________________________________________________________________________
[SUBCATCHMENTS]
S01 R01 J1 35.9 6 3211 3 0
S02 R02 J2 92.9 54 3640 2.6 0
S03 R03 J4 40.8 64.5 3640 2.2 0
S04 R04 J6 20.1 70.5 2457 2.4 0
S05 R05 J7 17.4 67.5 1508 3.5 0
S06 R06 J8 61.1 70.5 3692 1.9 0
S07 R07 J9 60.2 70.5 3458 2 0
S08 R08 J11 29 70.5 2600 2.8 0
S09 R09 J14 31.1 19.5 1482 3 0
S10 R10 J15 35.6 70.5 1820 2.2 0
S11 R11 J17 67.4 70.5 702 3.5 0
S12 R12 J18 15.2 16.5 2860 4 0
S13 R13 J16 177.1 10.5 5408 1.3 0
S14 R14 J12 27 73.5 1391 3 0
S15 R15 J24 59.2 24 1703 2.5 0
S16 R16 J25 28.6 45 1703 2.3 0
S17 R17 J23 53.4 73.5 1560 2.4 0
S18 R18 J10 25.4 73.5 1872 2.9 0
S19 R19 J8 27.8 73.5 1820 3.2 0
S20 R20 J7 28.2 70.5 1820 3.3 0
S21 R21 J22 76.7 70.5 1976 2.8 0
S22 R22 J26 87.9 82.5 2405 2.4 0
S23 R23 J21 60.3 69 2262 2.1 0
S24 R24 J4 21.6 70.5 3255.2 2 0
S25 R25 J5 14 76.5 1274 3.6 0
S26 R26 J20 30.9 94.5 2470 2.1 0
S27 R27 J3 82 97.5 2782 1.9 0
S28 R28 J1 18.8 3 1235 2.4 0


;;____________________________________________________________________________________________________
[SUBAREAS]
S01 0.011 0.06 14.4 40 30 PERVIOUS 45
S02 0.011 0.06 14.4 40 50 PERVIOUS 45
S03 0.011 0.06 14.4 40 50 PERVIOUS 45
S04 0.011 0.06 14.4 40 50 PERVIOUS 45
S05 0.011 0.06 14.4 40 50 PERVIOUS 45
S06 0.011 0.06 14.4 40 50 PERVIOUS 45
S07 0.011 0.06 14.4 40 50 PERVIOUS 45
S08 0.011 0.06 14.4 40 50 PERVIOUS 45
S09 0.011 0.06 14.4 40 30 PERVIOUS 45
S10 0.011 0.06 14.4 40 50 PERVIOUS 45
S11 0.011 0.06 14.4 40 50 PERVIOUS 45
S12 0.011 0.06 14.4 40 30 PERVIOUS 45
S13 0.011 0.06 14.4 40 30 PERVIOUS 45
S14 0.011 0.06 14.4 40 50 PERVIOUS 45
S15 0.011 0.06 14.4 40 30 PERVIOUS 45
S16 0.011 0.06 14.4 40 50 PERVIOUS 45
S17 0.011 0.06 14.4 40 50 PERVIOUS 45
S18 0.011 0.06 14.4 40 50 PERVIOUS 45
S19 0.011 0.06 14.4 40 50 PERVIOUS 45
S20 0.011 0.06 14.4 40 50 PERVIOUS 45
S21 0.011 0.06 14.4 40 50 PERVIOUS 45
S22 0.011 0.06 14.4 40 60 PERVIOUS 45
S23 0.011 0.06 14.4 40 50 PERVIOUS 45
S24 0.011 0.06 14.4 40 50 PERVIOUS 45
S25 0.011 0.06 14.4 40 50 PERVIOUS 45
S26 0.011 0.06 14.4 40 60 PERVIOUS 45
S27 0.011 0.06 14.4 40 60 PERVIOUS 45
S28 0.011 0.06 14.4 40 30 PERVIOUS 45


;;____________________________________________________________________________________________________
[INFILTRATION]
S01 39 0.5 4
S02 39 0.5 4
S03 39 0.5 4
S04 39 0.5 4
S05 39 0.5 4
S06 39 0.5 4
S07 39 0.5 4
S08 39 0.5 4
S09 39 0.5 4
S10 39 0.5 4
S11 39 0.5 4
S12 39 0.5 4
S13 39 0.5 4
S14 39 0.5 4
S15 39 0.5 4
S16 39 0.5 4
S17 39 0.5 4
S18 39 0.5 4
S19 39 0.5 4
S20 39 0.5 4
S21 39 0.5 4
S22 39 0.5 4
S23 39 0.5 4
S24 39 0.5 4
S25 39 0.5 4
S26 39 0.5 4
S27 39 0.5 4
S28 39 0.5 4


;;____________________________________________________________________________________________________
[JUNCTIONS]
;;Name           Elevation  MaxDepth   InitDepth  SurDepth   Aponded   
;;-------------- ---------- ---------- ---------- ---------- ----------
J1               28.6       0          0          0          0         
J10              41.7       0          0          0          0         
J11              43.4       0          0          0          0         
J12              44.5       0          0          0          0         
J13              45.2       0          0          0          0         
J14              54.6       0          0          0          0         
J15              60.3       0          0          0          0         
J16              49         0          0          0          0         
J17              55.5       0          0          0          0         
J18              65.1       0          0          0          0         
J2               31.6       0          0          0          0         
J20              37.3       0          0          0          0         
J21              42.7       0          0          0          0         
J22              46.8       0          0          0          0         
J23              49.5       0          0          0          0         
J24              50.1       0          0          0          0         
J25              53.6       0          0          0          0         
J26              53.8       0          0          0          0         
J3               31.8       0          0          0          0         
J4               33.2       0          0          0          0         
J5               35.8       0          0          0          0         
J6               38         0          0          0          0         
J7               38.5       0          0          0          0         
J8               39.9       0          0          0          0         
J9               40.6       0          0          0          0

;;____________________________________________________________________________________________________
[OUTFALLS]
;;Name           Elevation  Type       Stage Data       Gated    Route To        
;;-------------- ---------- ---------- ---------------- -------- ----------------
O1               28         FREE                        NO

;;____________________________________________________________________________________________________
[CONDUITS]
;;Name           From Node        To Node          Length     Roughness  InOffset   OutOffset  InitFlow   MaxFlow   
;;-------------- ---------------- ---------------- ---------- ---------- ---------- ---------- ---------- ----------
C1               J1               O1               130        0.05       0          0          0          0         
C10              J10              J9               320        0.01       0          0          0          0         
C11              J11              J10              315        0.01       0          0          0          0         
C12              J12              J11              130        0.01       0          0          0          0         
C13              J13              J12              110        0.01       0          0          0          0         
C14              J13              J14              550        0.01       0          0          0          0         
C15              J15              J14              540        0.01       0          0          0          0         
C16              J16              J13              590        0.01       0          0          0          0         
C17              J17              J16              770        0.01       0          0          0          0         
C18              J18              J17              505        0.01       0          0          0          0         
C2               J2               J1               330        0.01       0          0          0          0         
C20              J20              J4               600        0.01       0          0          0          0         
C21              J21              J20              620        0.01       0          0          0          0         
C22              J22              J21              850        0.01       0          0          0          0         
C23              J23              J22              530        0.01       0          0          0          0         
C24              J24              J23              440        0.01       0          0          0          0         
C25              J25              J24              190        0.01       0          0          0          0         
C26              J26              J22              600        0.01       0          0          0          0         
C3               J3               J2               95         0.01       0          0          0          0         
C4               J4               J3               660        0.01       0          0          0          0         
C5               J5               J4               175        0.01       0          0          0          0         
C6               J6               J5               280        0.01       0          0          0          0         
C7               J7               J6               120        0.01       0          0          0          0         
C8               J8               J7               300        0.01       0          0          0          0         
C9               J9               J8               250        0.01       0          0          0          0

;;____________________________________________________________________________________________________
[XSECTIONS]
;;Link           Shape        Geom1            Geom2      Geom3      Geom4      Barrels    Culvert   
;;-------------- ------------ ---------------- ---------- ---------- ---------- ---------- ----------
C1               PARABOLIC    5                12         0          0          1                    
C10              RECT_CLOSED  1.5              1.7        0          0          1                    
C11              RECT_CLOSED  1.25             1.5        0          0          1                    
C12              RECT_CLOSED  1.25             1.5        0          0          1                    
C13              RECT_CLOSED  1.95             3.85       0          0          1                    
C14              CIRCULAR     0.6              0          0          0          1                    
C15              RECT_CLOSED  1.95             3.85       0          0          1                    
C16              PARABOLIC    1.95             3.85       0          0          1                    
C17              RECT_CLOSED  1.95             3.85       0          0          1                    
C18              RECT_CLOSED  1.95             3.85       0          0          1                    
C2               PARABOLIC    5                12         0          0          1                    
C20              RECT_CLOSED  1.25             4.5        0          0          1                    
C21              CIRCULAR     1.5              0          0          0          1                    
C22              CIRCULAR     1.8              0          0          0          1                    
C23              CIRCULAR     1.25             0          0          0          1                    
C24              CIRCULAR     1.5              0          0          0          1                    
C25              RECT_CLOSED  1.95             3.85       0          0          1                    
C26              CIRCULAR     1.25             0          0          0          1                    
C3               RECT_CLOSED  3.70             6          0          0          1                    
C4               RECT_CLOSED  3.60             5.85       0          0          1                    
C5               RECT_CLOSED  1.85             2.5        0          0          1                    
C6               RECT_CLOSED  1.85             2.5        0          0          1                    
C7               RECT_CLOSED  1.95             3.85       0          0          1                    
C8               RECT_CLOSED  1.85             2          0          0          1                    
C9               RECT_CLOSED  1.85             2          0          0          1

;;____________________________________________________________________________________________________
[TIMESERIES]
2018_01_14_S1 01/13/2018 08:00:00 0.0
2018_01_14_S1 01/13/2018 08:05:00 0.0
2018_01_14_S1 01/13/2018 08:10:00 0.0
2018_01_14_S1 01/13/2018 08:15:00 0.0
2018_01_14_S1 01/13/2018 08:20:00 0.0
2018_01_14_S1 01/13/2018 08:25:00 0.0
2018_01_14_S1 01/13/2018 08:30:00 0.0
2018_01_14_S1 01/13/2018 08:35:00 0.0
2018_01_14_S1 01/13/2018 08:40:00 0.0
2018_01_14_S1 01/13/2018 08:45:00 0.0
2018_01_14_S1 01/13/2018 08:50:00 0.0
2018_01_14_S1 01/13/2018 08:55:00 0.0
2018_01_14_S1 01/13/2018 09:00:00 0.0
2018_01_14_S1 01/13/2018 09:05:00 0.0
2018_01_14_S1 01/13/2018 09:10:00 0.0
2018_01_14_S1 01/13/2018 09:15:00 0.0
2018_01_14_S1 01/13/2018 09:20:00 0.0
2018_01_14_S1 01/13/2018 09:25:00 0.0
2018_01_14_S1 01/13/2018 09:30:00 0.0
2018_01_14_S1 01/13/2018 09:35:00 0.0
2018_01_14_S1 01/13/2018 09:40:00 0.0
2018_01_14_S1 01/13/2018 09:45:00 0.0
2018_01_14_S1 01/13/2018 09:50:00 0.0
2018_01_14_S1 01/13/2018 09:55:00 0.0
2018_01_14_S1 01/13/2018 10:00:00 0.0
2018_01_14_S1 01/13/2018 10:05:00 0.0
2018_01_14_S1 01/13/2018 10:10:00 0.0
2018_01_14_S1 01/13/2018 10:15:00 0.0
2018_01_14_S1 01/13/2018 10:20:00 0.0
2018_01_14_S1 01/13/2018 10:25:00 0.0
2018_01_14_S1 01/13/2018 10:30:00 0.0
2018_01_14_S1 01/13/2018 10:35:00 0.0
2018_01_14_S1 01/13/2018 10:40:00 0.0
2018_01_14_S1 01/13/2018 10:45:00 0.0
2018_01_14_S1 01/13/2018 10:50:00 0.0
2018_01_14_S1 01/13/2018 10:55:00 0.0
2018_01_14_S1 01/13/2018 11:00:00 0.0
2018_01_14_S1 01/13/2018 11:05:00 0.0
2018_01_14_S1 01/13/2018 11:10:00 0.0
2018_01_14_S1 01/13/2018 11:15:00 0.0
2018_01_14_S1 01/13/2018 11:20:00 0.0
2018_01_14_S1 01/13/2018 11:25:00 0.0
2018_01_14_S1 01/13/2018 11:30:00 0.0
2018_01_14_S1 01/13/2018 11:35:00 0.0
2018_01_14_S1 01/13/2018 11:40:00 0.0
2018_01_14_S1 01/13/2018 11:45:00 0.0
2018_01_14_S1 01/13/2018 11:50:00 0.0
2018_01_14_S1 01/13/2018 11:55:00 0.0
2018_01_14_S1 01/13/2018 12:00:00 0.0
2018_01_14_S1 01/13/2018 12:05:00 0.0
2018_01_14_S1 01/13/2018 12:10:00 0.0
2018_01_14_S1 01/13/2018 12:15:00 0.0
2018_01_14_S1 01/13/2018 12:20:00 0.0
2018_01_14_S1 01/13/2018 12:25:00 0.0
2018_01_14_S1 01/13/2018 12:30:00 0.0
2018_01_14_S1 01/13/2018 12:35:00 0.0
2018_01_14_S1 01/13/2018 12:40:00 0.0
2018_01_14_S1 01/13/2018 12:45:00 0.0
2018_01_14_S1 01/13/2018 12:50:00 0.0
2018_01_14_S1 01/13/2018 12:55:00 0.0
2018_01_14_S1 01/13/2018 13:00:00 0.0
2018_01_14_S1 01/13/2018 13:05:00 0.0
2018_01_14_S1 01/13/2018 13:10:00 0.0
2018_01_14_S1 01/13/2018 13:15:00 0.0
2018_01_14_S1 01/13/2018 13:20:00 0.0
2018_01_14_S1 01/13/2018 13:25:00 0.0
2018_01_14_S1 01/13/2018 13:30:00 0.0
2018_01_14_S1 01/13/2018 13:35:00 0.0
2018_01_14_S1 01/13/2018 13:40:00 0.0
2018_01_14_S1 01/13/2018 13:45:00 0.0
2018_01_14_S1 01/13/2018 13:50:00 0.0
2018_01_14_S1 01/13/2018 13:55:00 0.0
2018_01_14_S1 01/13/2018 14:00:00 0.0
2018_01_14_S1 01/13/2018 14:05:00 0.0
2018_01_14_S1 01/13/2018 14:10:00 0.0
2018_01_14_S1 01/13/2018 14:15:00 0.0
2018_01_14_S1 01/13/2018 14:20:00 0.0
2018_01_14_S1 01/13/2018 14:25:00 0.0
2018_01_14_S1 01/13/2018 14:30:00 0.0
2018_01_14_S1 01/13/2018 14:35:00 0.0
2018_01_14_S1 01/13/2018 14:40:00 0.0
2018_01_14_S1 01/13/2018 14:45:00 0.0
2018_01_14_S1 01/13/2018 14:50:00 0.0
2018_01_14_S1 01/13/2018 14:55:00 0.0
2018_01_14_S1 01/13/2018 15:00:00 0.0
2018_01_14_S1 01/13/2018 15:05:00 0.0
2018_01_14_S1 01/13/2018 15:10:00 0.0
2018_01_14_S1 01/13/2018 15:15:00 0.0
2018_01_14_S1 01/13/2018 15:20:00 0.0
2018_01_14_S1 01/13/2018 15:25:00 0.0
2018_01_14_S1 01/13/2018 15:30:00 0.0
2018_01_14_S1 01/13/2018 15:35:00 0.0
2018_01_14_S1 01/13/2018 15:40:00 0.0
2018_01_14_S1 01/13/2018 15:45:00 0.0
2018_01_14_S1 01/13/2018 15:50:00 0.0
2018_01_14_S1 01/13/2018 15:55:00 0.0
2018_01_14_S1 01/13/2018 16:00:00 0.0
2018_01_14_S1 01/13/2018 16:05:00 0.0
2018_01_14_S1 01/13/2018 16:10:00 0.0
2018_01_14_S1 01/13/2018 16:15:00 0.0
2018_01_14_S1 01/13/2018 16:20:00 0.0
2018_01_14_S1 01/13/2018 16:25:00 0.0
2018_01_14_S1 01/13/2018 16:30:00 0.0
2018_01_14_S1 01/13/2018 16:35:00 0.0
2018_01_14_S1 01/13/2018 16:40:00 0.0
2018_01_14_S1 01/13/2018 16:45:00 0.0
2018_01_14_S1 01/13/2018 16:50:00 0.0
2018_01_14_S1 01/13/2018 16:55:00 0.0
2018_01_14_S1 01/13/2018 17:00:00 0.0
2018_01_14_S1 01/13/2018 17:05:00 0.0
2018_01_14_S1 01/13/2018 17:10:00 0.0
2018_01_14_S1 01/13/2018 17:15:00 0.0
2018_01_14_S1 01/13/2018 17:20:00 0.0
2018_01_14_S1 01/13/2018 17:25:00 0.0
2018_01_14_S1 01/13/2018 17:30:00 0.0
2018_01_14_S1 01/13/2018 17:35:00 0.0
2018_01_14_S1 01/13/2018 17:40:00 0.0
2018_01_14_S1 01/13/2018 17:45:00 0.0
2018_01_14_S1 01/13/2018 17:50:00 0.0
2018_01_14_S1 01/13/2018 17:55:00 0.0
2018_01_14_S1 01/13/2018 18:00:00 0.0
2018_01_14_S1 01/13/2018 18:05:00 0.0
2018_01_14_S1 01/13/2018 18:10:00 0.0
2018_01_14_S1 01/13/2018 18:15:00 0.0
2018_01_14_S1 01/13/2018 18:20:00 0.0
2018_01_14_S1 01/13/2018 18:25:00 0.0
2018_01_14_S1 01/13/2018 18:30:00 0.0
2018_01_14_S1 01/13/2018 18:35:00 0.0
2018_01_14_S1 01/13/2018 18:40:00 0.0
2018_01_14_S1 01/13/2018 18:45:00 0.0
2018_01_14_S1 01/13/2018 18:50:00 0.0
2018_01_14_S1 01/13/2018 18:55:00 0.0
2018_01_14_S1 01/13/2018 19:00:00 0.0
2018_01_14_S1 01/13/2018 19:05:00 0.0
2018_01_14_S1 01/13/2018 19:10:00 0.0
2018_01_14_S1 01/13/2018 19:15:00 0.0
2018_01_14_S1 01/13/2018 19:20:00 0.0
2018_01_14_S1 01/13/2018 19:25:00 0.0
2018_01_14_S1 01/13/2018 19:30:00 0.0
2018_01_14_S1 01/13/2018 19:35:00 0.0
2018_01_14_S1 01/13/2018 19:40:00 0.0
2018_01_14_S1 01/13/2018 19:45:00 0.0
2018_01_14_S1 01/13/2018 19:50:00 0.0
2018_01_14_S1 01/13/2018 19:55:00 0.0
2018_01_14_S1 01/13/2018 20:00:00 0.0
2018_01_14_S1 01/13/2018 20:05:00 0.0
2018_01_14_S1 01/13/2018 20:10:00 0.0
2018_01_14_S1 01/13/2018 20:15:00 0.0
2018_01_14_S1 01/13/2018 20:20:00 0.0
2018_01_14_S1 01/13/2018 20:25:00 0.0
2018_01_14_S1 01/13/2018 20:30:00 0.0
2018_01_14_S1 01/13/2018 20:35:00 0.0
2018_01_14_S1 01/13/2018 20:40:00 0.0
2018_01_14_S1 01/13/2018 20:45:00 0.0
2018_01_14_S1 01/13/2018 20:50:00 0.0
2018_01_14_S1 01/13/2018 20:55:00 0.0
2018_01_14_S1 01/13/2018 21:00:00 0.0
2018_01_14_S1 01/13/2018 21:05:00 0.0
2018_01_14_S1 01/13/2018 21:10:00 0.0
2018_01_14_S1 01/13/2018 21:15:00 0.0
2018_01_14_S1 01/13/2018 21:20:00 0.0
2018_01_14_S1 01/13/2018 21:25:00 0.0
2018_01_14_S1 01/13/2018 21:30:00 0.0
2018_01_14_S1 01/13/2018 21:35:00 0.0
2018_01_14_S1 01/13/2018 21:40:00 0.0
2018_01_14_S1 01/13/2018 21:45:00 0.0
2018_01_14_S1 01/13/2018 21:50:00 0.0
2018_01_14_S1 01/13/2018 21:55:00 0.0
2018_01_14_S1 01/13/2018 22:00:00 0.0
2018_01_14_S1 01/13/2018 22:05:00 0.0
2018_01_14_S1 01/13/2018 22:10:00 0.0
2018_01_14_S1 01/13/2018 22:15:00 0.0
2018_01_14_S1 01/13/2018 22:20:00 0.0
2018_01_14_S1 01/13/2018 22:25:00 0.0
2018_01_14_S1 01/13/2018 22:30:00 0.0
2018_01_14_S1 01/13/2018 22:35:00 0.0
2018_01_14_S1 01/13/2018 22:40:00 0.0
2018_01_14_S1 01/13/2018 22:45:00 0.0
2018_01_14_S1 01/13/2018 22:50:00 0.0
2018_01_14_S1 01/13/2018 22:55:00 0.0
2018_01_14_S1 01/13/2018 23:00:00 0.0
2018_01_14_S1 01/13/2018 23:05:00 0.0
2018_01_14_S1 01/13/2018 23:10:00 0.0
2018_01_14_S1 01/13/2018 23:15:00 0.0
2018_01_14_S1 01/13/2018 23:20:00 0.0
2018_01_14_S1 01/13/2018 23:25:00 0.0
2018_01_14_S1 01/13/2018 23:30:00 0.0
2018_01_14_S1 01/13/2018 23:35:00 0.0
2018_01_14_S1 01/13/2018 23:40:00 0.0
2018_01_14_S1 01/13/2018 23:45:00 0.0
2018_01_14_S1 01/13/2018 23:50:00 0.0
2018_01_14_S1 01/13/2018 23:55:00 0.0
2018_01_14_S1 01/14/2018 00:00:00 0.0
2018_01_14_S1 01/14/2018 00:05:00 0.0
2018_01_14_S1 01/14/2018 00:10:00 0.0
2018_01_14_S1 01/14/2018 00:15:00 0.0
2018_01_14_S1 01/14/2018 00:20:00 0.0
2018_01_14_S1 01/14/2018 00:25:00 0.0
2018_01_14_S1 01/14/2018 00:30:00 0.0
2018_01_14_S1 01/14/2018 00:35:00 0.0
2018_01_14_S1 01/14/2018 00:40:00 0.0
2018_01_14_S1 01/14/2018 00:45:00 0.0
2018_01_14_S1 01/14/2018 00:50:00 0.0
2018_01_14_S1 01/14/2018 00:55:00 0.0
2018_01_14_S1 01/14/2018 01:00:00 0.0
2018_01_14_S1 01/14/2018 01:05:00 0.0
2018_01_14_S1 01/14/2018 01:10:00 0.0
2018_01_14_S1 01/14/2018 01:15:00 0.0
2018_01_14_S1 01/14/2018 01:20:00 0.0
2018_01_14_S1 01/14/2018 01:25:00 0.0
2018_01_14_S1 01/14/2018 01:30:00 0.0
2018_01_14_S1 01/14/2018 01:35:00 0.0
2018_01_14_S1 01/14/2018 01:40:00 0.0
2018_01_14_S1 01/14/2018 01:45:00 0.0
2018_01_14_S1 01/14/2018 01:50:00 0.0
2018_01_14_S1 01/14/2018 01:55:00 0.0
2018_01_14_S1 01/14/2018 02:00:00 0.0
2018_01_14_S1 01/14/2018 02:05:00 0.0
2018_01_14_S1 01/14/2018 02:10:00 0.0
2018_01_14_S1 01/14/2018 02:15:00 0.0
2018_01_14_S1 01/14/2018 02:20:00 0.0
2018_01_14_S1 01/14/2018 02:25:00 0.0
2018_01_14_S1 01/14/2018 02:30:00 0.0
2018_01_14_S1 01/14/2018 02:35:00 0.0
2018_01_14_S1 01/14/2018 02:40:00 0.0
2018_01_14_S1 01/14/2018 02:45:00 0.0
2018_01_14_S1 01/14/2018 02:50:00 0.0
2018_01_14_S1 01/14/2018 02:55:00 0.0024
2018_01_14_S1 01/14/2018 03:00:00 0.0085
2018_01_14_S1 01/14/2018 03:05:00 0.0129
2018_01_14_S1 01/14/2018 03:10:00 0.0182
2018_01_14_S1 01/14/2018 03:15:00 0.0
2018_01_14_S1 01/14/2018 03:20:00 0.0
2018_01_14_S1 01/14/2018 03:25:00 0.0
2018_01_14_S1 01/14/2018 03:30:00 0.0
2018_01_14_S1 01/14/2018 03:35:00 0.0
2018_01_14_S1 01/14/2018 03:40:00 0.0
2018_01_14_S1 01/14/2018 03:45:00 0.0
2018_01_14_S1 01/14/2018 03:50:00 0.0
2018_01_14_S1 01/14/2018 03:55:00 0.0
2018_01_14_S1 01/14/2018 04:00:00 0.0
2018_01_14_S1 01/14/2018 04:05:00 0.0
2018_01_14_S1 01/14/2018 04:10:00 0.0
2018_01_14_S1 01/14/2018 04:15:00 0.0
2018_01_14_S1 01/14/2018 04:20:00 0.0
2018_01_14_S1 01/14/2018 04:25:00 0.0
2018_01_14_S1 01/14/2018 04:30:00 0.0
2018_01_14_S1 01/14/2018 04:35:00 0.0
2018_01_14_S1 01/14/2018 04:40:00 0.0
2018_01_14_S1 01/14/2018 04:45:00 0.0
2018_01_14_S1 01/14/2018 04:50:00 0.0
2018_01_14_S1 01/14/2018 04:55:00 0.0
2018_01_14_S1 01/14/2018 05:00:00 0.0
2018_01_14_S1 01/14/2018 05:05:00 0.01
2018_01_14_S1 01/14/2018 05:10:00 0.1552
2018_01_14_S1 01/14/2018 05:15:00 0.001
2018_01_14_S1 01/14/2018 05:20:00 0.0
2018_01_14_S1 01/14/2018 05:25:00 0.0
2018_01_14_S1 01/14/2018 05:30:00 0.0
2018_01_14_S1 01/14/2018 05:35:00 0.0
2018_01_14_S1 01/14/2018 05:40:00 0.0
2018_01_14_S1 01/14/2018 05:45:00 0.0
2018_01_14_S1 01/14/2018 05:50:00 0.0
2018_01_14_S1 01/14/2018 05:55:00 0.1431
2018_01_14_S1 01/14/2018 06:00:00 1.5375
2018_01_14_S1 01/14/2018 06:05:00 0.1163
2018_01_14_S1 01/14/2018 06:10:00 0.0709
2018_01_14_S1 01/14/2018 06:15:00 0.0
2018_01_14_S1 01/14/2018 06:20:00 0.0261
2018_01_14_S1 01/14/2018 06:25:00 0.0443
2018_01_14_S1 01/14/2018 06:30:00 0.0006
2018_01_14_S1 01/14/2018 06:35:00 0.0024
2018_01_14_S1 01/14/2018 06:40:00 0.0
2018_01_14_S1 01/14/2018 06:45:00 0.0
2018_01_14_S1 01/14/2018 06:50:00 0.0
2018_01_14_S1 01/14/2018 06:55:00 0.0
2018_01_14_S1 01/14/2018 07:00:00 0.0
2018_01_14_S1 01/14/2018 07:05:00 0.0
2018_01_14_S1 01/14/2018 07:10:00 0.0
2018_01_14_S1 01/14/2018 07:15:00 0.0
2018_01_14_S1 01/14/2018 07:20:00 0.0
2018_01_14_S1 01/14/2018 07:25:00 0.0
2018_01_14_S1 01/14/2018 07:30:00 0.0
2018_01_14_S1 01/14/2018 07:35:00 0.0
2018_01_14_S1 01/14/2018 07:40:00 0.0
2018_01_14_S1 01/14/2018 07:45:00 0.0
2018_01_14_S1 01/14/2018 07:50:00 0.0024
2018_01_14_S1 01/14/2018 07:55:00 0.0
2018_01_14_S1 01/14/2018 08:00:00 0.0
2018_01_14_S1 01/14/2018 08:05:00 0.0
2018_01_14_S1 01/14/2018 08:10:00 0.0
2018_01_14_S1 01/14/2018 08:15:00 0.0
2018_01_14_S1 01/14/2018 08:20:00 0.0
2018_01_14_S1 01/14/2018 08:25:00 0.0
2018_01_14_S1 01/14/2018 08:30:00 0.0
2018_01_14_S1 01/14/2018 08:35:00 0.0021
2018_01_14_S1 01/14/2018 08:40:00 0.0126
2018_01_14_S1 01/14/2018 08:45:00 0.0103
2018_01_14_S1 01/14/2018 08:50:00 0.0
2018_01_14_S1 01/14/2018 08:55:00 0.0
2018_01_14_S1 01/14/2018 09:00:00 0.0
2018_01_14_S1 01/14/2018 09:05:00 0.0
2018_01_14_S1 01/14/2018 09:10:00 0.0
2018_01_14_S1 01/14/2018 09:15:00 0.0
2018_01_14_S1 01/14/2018 09:20:00 0.0
2018_01_14_S1 01/14/2018 09:25:00 0.0
2018_01_14_S1 01/14/2018 09:30:00 0.0
2018_01_14_S1 01/14/2018 09:35:00 0.0
2018_01_14_S1 01/14/2018 09:40:00 0.0
2018_01_14_S1 01/14/2018 09:45:00 0.0
2018_01_14_S1 01/14/2018 09:50:00 0.0
2018_01_14_S1 01/14/2018 09:55:00 0.0
2018_01_14_S1 01/14/2018 10:00:00 0.0
2018_01_14_S1 01/14/2018 10:05:00 0.0
2018_01_14_S1 01/14/2018 10:10:00 0.0
2018_01_14_S1 01/14/2018 10:15:00 0.0
2018_01_14_S1 01/14/2018 10:20:00 0.0
2018_01_14_S1 01/14/2018 10:25:00 0.0
2018_01_14_S1 01/14/2018 10:30:00 0.0
2018_01_14_S1 01/14/2018 10:35:00 0.0
2018_01_14_S1 01/14/2018 10:40:00 0.0
2018_01_14_S1 01/14/2018 10:45:00 0.0
2018_01_14_S1 01/14/2018 10:50:00 0.0
2018_01_14_S1 01/14/2018 10:55:00 0.0
2018_01_14_S1 01/14/2018 11:00:00 0.0
2018_01_14_S1 01/14/2018 11:05:00 0.0
2018_01_14_S1 01/14/2018 11:10:00 0.0
2018_01_14_S1 01/14/2018 11:15:00 0.0
2018_01_14_S1 01/14/2018 11:20:00 0.0
2018_01_14_S1 01/14/2018 11:25:00 0.0
2018_01_14_S1 01/14/2018 11:30:00 0.0
2018_01_14_S1 01/14/2018 11:35:00 0.0
2018_01_14_S1 01/14/2018 11:40:00 0.0
2018_01_14_S1 01/14/2018 11:45:00 0.0
2018_01_14_S1 01/14/2018 11:50:00 0.0
2018_01_14_S1 01/14/2018 11:55:00 0.0
2018_01_14_S1 01/14/2018 12:00:00 0.0
2018_01_14_S1 01/14/2018 12:05:00 0.0
2018_01_14_S1 01/14/2018 12:10:00 0.0
2018_01_14_S1 01/14/2018 12:15:00 0.0
2018_01_14_S1 01/14/2018 12:20:00 0.0
2018_01_14_S1 01/14/2018 12:25:00 0.0
2018_01_14_S1 01/14/2018 12:30:00 0.0
2018_01_14_S1 01/14/2018 12:35:00 0.0
2018_01_14_S1 01/14/2018 12:40:00 0.0
2018_01_14_S1 01/14/2018 12:45:00 0.0
2018_01_14_S1 01/14/2018 12:50:00 0.0
2018_01_14_S1 01/14/2018 12:55:00 0.0
2018_01_14_S1 01/14/2018 13:00:00 0.0
2018_01_14_S1 01/14/2018 13:05:00 0.0
2018_01_14_S1 01/14/2018 13:10:00 0.0
2018_01_14_S1 01/14/2018 13:15:00 0.0
2018_01_14_S1 01/14/2018 13:20:00 0.0
2018_01_14_S1 01/14/2018 13:25:00 0.0
2018_01_14_S1 01/14/2018 13:30:00 0.0
2018_01_14_S1 01/14/2018 13:35:00 0.0
2018_01_14_S1 01/14/2018 13:40:00 0.0
2018_01_14_S1 01/14/2018 13:45:00 0.0
2018_01_14_S1 01/14/2018 13:50:00 0.0
2018_01_14_S1 01/14/2018 13:55:00 0.0
2018_01_14_S1 01/14/2018 14:00:00 0.0
2018_01_14_S1 01/14/2018 14:05:00 0.0
2018_01_14_S1 01/14/2018 14:10:00 0.0
2018_01_14_S1 01/14/2018 14:15:00 0.0
2018_01_14_S1 01/14/2018 14:20:00 0.0
2018_01_14_S1 01/14/2018 14:25:00 0.0
2018_01_14_S1 01/14/2018 14:30:00 0.0
2018_01_14_S1 01/14/2018 14:35:00 0.0
2018_01_14_S1 01/14/2018 14:40:00 0.0
2018_01_14_S1 01/14/2018 14:45:00 0.0
2018_01_14_S1 01/14/2018 14:50:00 0.0
2018_01_14_S1 01/14/2018 14:55:00 0.0
2018_01_14_S1 01/14/2018 15:00:00 0.0
2018_01_14_S1 01/14/2018 15:05:00 0.0
2018_01_14_S1 01/14/2018 15:10:00 0.0
2018_01_14_S1 01/14/2018 15:15:00 0.0
2018_01_14_S1 01/14/2018 15:20:00 0.0
2018_01_14_S1 01/14/2018 15:25:00 0.0
2018_01_14_S1 01/14/2018 15:30:00 0.0
2018_01_14_S1 01/14/2018 15:35:00 0.0
2018_01_14_S1 01/14/2018 15:40:00 0.0
2018_01_14_S1 01/14/2018 15:45:00 0.0
2018_01_14_S1 01/14/2018 15:50:00 0.0
2018_01_14_S1 01/14/2018 15:55:00 0.0
2018_01_14_S1 01/14/2018 16:00:00 0.0
2018_01_14_S1 01/14/2018 16:05:00 0.0
2018_01_14_S1 01/14/2018 16:10:00 0.0
2018_01_14_S1 01/14/2018 16:15:00 0.0
2018_01_14_S1 01/14/2018 16:20:00 0.001
2018_01_14_S1 01/14/2018 16:25:00 0.0028
2018_01_14_S1 01/14/2018 16:30:00 0.0
2018_01_14_S1 01/14/2018 16:35:00 0.0
2018_01_14_S1 01/14/2018 16:40:00 0.0157
2018_01_14_S1 01/14/2018 16:45:00 0.0052
2018_01_14_S1 01/14/2018 16:50:00 0.0999
2018_01_14_S1 01/14/2018 16:55:00 0.0137
2018_01_14_S1 01/14/2018 17:00:00 0.0
2018_01_14_S1 01/14/2018 17:05:00 0.0109
2018_01_14_S1 01/14/2018 17:10:00 0.1007
2018_01_14_S1 01/14/2018 17:15:00 0.0031
2018_01_14_S1 01/14/2018 17:20:00 0.0109
2018_01_14_S1 01/14/2018 17:25:00 0.0058
2018_01_14_S1 01/14/2018 17:30:00 0.0
2018_01_14_S1 01/14/2018 17:35:00 0.1131
2018_01_14_S1 01/14/2018 17:40:00 0.2984
2018_01_14_S1 01/14/2018 17:45:00 0.4462
2018_01_14_S1 01/14/2018 17:50:00 0.1357
2018_01_14_S1 01/14/2018 17:55:00 0.2076
2018_01_14_S1 01/14/2018 18:00:00 1.0015
2018_01_14_S1 01/14/2018 18:05:00 1.5617
2018_01_14_S1 01/14/2018 18:10:00 1.4028
2018_01_14_S1 01/14/2018 18:15:00 5.0603
2018_01_14_S1 01/14/2018 18:20:00 2.3738
2018_01_14_S1 01/14/2018 18:25:00 1.1593
2018_01_14_S1 01/14/2018 18:30:00 0.7518
2018_01_14_S1 01/14/2018 18:35:00 0.0633
2018_01_14_S1 01/14/2018 18:40:00 0.0335
2018_01_14_S1 01/14/2018 18:45:00 1.2174
2018_01_14_S1 01/14/2018 18:50:00 2.2107
2018_01_14_S1 01/14/2018 18:55:00 0.0129
2018_01_14_S1 01/14/2018 19:00:00 0.0141
2018_01_14_S1 01/14/2018 19:05:00 0.0
2018_01_14_S1 01/14/2018 19:10:00 0.0
2018_01_14_S1 01/14/2018 19:15:00 0.0
2018_01_14_S1 01/14/2018 19:20:00 0.0
2018_01_14_S1 01/14/2018 19:25:00 0.0
2018_01_14_S1 01/14/2018 19:30:00 0.0
2018_01_14_S1 01/14/2018 19:35:00 0.0
2018_01_14_S1 01/14/2018 19:40:00 0.0
2018_01_14_S1 01/14/2018 19:45:00 0.0
2018_01_14_S1 01/14/2018 19:50:00 0.0
2018_01_14_S1 01/14/2018 19:55:00 0.0
2018_01_14_S1 01/14/2018 20:00:00 0.0
2018_01_14_S1 01/14/2018 20:05:00 0.0
2018_01_14_S1 01/14/2018 20:10:00 0.0
2018_01_14_S1 01/14/2018 20:15:00 0.0
2018_01_14_S1 01/14/2018 20:20:00 0.0
2018_01_14_S1 01/14/2018 20:25:00 0.0
2018_01_14_S1 01/14/2018 20:30:00 0.0
2018_01_14_S1 01/14/2018 20:35:00 0.0
2018_01_14_S1 01/14/2018 20:40:00 0.0
2018_01_14_S1 01/14/2018 20:45:00 0.0
2018_01_14_S1 01/14/2018 20:50:00 0.0
2018_01_14_S1 01/14/2018 20:55:00 0.0
2018_01_14_S1 01/14/2018 21:00:00 0.0
2018_01_14_S1 01/14/2018 21:05:00 0.0
2018_01_14_S1 01/14/2018 21:10:00 0.0
2018_01_14_S1 01/14/2018 21:15:00 0.0
2018_01_14_S1 01/14/2018 21:20:00 0.0
2018_01_14_S1 01/14/2018 21:25:00 0.0
2018_01_14_S1 01/14/2018 21:30:00 0.0
2018_01_14_S1 01/14/2018 21:35:00 0.0
2018_01_14_S1 01/14/2018 21:40:00 0.0
2018_01_14_S1 01/14/2018 21:45:00 0.0
2018_01_14_S1 01/14/2018 21:50:00 0.0
2018_01_14_S1 01/14/2018 21:55:00 0.0
2018_01_14_S1 01/14/2018 22:00:00 0.0
2018_01_14_S1 01/14/2018 22:05:00 0.0
2018_01_14_S1 01/14/2018 22:10:00 0.0
2018_01_14_S1 01/14/2018 22:15:00 0.0
2018_01_14_S1 01/14/2018 22:20:00 0.0
2018_01_14_S1 01/14/2018 22:25:00 0.0
2018_01_14_S1 01/14/2018 22:30:00 0.0
2018_01_14_S1 01/14/2018 22:35:00 0.0019
2018_01_14_S1 01/14/2018 22:40:00 0.0
2018_01_14_S1 01/14/2018 22:45:00 0.0
2018_01_14_S1 01/14/2018 22:50:00 0.0
2018_01_14_S1 01/14/2018 22:55:00 0.0
2018_01_14_S1 01/14/2018 23:00:00 0.0195
2018_01_14_S1 01/14/2018 23:05:00 0.0039
2018_01_14_S1 01/14/2018 23:10:00 0.0
2018_01_14_S1 01/14/2018 23:15:00 0.0027
2018_01_14_S1 01/14/2018 23:20:00 0.0025
2018_01_14_S1 01/14/2018 23:25:00 0.0
2018_01_14_S1 01/14/2018 23:30:00 0.0
2018_01_14_S1 01/14/2018 23:35:00 0.0
2018_01_14_S1 01/14/2018 23:40:00 0.0
2018_01_14_S1 01/14/2018 23:45:00 0.0
2018_01_14_S1 01/14/2018 23:50:00 0.0
2018_01_14_S1 01/14/2018 23:55:00 0.0
2018_01_14_S1 01/15/2018 00:00:00 0.0
2018_01_14_S1 01/15/2018 00:05:00 0.0
2018_01_14_S1 01/15/2018 00:10:00 0.0
2018_01_14_S1 01/15/2018 00:15:00 0.0
2018_01_14_S1 01/15/2018 00:20:00 0.0
2018_01_14_S1 01/15/2018 00:25:00 0.0
2018_01_14_S1 01/15/2018 00:30:00 0.0
2018_01_14_S1 01/15/2018 00:35:00 0.0
2018_01_14_S1 01/15/2018 00:40:00 0.0
2018_01_14_S1 01/15/2018 00:45:00 0.0
2018_01_14_S1 01/15/2018 00:50:00 0.0
2018_01_14_S1 01/15/2018 00:55:00 0.0
2018_01_14_S1 01/15/2018 01:00:00 0.0
2018_01_14_S1 01/15/2018 01:05:00 0.0
2018_01_14_S1 01/15/2018 01:10:00 0.0
2018_01_14_S1 01/15/2018 01:15:00 0.0
2018_01_14_S1 01/15/2018 01:20:00 0.0
2018_01_14_S1 01/15/2018 01:25:00 0.0
2018_01_14_S1 01/15/2018 01:30:00 0.0
2018_01_14_S1 01/15/2018 01:35:00 0.0
2018_01_14_S1 01/15/2018 01:40:00 0.0
2018_01_14_S1 01/15/2018 01:45:00 0.0
2018_01_14_S1 01/15/2018 01:50:00 0.0
2018_01_14_S1 01/15/2018 01:55:00 0.0
2018_01_14_S1 01/15/2018 02:00:00 0.0
2018_01_14_S1 01/15/2018 02:05:00 0.0
2018_01_14_S1 01/15/2018 02:10:00 0.0
2018_01_14_S1 01/15/2018 02:15:00 0.0
2018_01_14_S1 01/15/2018 02:20:00 0.0
2018_01_14_S1 01/15/2018 02:25:00 0.0
2018_01_14_S1 01/15/2018 02:30:00 0.0
2018_01_14_S1 01/15/2018 02:35:00 0.0
2018_01_14_S1 01/15/2018 02:40:00 0.1598
2018_01_14_S1 01/15/2018 02:45:00 0.1034
2018_01_14_S1 01/15/2018 02:50:00 0.1261
2018_01_14_S1 01/15/2018 02:55:00 0.2272
2018_01_14_S1 01/15/2018 03:00:00 0.0331
2018_01_14_S1 01/15/2018 03:05:00 0.1243
2018_01_14_S1 01/15/2018 03:10:00 0.0019
2018_01_14_S1 01/15/2018 03:15:00 0.0
2018_01_14_S1 01/15/2018 03:20:00 0.0
2018_01_14_S1 01/15/2018 03:25:00 0.0
2018_01_14_S1 01/15/2018 03:30:00 0.0
2018_01_14_S1 01/15/2018 03:35:00 0.0
2018_01_14_S1 01/15/2018 03:40:00 0.0
2018_01_14_S1 01/15/2018 03:45:00 0.0
2018_01_14_S1 01/15/2018 03:50:00 0.0
2018_01_14_S1 01/15/2018 03:55:00 0.0
2018_01_14_S1 01/15/2018 04:00:00 0.0
2018_01_14_S1 01/15/2018 04:05:00 0.0
2018_01_14_S1 01/15/2018 04:10:00 0.0
2018_01_14_S1 01/15/2018 04:15:00 0.0
2018_01_14_S1 01/15/2018 04:20:00 0.0
2018_01_14_S1 01/15/2018 04:25:00 0.0
2018_01_14_S1 01/15/2018 04:30:00 0.0
2018_01_14_S1 01/15/2018 04:35:00 0.0
2018_01_14_S1 01/15/2018 04:40:00 0.0
2018_01_14_S1 01/15/2018 04:45:00 0.0
2018_01_14_S1 01/15/2018 04:50:00 0.0
2018_01_14_S1 01/15/2018 04:55:00 0.0
2018_01_14_S1 01/15/2018 05:00:00 0.0
2018_01_14_S1 01/15/2018 05:05:00 0.0
2018_01_14_S1 01/15/2018 05:10:00 0.0
2018_01_14_S1 01/15/2018 05:15:00 0.0
2018_01_14_S1 01/15/2018 05:20:00 0.0
2018_01_14_S1 01/15/2018 05:25:00 0.0
2018_01_14_S1 01/15/2018 05:30:00 0.0
2018_01_14_S1 01/15/2018 05:35:00 0.0
2018_01_14_S1 01/15/2018 05:40:00 0.0
2018_01_14_S1 01/15/2018 05:45:00 0.0
2018_01_14_S1 01/15/2018 05:50:00 0.0
2018_01_14_S1 01/15/2018 05:55:00 0.0
2018_01_14_S1 01/15/2018 06:00:00 0.0
2018_01_14_S1 01/15/2018 06:05:00 0.0
2018_01_14_S1 01/15/2018 06:10:00 0.0
2018_01_14_S1 01/15/2018 06:15:00 0.0
2018_01_14_S1 01/15/2018 06:20:00 0.0
2018_01_14_S1 01/15/2018 06:25:00 0.0
2018_01_14_S1 01/15/2018 06:30:00 0.0
2018_01_14_S1 01/15/2018 06:35:00 0.0
2018_01_14_S1 01/15/2018 06:40:00 0.0
2018_01_14_S1 01/15/2018 06:45:00 0.0
2018_01_14_S1 01/15/2018 06:50:00 0.0
2018_01_14_S1 01/15/2018 06:55:00 0.0011
2018_01_14_S1 01/15/2018 07:00:00 0.0006
2018_01_14_S1 01/15/2018 07:05:00 0.0
2018_01_14_S1 01/15/2018 07:10:00 0.0
2018_01_14_S1 01/15/2018 07:15:00 0.061
2018_01_14_S1 01/15/2018 07:20:00 0.2806
2018_01_14_S1 01/15/2018 07:25:00 0.0104
2018_01_14_S1 01/15/2018 07:30:00 0.0
2018_01_14_S1 01/15/2018 07:35:00 0.0
2018_01_14_S1 01/15/2018 07:40:00 0.0
2018_01_14_S1 01/15/2018 07:45:00 0.0
2018_01_14_S1 01/15/2018 07:50:00 0.0
2018_01_14_S1 01/15/2018 07:55:00 0.0
2018_01_14_S1 01/15/2018 08:00:00 0.0

2018_01_14_S2 01/13/2018 08:00:00 0.0
2018_01_14_S2 01/13/2018 08:05:00 0.0
2018_01_14_S2 01/13/2018 08:10:00 0.0
2018_01_14_S2 01/13/2018 08:15:00 0.0
2018_01_14_S2 01/13/2018 08:20:00 0.0
2018_01_14_S2 01/13/2018 08:25:00 0.0
2018_01_14_S2 01/13/2018 08:30:00 0.0
2018_01_14_S2 01/13/2018 08:35:00 0.0
2018_01_14_S2 01/13/2018 08:40:00 0.0
2018_01_14_S2 01/13/2018 08:45:00 0.0
2018_01_14_S2 01/13/2018 08:50:00 0.0
2018_01_14_S2 01/13/2018 08:55:00 0.0
2018_01_14_S2 01/13/2018 09:00:00 0.0
2018_01_14_S2 01/13/2018 09:05:00 0.0
2018_01_14_S2 01/13/2018 09:10:00 0.0
2018_01_14_S2 01/13/2018 09:15:00 0.0
2018_01_14_S2 01/13/2018 09:20:00 0.0
2018_01_14_S2 01/13/2018 09:25:00 0.0
2018_01_14_S2 01/13/2018 09:30:00 0.0
2018_01_14_S2 01/13/2018 09:35:00 0.0
2018_01_14_S2 01/13/2018 09:40:00 0.0
2018_01_14_S2 01/13/2018 09:45:00 0.0
2018_01_14_S2 01/13/2018 09:50:00 0.0
2018_01_14_S2 01/13/2018 09:55:00 0.0
2018_01_14_S2 01/13/2018 10:00:00 0.0
2018_01_14_S2 01/13/2018 10:05:00 0.0
2018_01_14_S2 01/13/2018 10:10:00 0.0
2018_01_14_S2 01/13/2018 10:15:00 0.0
2018_01_14_S2 01/13/2018 10:20:00 0.0
2018_01_14_S2 01/13/2018 10:25:00 0.0
2018_01_14_S2 01/13/2018 10:30:00 0.0
2018_01_14_S2 01/13/2018 10:35:00 0.0
2018_01_14_S2 01/13/2018 10:40:00 0.0
2018_01_14_S2 01/13/2018 10:45:00 0.0
2018_01_14_S2 01/13/2018 10:50:00 0.0
2018_01_14_S2 01/13/2018 10:55:00 0.0
2018_01_14_S2 01/13/2018 11:00:00 0.0
2018_01_14_S2 01/13/2018 11:05:00 0.0
2018_01_14_S2 01/13/2018 11:10:00 0.0
2018_01_14_S2 01/13/2018 11:15:00 0.0
2018_01_14_S2 01/13/2018 11:20:00 0.0
2018_01_14_S2 01/13/2018 11:25:00 0.0
2018_01_14_S2 01/13/2018 11:30:00 0.0
2018_01_14_S2 01/13/2018 11:35:00 0.0
2018_01_14_S2 01/13/2018 11:40:00 0.0
2018_01_14_S2 01/13/2018 11:45:00 0.0
2018_01_14_S2 01/13/2018 11:50:00 0.0
2018_01_14_S2 01/13/2018 11:55:00 0.0
2018_01_14_S2 01/13/2018 12:00:00 0.0
2018_01_14_S2 01/13/2018 12:05:00 0.0
2018_01_14_S2 01/13/2018 12:10:00 0.0
2018_01_14_S2 01/13/2018 12:15:00 0.0
2018_01_14_S2 01/13/2018 12:20:00 0.0
2018_01_14_S2 01/13/2018 12:25:00 0.0
2018_01_14_S2 01/13/2018 12:30:00 0.0
2018_01_14_S2 01/13/2018 12:35:00 0.0
2018_01_14_S2 01/13/2018 12:40:00 0.0
2018_01_14_S2 01/13/2018 12:45:00 0.0
2018_01_14_S2 01/13/2018 12:50:00 0.0
2018_01_14_S2 01/13/2018 12:55:00 0.0
2018_01_14_S2 01/13/2018 13:00:00 0.0
2018_01_14_S2 01/13/2018 13:05:00 0.0
2018_01_14_S2 01/13/2018 13:10:00 0.0
2018_01_14_S2 01/13/2018 13:15:00 0.0
2018_01_14_S2 01/13/2018 13:20:00 0.0
2018_01_14_S2 01/13/2018 13:25:00 0.0
2018_01_14_S2 01/13/2018 13:30:00 0.0
2018_01_14_S2 01/13/2018 13:35:00 0.0
2018_01_14_S2 01/13/2018 13:40:00 0.0
2018_01_14_S2 01/13/2018 13:45:00 0.0
2018_01_14_S2 01/13/2018 13:50:00 0.0
2018_01_14_S2 01/13/2018 13:55:00 0.0
2018_01_14_S2 01/13/2018 14:00:00 0.0
2018_01_14_S2 01/13/2018 14:05:00 0.0
2018_01_14_S2 01/13/2018 14:10:00 0.0
2018_01_14_S2 01/13/2018 14:15:00 0.0
2018_01_14_S2 01/13/2018 14:20:00 0.0
2018_01_14_S2 01/13/2018 14:25:00 0.0
2018_01_14_S2 01/13/2018 14:30:00 0.0
2018_01_14_S2 01/13/2018 14:35:00 0.0
2018_01_14_S2 01/13/2018 14:40:00 0.0
2018_01_14_S2 01/13/2018 14:45:00 0.0
2018_01_14_S2 01/13/2018 14:50:00 0.0
2018_01_14_S2 01/13/2018 14:55:00 0.0
2018_01_14_S2 01/13/2018 15:00:00 0.0
2018_01_14_S2 01/13/2018 15:05:00 0.0
2018_01_14_S2 01/13/2018 15:10:00 0.0
2018_01_14_S2 01/13/2018 15:15:00 0.0
2018_01_14_S2 01/13/2018 15:20:00 0.0
2018_01_14_S2 01/13/2018 15:25:00 0.0
2018_01_14_S2 01/13/2018 15:30:00 0.0
2018_01_14_S2 01/13/2018 15:35:00 0.0
2018_01_14_S2 01/13/2018 15:40:00 0.0
2018_01_14_S2 01/13/2018 15:45:00 0.0
2018_01_14_S2 01/13/2018 15:50:00 0.0
2018_01_14_S2 01/13/2018 15:55:00 0.0
2018_01_14_S2 01/13/2018 16:00:00 0.0
2018_01_14_S2 01/13/2018 16:05:00 0.0
2018_01_14_S2 01/13/2018 16:10:00 0.0
2018_01_14_S2 01/13/2018 16:15:00 0.0
2018_01_14_S2 01/13/2018 16:20:00 0.0
2018_01_14_S2 01/13/2018 16:25:00 0.0
2018_01_14_S2 01/13/2018 16:30:00 0.0
2018_01_14_S2 01/13/2018 16:35:00 0.0
2018_01_14_S2 01/13/2018 16:40:00 0.0
2018_01_14_S2 01/13/2018 16:45:00 0.0
2018_01_14_S2 01/13/2018 16:50:00 0.0
2018_01_14_S2 01/13/2018 16:55:00 0.0
2018_01_14_S2 01/13/2018 17:00:00 0.0
2018_01_14_S2 01/13/2018 17:05:00 0.0
2018_01_14_S2 01/13/2018 17:10:00 0.0
2018_01_14_S2 01/13/2018 17:15:00 0.0
2018_01_14_S2 01/13/2018 17:20:00 0.0
2018_01_14_S2 01/13/2018 17:25:00 0.0
2018_01_14_S2 01/13/2018 17:30:00 0.0
2018_01_14_S2 01/13/2018 17:35:00 0.0
2018_01_14_S2 01/13/2018 17:40:00 0.0
2018_01_14_S2 01/13/2018 17:45:00 0.0
2018_01_14_S2 01/13/2018 17:50:00 0.0
2018_01_14_S2 01/13/2018 17:55:00 0.0
2018_01_14_S2 01/13/2018 18:00:00 0.0
2018_01_14_S2 01/13/2018 18:05:00 0.0
2018_01_14_S2 01/13/2018 18:10:00 0.0
2018_01_14_S2 01/13/2018 18:15:00 0.0
2018_01_14_S2 01/13/2018 18:20:00 0.0
2018_01_14_S2 01/13/2018 18:25:00 0.0
2018_01_14_S2 01/13/2018 18:30:00 0.0
2018_01_14_S2 01/13/2018 18:35:00 0.0
2018_01_14_S2 01/13/2018 18:40:00 0.0
2018_01_14_S2 01/13/2018 18:45:00 0.0
2018_01_14_S2 01/13/2018 18:50:00 0.0
2018_01_14_S2 01/13/2018 18:55:00 0.0
2018_01_14_S2 01/13/2018 19:00:00 0.0
2018_01_14_S2 01/13/2018 19:05:00 0.0
2018_01_14_S2 01/13/2018 19:10:00 0.0
2018_01_14_S2 01/13/2018 19:15:00 0.0
2018_01_14_S2 01/13/2018 19:20:00 0.0
2018_01_14_S2 01/13/2018 19:25:00 0.0
2018_01_14_S2 01/13/2018 19:30:00 0.0
2018_01_14_S2 01/13/2018 19:35:00 0.0
2018_01_14_S2 01/13/2018 19:40:00 0.0
2018_01_14_S2 01/13/2018 19:45:00 0.0
2018_01_14_S2 01/13/2018 19:50:00 0.0
2018_01_14_S2 01/13/2018 19:55:00 0.0
2018_01_14_S2 01/13/2018 20:00:00 0.0
2018_01_14_S2 01/13/2018 20:05:00 0.0
2018_01_14_S2 01/13/2018 20:10:00 0.0
2018_01_14_S2 01/13/2018 20:15:00 0.0
2018_01_14_S2 01/13/2018 20:20:00 0.0
2018_01_14_S2 01/13/2018 20:25:00 0.0
2018_01_14_S2 01/13/2018 20:30:00 0.0
2018_01_14_S2 01/13/2018 20:35:00 0.0
2018_01_14_S2 01/13/2018 20:40:00 0.0
2018_01_14_S2 01/13/2018 20:45:00 0.0
2018_01_14_S2 01/13/2018 20:50:00 0.0
2018_01_14_S2 01/13/2018 20:55:00 0.0
2018_01_14_S2 01/13/2018 21:00:00 0.0
2018_01_14_S2 01/13/2018 21:05:00 0.0
2018_01_14_S2 01/13/2018 21:10:00 0.0
2018_01_14_S2 01/13/2018 21:15:00 0.0
2018_01_14_S2 01/13/2018 21:20:00 0.0
2018_01_14_S2 01/13/2018 21:25:00 0.0
2018_01_14_S2 01/13/2018 21:30:00 0.0
2018_01_14_S2 01/13/2018 21:35:00 0.0
2018_01_14_S2 01/13/2018 21:40:00 0.0
2018_01_14_S2 01/13/2018 21:45:00 0.0
2018_01_14_S2 01/13/2018 21:50:00 0.0
2018_01_14_S2 01/13/2018 21:55:00 0.0
2018_01_14_S2 01/13/2018 22:00:00 0.0
2018_01_14_S2 01/13/2018 22:05:00 0.0
2018_01_14_S2 01/13/2018 22:10:00 0.0
2018_01_14_S2 01/13/2018 22:15:00 0.0
2018_01_14_S2 01/13/2018 22:20:00 0.0
2018_01_14_S2 01/13/2018 22:25:00 0.0
2018_01_14_S2 01/13/2018 22:30:00 0.0
2018_01_14_S2 01/13/2018 22:35:00 0.0
2018_01_14_S2 01/13/2018 22:40:00 0.0
2018_01_14_S2 01/13/2018 22:45:00 0.0
2018_01_14_S2 01/13/2018 22:50:00 0.0
2018_01_14_S2 01/13/2018 22:55:00 0.0
2018_01_14_S2 01/13/2018 23:00:00 0.0
2018_01_14_S2 01/13/2018 23:05:00 0.0
2018_01_14_S2 01/13/2018 23:10:00 0.0
2018_01_14_S2 01/13/2018 23:15:00 0.0
2018_01_14_S2 01/13/2018 23:20:00 0.0
2018_01_14_S2 01/13/2018 23:25:00 0.0
2018_01_14_S2 01/13/2018 23:30:00 0.0
2018_01_14_S2 01/13/2018 23:35:00 0.0
2018_01_14_S2 01/13/2018 23:40:00 0.0
2018_01_14_S2 01/13/2018 23:45:00 0.0
2018_01_14_S2 01/13/2018 23:50:00 0.0
2018_01_14_S2 01/13/2018 23:55:00 0.0
2018_01_14_S2 01/14/2018 00:00:00 0.0
2018_01_14_S2 01/14/2018 00:05:00 0.0
2018_01_14_S2 01/14/2018 00:10:00 0.0
2018_01_14_S2 01/14/2018 00:15:00 0.0
2018_01_14_S2 01/14/2018 00:20:00 0.0
2018_01_14_S2 01/14/2018 00:25:00 0.0
2018_01_14_S2 01/14/2018 00:30:00 0.0
2018_01_14_S2 01/14/2018 00:35:00 0.0
2018_01_14_S2 01/14/2018 00:40:00 0.0
2018_01_14_S2 01/14/2018 00:45:00 0.0
2018_01_14_S2 01/14/2018 00:50:00 0.0
2018_01_14_S2 01/14/2018 00:55:00 0.0
2018_01_14_S2 01/14/2018 01:00:00 0.0
2018_01_14_S2 01/14/2018 01:05:00 0.0
2018_01_14_S2 01/14/2018 01:10:00 0.0
2018_01_14_S2 01/14/2018 01:15:00 0.0
2018_01_14_S2 01/14/2018 01:20:00 0.0
2018_01_14_S2 01/14/2018 01:25:00 0.0
2018_01_14_S2 01/14/2018 01:30:00 0.0
2018_01_14_S2 01/14/2018 01:35:00 0.0
2018_01_14_S2 01/14/2018 01:40:00 0.0
2018_01_14_S2 01/14/2018 01:45:00 0.0
2018_01_14_S2 01/14/2018 01:50:00 0.0
2018_01_14_S2 01/14/2018 01:55:00 0.0
2018_01_14_S2 01/14/2018 02:00:00 0.0
2018_01_14_S2 01/14/2018 02:05:00 0.0
2018_01_14_S2 01/14/2018 02:10:00 0.0
2018_01_14_S2 01/14/2018 02:15:00 0.0
2018_01_14_S2 01/14/2018 02:20:00 0.0
2018_01_14_S2 01/14/2018 02:25:00 0.0
2018_01_14_S2 01/14/2018 02:30:00 0.0
2018_01_14_S2 01/14/2018 02:35:00 0.0
2018_01_14_S2 01/14/2018 02:40:00 0.0
2018_01_14_S2 01/14/2018 02:45:00 0.0
2018_01_14_S2 01/14/2018 02:50:00 0.0
2018_01_14_S2 01/14/2018 02:55:00 0.0
2018_01_14_S2 01/14/2018 03:00:00 0.0078
2018_01_14_S2 01/14/2018 03:05:00 0.0255
2018_01_14_S2 01/14/2018 03:10:00 0.0489
2018_01_14_S2 01/14/2018 03:15:00 0.0
2018_01_14_S2 01/14/2018 03:20:00 0.0
2018_01_14_S2 01/14/2018 03:25:00 0.0
2018_01_14_S2 01/14/2018 03:30:00 0.0
2018_01_14_S2 01/14/2018 03:35:00 0.0
2018_01_14_S2 01/14/2018 03:40:00 0.0
2018_01_14_S2 01/14/2018 03:45:00 0.0
2018_01_14_S2 01/14/2018 03:50:00 0.0
2018_01_14_S2 01/14/2018 03:55:00 0.0
2018_01_14_S2 01/14/2018 04:00:00 0.0
2018_01_14_S2 01/14/2018 04:05:00 0.0
2018_01_14_S2 01/14/2018 04:10:00 0.0
2018_01_14_S2 01/14/2018 04:15:00 0.0
2018_01_14_S2 01/14/2018 04:20:00 0.0
2018_01_14_S2 01/14/2018 04:25:00 0.0
2018_01_14_S2 01/14/2018 04:30:00 0.0
2018_01_14_S2 01/14/2018 04:35:00 0.0
2018_01_14_S2 01/14/2018 04:40:00 0.0
2018_01_14_S2 01/14/2018 04:45:00 0.0
2018_01_14_S2 01/14/2018 04:50:00 0.0
2018_01_14_S2 01/14/2018 04:55:00 0.0
2018_01_14_S2 01/14/2018 05:00:00 0.0012
2018_01_14_S2 01/14/2018 05:05:00 0.009
2018_01_14_S2 01/14/2018 05:10:00 0.0644
2018_01_14_S2 01/14/2018 05:15:00 0.0005
2018_01_14_S2 01/14/2018 05:20:00 0.0
2018_01_14_S2 01/14/2018 05:25:00 0.0
2018_01_14_S2 01/14/2018 05:30:00 0.0
2018_01_14_S2 01/14/2018 05:35:00 0.0
2018_01_14_S2 01/14/2018 05:40:00 0.0
2018_01_14_S2 01/14/2018 05:45:00 0.0
2018_01_14_S2 01/14/2018 05:50:00 0.0
2018_01_14_S2 01/14/2018 05:55:00 0.2519
2018_01_14_S2 01/14/2018 06:00:00 3.3311
2018_01_14_S2 01/14/2018 06:05:00 0.3192
2018_01_14_S2 01/14/2018 06:10:00 0.0494
2018_01_14_S2 01/14/2018 06:15:00 0.0
2018_01_14_S2 01/14/2018 06:20:00 0.0472
2018_01_14_S2 01/14/2018 06:25:00 0.0701
2018_01_14_S2 01/14/2018 06:30:00 0.0005
2018_01_14_S2 01/14/2018 06:35:00 0.0015
2018_01_14_S2 01/14/2018 06:40:00 0.0
2018_01_14_S2 01/14/2018 06:45:00 0.0
2018_01_14_S2 01/14/2018 06:50:00 0.0
2018_01_14_S2 01/14/2018 06:55:00 0.0
2018_01_14_S2 01/14/2018 07:00:00 0.0
2018_01_14_S2 01/14/2018 07:05:00 0.0
2018_01_14_S2 01/14/2018 07:10:00 0.0
2018_01_14_S2 01/14/2018 07:15:00 0.0
2018_01_14_S2 01/14/2018 07:20:00 0.0
2018_01_14_S2 01/14/2018 07:25:00 0.0
2018_01_14_S2 01/14/2018 07:30:00 0.0
2018_01_14_S2 01/14/2018 07:35:00 0.0
2018_01_14_S2 01/14/2018 07:40:00 0.0
2018_01_14_S2 01/14/2018 07:45:00 0.0
2018_01_14_S2 01/14/2018 07:50:00 0.0071
2018_01_14_S2 01/14/2018 07:55:00 0.0
2018_01_14_S2 01/14/2018 08:00:00 0.0
2018_01_14_S2 01/14/2018 08:05:00 0.0
2018_01_14_S2 01/14/2018 08:10:00 0.0
2018_01_14_S2 01/14/2018 08:15:00 0.0
2018_01_14_S2 01/14/2018 08:20:00 0.0
2018_01_14_S2 01/14/2018 08:25:00 0.0
2018_01_14_S2 01/14/2018 08:30:00 0.0033
2018_01_14_S2 01/14/2018 08:35:00 0.0052
2018_01_14_S2 01/14/2018 08:40:00 0.0349
2018_01_14_S2 01/14/2018 08:45:00 0.0015
2018_01_14_S2 01/14/2018 08:50:00 0.0
2018_01_14_S2 01/14/2018 08:55:00 0.0
2018_01_14_S2 01/14/2018 09:00:00 0.0
2018_01_14_S2 01/14/2018 09:05:00 0.0
2018_01_14_S2 01/14/2018 09:10:00 0.0
2018_01_14_S2 01/14/2018 09:15:00 0.0
2018_01_14_S2 01/14/2018 09:20:00 0.0
2018_01_14_S2 01/14/2018 09:25:00 0.0
2018_01_14_S2 01/14/2018 09:30:00 0.0
2018_01_14_S2 01/14/2018 09:35:00 0.0
2018_01_14_S2 01/14/2018 09:40:00 0.0
2018_01_14_S2 01/14/2018 09:45:00 0.0
2018_01_14_S2 01/14/2018 09:50:00 0.0
2018_01_14_S2 01/14/2018 09:55:00 0.0
2018_01_14_S2 01/14/2018 10:00:00 0.0
2018_01_14_S2 01/14/2018 10:05:00 0.0
2018_01_14_S2 01/14/2018 10:10:00 0.0
2018_01_14_S2 01/14/2018 10:15:00 0.0
2018_01_14_S2 01/14/2018 10:20:00 0.0
2018_01_14_S2 01/14/2018 10:25:00 0.0
2018_01_14_S2 01/14/2018 10:30:00 0.0
2018_01_14_S2 01/14/2018 10:35:00 0.0
2018_01_14_S2 01/14/2018 10:40:00 0.0
2018_01_14_S2 01/14/2018 10:45:00 0.0
2018_01_14_S2 01/14/2018 10:50:00 0.0
2018_01_14_S2 01/14/2018 10:55:00 0.0
2018_01_14_S2 01/14/2018 11:00:00 0.0
2018_01_14_S2 01/14/2018 11:05:00 0.0
2018_01_14_S2 01/14/2018 11:10:00 0.0
2018_01_14_S2 01/14/2018 11:15:00 0.0
2018_01_14_S2 01/14/2018 11:20:00 0.0
2018_01_14_S2 01/14/2018 11:25:00 0.0
2018_01_14_S2 01/14/2018 11:30:00 0.0
2018_01_14_S2 01/14/2018 11:35:00 0.0
2018_01_14_S2 01/14/2018 11:40:00 0.0
2018_01_14_S2 01/14/2018 11:45:00 0.0
2018_01_14_S2 01/14/2018 11:50:00 0.0
2018_01_14_S2 01/14/2018 11:55:00 0.0
2018_01_14_S2 01/14/2018 12:00:00 0.0
2018_01_14_S2 01/14/2018 12:05:00 0.0
2018_01_14_S2 01/14/2018 12:10:00 0.0
2018_01_14_S2 01/14/2018 12:15:00 0.0
2018_01_14_S2 01/14/2018 12:20:00 0.0
2018_01_14_S2 01/14/2018 12:25:00 0.0
2018_01_14_S2 01/14/2018 12:30:00 0.0
2018_01_14_S2 01/14/2018 12:35:00 0.0
2018_01_14_S2 01/14/2018 12:40:00 0.0
2018_01_14_S2 01/14/2018 12:45:00 0.0
2018_01_14_S2 01/14/2018 12:50:00 0.0
2018_01_14_S2 01/14/2018 12:55:00 0.0
2018_01_14_S2 01/14/2018 13:00:00 0.0
2018_01_14_S2 01/14/2018 13:05:00 0.0
2018_01_14_S2 01/14/2018 13:10:00 0.0
2018_01_14_S2 01/14/2018 13:15:00 0.0
2018_01_14_S2 01/14/2018 13:20:00 0.0
2018_01_14_S2 01/14/2018 13:25:00 0.0
2018_01_14_S2 01/14/2018 13:30:00 0.0
2018_01_14_S2 01/14/2018 13:35:00 0.0
2018_01_14_S2 01/14/2018 13:40:00 0.0
2018_01_14_S2 01/14/2018 13:45:00 0.0
2018_01_14_S2 01/14/2018 13:50:00 0.0
2018_01_14_S2 01/14/2018 13:55:00 0.0
2018_01_14_S2 01/14/2018 14:00:00 0.0
2018_01_14_S2 01/14/2018 14:05:00 0.0
2018_01_14_S2 01/14/2018 14:10:00 0.0
2018_01_14_S2 01/14/2018 14:15:00 0.0
2018_01_14_S2 01/14/2018 14:20:00 0.0
2018_01_14_S2 01/14/2018 14:25:00 0.0
2018_01_14_S2 01/14/2018 14:30:00 0.0
2018_01_14_S2 01/14/2018 14:35:00 0.0
2018_01_14_S2 01/14/2018 14:40:00 0.0
2018_01_14_S2 01/14/2018 14:45:00 0.0
2018_01_14_S2 01/14/2018 14:50:00 0.0
2018_01_14_S2 01/14/2018 14:55:00 0.0
2018_01_14_S2 01/14/2018 15:00:00 0.0005
2018_01_14_S2 01/14/2018 15:05:00 0.0
2018_01_14_S2 01/14/2018 15:10:00 0.0
2018_01_14_S2 01/14/2018 15:15:00 0.0
2018_01_14_S2 01/14/2018 15:20:00 0.0
2018_01_14_S2 01/14/2018 15:25:00 0.0
2018_01_14_S2 01/14/2018 15:30:00 0.0
2018_01_14_S2 01/14/2018 15:35:00 0.0
2018_01_14_S2 01/14/2018 15:40:00 0.0
2018_01_14_S2 01/14/2018 15:45:00 0.0
2018_01_14_S2 01/14/2018 15:50:00 0.0
2018_01_14_S2 01/14/2018 15:55:00 0.0
2018_01_14_S2 01/14/2018 16:00:00 0.0
2018_01_14_S2 01/14/2018 16:05:00 0.0
2018_01_14_S2 01/14/2018 16:10:00 0.0
2018_01_14_S2 01/14/2018 16:15:00 0.0
2018_01_14_S2 01/14/2018 16:20:00 0.001
2018_01_14_S2 01/14/2018 16:25:00 0.0017
2018_01_14_S2 01/14/2018 16:30:00 0.0
2018_01_14_S2 01/14/2018 16:35:00 0.0
2018_01_14_S2 01/14/2018 16:40:00 0.037
2018_01_14_S2 01/14/2018 16:45:00 0.0105
2018_01_14_S2 01/14/2018 16:50:00 0.0927
2018_01_14_S2 01/14/2018 16:55:00 0.0126
2018_01_14_S2 01/14/2018 17:00:00 0.0
2018_01_14_S2 01/14/2018 17:05:00 0.0034
2018_01_14_S2 01/14/2018 17:10:00 0.1466
2018_01_14_S2 01/14/2018 17:15:00 0.0085
2018_01_14_S2 01/14/2018 17:20:00 0.0091
2018_01_14_S2 01/14/2018 17:25:00 0.0031
2018_01_14_S2 01/14/2018 17:30:00 0.0
2018_01_14_S2 01/14/2018 17:35:00 0.1365
2018_01_14_S2 01/14/2018 17:40:00 0.3418
2018_01_14_S2 01/14/2018 17:45:00 0.4126
2018_01_14_S2 01/14/2018 17:50:00 0.1489
2018_01_14_S2 01/14/2018 17:55:00 0.1971
2018_01_14_S2 01/14/2018 18:00:00 0.7668
2018_01_14_S2 01/14/2018 18:05:00 0.8772
2018_01_14_S2 01/14/2018 18:10:00 1.088
2018_01_14_S2 01/14/2018 18:15:00 3.5572
2018_01_14_S2 01/14/2018 18:20:00 2.8361
2018_01_14_S2 01/14/2018 18:25:00 0.7195
2018_01_14_S2 01/14/2018 18:30:00 0.5633
2018_01_14_S2 01/14/2018 18:35:00 0.0307
2018_01_14_S2 01/14/2018 18:40:00 0.0151
2018_01_14_S2 01/14/2018 18:45:00 0.8028
2018_01_14_S2 01/14/2018 18:50:00 5.3598
2018_01_14_S2 01/14/2018 18:55:00 0.013
2018_01_14_S2 01/14/2018 19:00:00 0.0232
2018_01_14_S2 01/14/2018 19:05:00 0.0
2018_01_14_S2 01/14/2018 19:10:00 0.0
2018_01_14_S2 01/14/2018 19:15:00 0.0
2018_01_14_S2 01/14/2018 19:20:00 0.0
2018_01_14_S2 01/14/2018 19:25:00 0.0
2018_01_14_S2 01/14/2018 19:30:00 0.0
2018_01_14_S2 01/14/2018 19:35:00 0.0
2018_01_14_S2 01/14/2018 19:40:00 0.0
2018_01_14_S2 01/14/2018 19:45:00 0.0
2018_01_14_S2 01/14/2018 19:50:00 0.0
2018_01_14_S2 01/14/2018 19:55:00 0.0
2018_01_14_S2 01/14/2018 20:00:00 0.0
2018_01_14_S2 01/14/2018 20:05:00 0.0
2018_01_14_S2 01/14/2018 20:10:00 0.0
2018_01_14_S2 01/14/2018 20:15:00 0.0
2018_01_14_S2 01/14/2018 20:20:00 0.0
2018_01_14_S2 01/14/2018 20:25:00 0.0
2018_01_14_S2 01/14/2018 20:30:00 0.0
2018_01_14_S2 01/14/2018 20:35:00 0.0
2018_01_14_S2 01/14/2018 20:40:00 0.0
2018_01_14_S2 01/14/2018 20:45:00 0.0
2018_01_14_S2 01/14/2018 20:50:00 0.0
2018_01_14_S2 01/14/2018 20:55:00 0.0
2018_01_14_S2 01/14/2018 21:00:00 0.0
2018_01_14_S2 01/14/2018 21:05:00 0.0
2018_01_14_S2 01/14/2018 21:10:00 0.0
2018_01_14_S2 01/14/2018 21:15:00 0.0
2018_01_14_S2 01/14/2018 21:20:00 0.0
2018_01_14_S2 01/14/2018 21:25:00 0.0
2018_01_14_S2 01/14/2018 21:30:00 0.0
2018_01_14_S2 01/14/2018 21:35:00 0.0
2018_01_14_S2 01/14/2018 21:40:00 0.0
2018_01_14_S2 01/14/2018 21:45:00 0.0
2018_01_14_S2 01/14/2018 21:50:00 0.0
2018_01_14_S2 01/14/2018 21:55:00 0.0
2018_01_14_S2 01/14/2018 22:00:00 0.0
2018_01_14_S2 01/14/2018 22:05:00 0.0
2018_01_14_S2 01/14/2018 22:10:00 0.0
2018_01_14_S2 01/14/2018 22:15:00 0.0
2018_01_14_S2 01/14/2018 22:20:00 0.0
2018_01_14_S2 01/14/2018 22:25:00 0.0
2018_01_14_S2 01/14/2018 22:30:00 0.0
2018_01_14_S2 01/14/2018 22:35:00 0.0009
2018_01_14_S2 01/14/2018 22:40:00 0.0
2018_01_14_S2 01/14/2018 22:45:00 0.0
2018_01_14_S2 01/14/2018 22:50:00 0.0
2018_01_14_S2 01/14/2018 22:55:00 0.0081
2018_01_14_S2 01/14/2018 23:00:00 0.0169
2018_01_14_S2 01/14/2018 23:05:00 0.0025
2018_01_14_S2 01/14/2018 23:10:00 0.0
2018_01_14_S2 01/14/2018 23:15:00 0.0045
2018_01_14_S2 01/14/2018 23:20:00 0.0051
2018_01_14_S2 01/14/2018 23:25:00 0.0
2018_01_14_S2 01/14/2018 23:30:00 0.0
2018_01_14_S2 01/14/2018 23:35:00 0.0
2018_01_14_S2 01/14/2018 23:40:00 0.0
2018_01_14_S2 01/14/2018 23:45:00 0.0
2018_01_14_S2 01/14/2018 23:50:00 0.0
2018_01_14_S2 01/14/2018 23:55:00 0.0
2018_01_14_S2 01/15/2018 00:00:00 0.0
2018_01_14_S2 01/15/2018 00:05:00 0.0
2018_01_14_S2 01/15/2018 00:10:00 0.0
2018_01_14_S2 01/15/2018 00:15:00 0.0
2018_01_14_S2 01/15/2018 00:20:00 0.0
2018_01_14_S2 01/15/2018 00:25:00 0.0
2018_01_14_S2 01/15/2018 00:30:00 0.0
2018_01_14_S2 01/15/2018 00:35:00 0.0
2018_01_14_S2 01/15/2018 00:40:00 0.0
2018_01_14_S2 01/15/2018 00:45:00 0.0
2018_01_14_S2 01/15/2018 00:50:00 0.0
2018_01_14_S2 01/15/2018 00:55:00 0.0
2018_01_14_S2 01/15/2018 01:00:00 0.0
2018_01_14_S2 01/15/2018 01:05:00 0.0
2018_01_14_S2 01/15/2018 01:10:00 0.0
2018_01_14_S2 01/15/2018 01:15:00 0.0
2018_01_14_S2 01/15/2018 01:20:00 0.0
2018_01_14_S2 01/15/2018 01:25:00 0.0
2018_01_14_S2 01/15/2018 01:30:00 0.0
2018_01_14_S2 01/15/2018 01:35:00 0.0
2018_01_14_S2 01/15/2018 01:40:00 0.0
2018_01_14_S2 01/15/2018 01:45:00 0.0
2018_01_14_S2 01/15/2018 01:50:00 0.0
2018_01_14_S2 01/15/2018 01:55:00 0.0
2018_01_14_S2 01/15/2018 02:00:00 0.0
2018_01_14_S2 01/15/2018 02:05:00 0.0
2018_01_14_S2 01/15/2018 02:10:00 0.0
2018_01_14_S2 01/15/2018 02:15:00 0.0
2018_01_14_S2 01/15/2018 02:20:00 0.0
2018_01_14_S2 01/15/2018 02:25:00 0.0001
2018_01_14_S2 01/15/2018 02:30:00 0.0
2018_01_14_S2 01/15/2018 02:35:00 0.0001
2018_01_14_S2 01/15/2018 02:40:00 0.2136
2018_01_14_S2 01/15/2018 02:45:00 0.2271
2018_01_14_S2 01/15/2018 02:50:00 0.3093
2018_01_14_S2 01/15/2018 02:55:00 0.1674
2018_01_14_S2 01/15/2018 03:00:00 0.0357
2018_01_14_S2 01/15/2018 03:05:00 0.0822
2018_01_14_S2 01/15/2018 03:10:00 0.0012
2018_01_14_S2 01/15/2018 03:15:00 0.0
2018_01_14_S2 01/15/2018 03:20:00 0.0
2018_01_14_S2 01/15/2018 03:25:00 0.0
2018_01_14_S2 01/15/2018 03:30:00 0.0
2018_01_14_S2 01/15/2018 03:35:00 0.0
2018_01_14_S2 01/15/2018 03:40:00 0.0
2018_01_14_S2 01/15/2018 03:45:00 0.0
2018_01_14_S2 01/15/2018 03:50:00 0.0
2018_01_14_S2 01/15/2018 03:55:00 0.0
2018_01_14_S2 01/15/2018 04:00:00 0.0
2018_01_14_S2 01/15/2018 04:05:00 0.0
2018_01_14_S2 01/15/2018 04:10:00 0.0
2018_01_14_S2 01/15/2018 04:15:00 0.0
2018_01_14_S2 01/15/2018 04:20:00 0.0
2018_01_14_S2 01/15/2018 04:25:00 0.0
2018_01_14_S2 01/15/2018 04:30:00 0.0
2018_01_14_S2 01/15/2018 04:35:00 0.0
2018_01_14_S2 01/15/2018 04:40:00 0.0
2018_01_14_S2 01/15/2018 04:45:00 0.0
2018_01_14_S2 01/15/2018 04:50:00 0.0
2018_01_14_S2 01/15/2018 04:55:00 0.0
2018_01_14_S2 01/15/2018 05:00:00 0.0
2018_01_14_S2 01/15/2018 05:05:00 0.0
2018_01_14_S2 01/15/2018 05:10:00 0.0
2018_01_14_S2 01/15/2018 05:15:00 0.0
2018_01_14_S2 01/15/2018 05:20:00 0.0
2018_01_14_S2 01/15/2018 05:25:00 0.0
2018_01_14_S2 01/15/2018 05:30:00 0.0
2018_01_14_S2 01/15/2018 05:35:00 0.0
2018_01_14_S2 01/15/2018 05:40:00 0.0
2018_01_14_S2 01/15/2018 05:45:00 0.0
2018_01_14_S2 01/15/2018 05:50:00 0.0
2018_01_14_S2 01/15/2018 05:55:00 0.0
2018_01_14_S2 01/15/2018 06:00:00 0.0
2018_01_14_S2 01/15/2018 06:05:00 0.0
2018_01_14_S2 01/15/2018 06:10:00 0.0
2018_01_14_S2 01/15/2018 06:15:00 0.0
2018_01_14_S2 01/15/2018 06:20:00 0.0
2018_01_14_S2 01/15/2018 06:25:00 0.0
2018_01_14_S2 01/15/2018 06:30:00 0.0
2018_01_14_S2 01/15/2018 06:35:00 0.0
2018_01_14_S2 01/15/2018 06:40:00 0.0
2018_01_14_S2 01/15/2018 06:45:00 0.0
2018_01_14_S2 01/15/2018 06:50:00 0.0
2018_01_14_S2 01/15/2018 06:55:00 0.0
2018_01_14_S2 01/15/2018 07:00:00 0.0019
2018_01_14_S2 01/15/2018 07:05:00 0.0
2018_01_14_S2 01/15/2018 07:10:00 0.0
2018_01_14_S2 01/15/2018 07:15:00 0.0454
2018_01_14_S2 01/15/2018 07:20:00 0.4025
2018_01_14_S2 01/15/2018 07:25:00 0.0382
2018_01_14_S2 01/15/2018 07:30:00 0.0
2018_01_14_S2 01/15/2018 07:35:00 0.0
2018_01_14_S2 01/15/2018 07:40:00 0.0
2018_01_14_S2 01/15/2018 07:45:00 0.0
2018_01_14_S2 01/15/2018 07:50:00 0.0
2018_01_14_S2 01/15/2018 07:55:00 0.0
2018_01_14_S2 01/15/2018 08:00:00 0.0

2018_01_14_S3 01/13/2018 08:00:00 0.0
2018_01_14_S3 01/13/2018 08:05:00 0.0
2018_01_14_S3 01/13/2018 08:10:00 0.0
2018_01_14_S3 01/13/2018 08:15:00 0.0
2018_01_14_S3 01/13/2018 08:20:00 0.0
2018_01_14_S3 01/13/2018 08:25:00 0.0
2018_01_14_S3 01/13/2018 08:30:00 0.0
2018_01_14_S3 01/13/2018 08:35:00 0.0
2018_01_14_S3 01/13/2018 08:40:00 0.0
2018_01_14_S3 01/13/2018 08:45:00 0.0
2018_01_14_S3 01/13/2018 08:50:00 0.0
2018_01_14_S3 01/13/2018 08:55:00 0.0
2018_01_14_S3 01/13/2018 09:00:00 0.0
2018_01_14_S3 01/13/2018 09:05:00 0.0
2018_01_14_S3 01/13/2018 09:10:00 0.0
2018_01_14_S3 01/13/2018 09:15:00 0.0
2018_01_14_S3 01/13/2018 09:20:00 0.0
2018_01_14_S3 01/13/2018 09:25:00 0.0
2018_01_14_S3 01/13/2018 09:30:00 0.0
2018_01_14_S3 01/13/2018 09:35:00 0.0
2018_01_14_S3 01/13/2018 09:40:00 0.0
2018_01_14_S3 01/13/2018 09:45:00 0.0
2018_01_14_S3 01/13/2018 09:50:00 0.0
2018_01_14_S3 01/13/2018 09:55:00 0.0
2018_01_14_S3 01/13/2018 10:00:00 0.0
2018_01_14_S3 01/13/2018 10:05:00 0.0
2018_01_14_S3 01/13/2018 10:10:00 0.0
2018_01_14_S3 01/13/2018 10:15:00 0.0
2018_01_14_S3 01/13/2018 10:20:00 0.0
2018_01_14_S3 01/13/2018 10:25:00 0.0
2018_01_14_S3 01/13/2018 10:30:00 0.0
2018_01_14_S3 01/13/2018 10:35:00 0.0
2018_01_14_S3 01/13/2018 10:40:00 0.0
2018_01_14_S3 01/13/2018 10:45:00 0.0
2018_01_14_S3 01/13/2018 10:50:00 0.0
2018_01_14_S3 01/13/2018 10:55:00 0.0
2018_01_14_S3 01/13/2018 11:00:00 0.0
2018_01_14_S3 01/13/2018 11:05:00 0.0
2018_01_14_S3 01/13/2018 11:10:00 0.0
2018_01_14_S3 01/13/2018 11:15:00 0.0
2018_01_14_S3 01/13/2018 11:20:00 0.0
2018_01_14_S3 01/13/2018 11:25:00 0.0
2018_01_14_S3 01/13/2018 11:30:00 0.0
2018_01_14_S3 01/13/2018 11:35:00 0.0
2018_01_14_S3 01/13/2018 11:40:00 0.0
2018_01_14_S3 01/13/2018 11:45:00 0.0
2018_01_14_S3 01/13/2018 11:50:00 0.0
2018_01_14_S3 01/13/2018 11:55:00 0.0
2018_01_14_S3 01/13/2018 12:00:00 0.0
2018_01_14_S3 01/13/2018 12:05:00 0.0
2018_01_14_S3 01/13/2018 12:10:00 0.0
2018_01_14_S3 01/13/2018 12:15:00 0.0
2018_01_14_S3 01/13/2018 12:20:00 0.0
2018_01_14_S3 01/13/2018 12:25:00 0.0
2018_01_14_S3 01/13/2018 12:30:00 0.0
2018_01_14_S3 01/13/2018 12:35:00 0.0
2018_01_14_S3 01/13/2018 12:40:00 0.0
2018_01_14_S3 01/13/2018 12:45:00 0.0
2018_01_14_S3 01/13/2018 12:50:00 0.0
2018_01_14_S3 01/13/2018 12:55:00 0.0
2018_01_14_S3 01/13/2018 13:00:00 0.0
2018_01_14_S3 01/13/2018 13:05:00 0.0
2018_01_14_S3 01/13/2018 13:10:00 0.0
2018_01_14_S3 01/13/2018 13:15:00 0.0
2018_01_14_S3 01/13/2018 13:20:00 0.0
2018_01_14_S3 01/13/2018 13:25:00 0.0
2018_01_14_S3 01/13/2018 13:30:00 0.0
2018_01_14_S3 01/13/2018 13:35:00 0.0
2018_01_14_S3 01/13/2018 13:40:00 0.0
2018_01_14_S3 01/13/2018 13:45:00 0.0
2018_01_14_S3 01/13/2018 13:50:00 0.0
2018_01_14_S3 01/13/2018 13:55:00 0.0
2018_01_14_S3 01/13/2018 14:00:00 0.0
2018_01_14_S3 01/13/2018 14:05:00 0.0
2018_01_14_S3 01/13/2018 14:10:00 0.0
2018_01_14_S3 01/13/2018 14:15:00 0.0
2018_01_14_S3 01/13/2018 14:20:00 0.0
2018_01_14_S3 01/13/2018 14:25:00 0.0
2018_01_14_S3 01/13/2018 14:30:00 0.0
2018_01_14_S3 01/13/2018 14:35:00 0.0
2018_01_14_S3 01/13/2018 14:40:00 0.0
2018_01_14_S3 01/13/2018 14:45:00 0.0
2018_01_14_S3 01/13/2018 14:50:00 0.0
2018_01_14_S3 01/13/2018 14:55:00 0.0
2018_01_14_S3 01/13/2018 15:00:00 0.0
2018_01_14_S3 01/13/2018 15:05:00 0.0
2018_01_14_S3 01/13/2018 15:10:00 0.0
2018_01_14_S3 01/13/2018 15:15:00 0.0
2018_01_14_S3 01/13/2018 15:20:00 0.0
2018_01_14_S3 01/13/2018 15:25:00 0.0
2018_01_14_S3 01/13/2018 15:30:00 0.0
2018_01_14_S3 01/13/2018 15:35:00 0.0
2018_01_14_S3 01/13/2018 15:40:00 0.0
2018_01_14_S3 01/13/2018 15:45:00 0.0
2018_01_14_S3 01/13/2018 15:50:00 0.0
2018_01_14_S3 01/13/2018 15:55:00 0.0
2018_01_14_S3 01/13/2018 16:00:00 0.0
2018_01_14_S3 01/13/2018 16:05:00 0.0
2018_01_14_S3 01/13/2018 16:10:00 0.0
2018_01_14_S3 01/13/2018 16:15:00 0.0
2018_01_14_S3 01/13/2018 16:20:00 0.0
2018_01_14_S3 01/13/2018 16:25:00 0.0
2018_01_14_S3 01/13/2018 16:30:00 0.0
2018_01_14_S3 01/13/2018 16:35:00 0.0
2018_01_14_S3 01/13/2018 16:40:00 0.0
2018_01_14_S3 01/13/2018 16:45:00 0.0
2018_01_14_S3 01/13/2018 16:50:00 0.0
2018_01_14_S3 01/13/2018 16:55:00 0.0
2018_01_14_S3 01/13/2018 17:00:00 0.0
2018_01_14_S3 01/13/2018 17:05:00 0.0
2018_01_14_S3 01/13/2018 17:10:00 0.0
2018_01_14_S3 01/13/2018 17:15:00 0.0
2018_01_14_S3 01/13/2018 17:20:00 0.0
2018_01_14_S3 01/13/2018 17:25:00 0.0
2018_01_14_S3 01/13/2018 17:30:00 0.0
2018_01_14_S3 01/13/2018 17:35:00 0.0
2018_01_14_S3 01/13/2018 17:40:00 0.0
2018_01_14_S3 01/13/2018 17:45:00 0.0
2018_01_14_S3 01/13/2018 17:50:00 0.0
2018_01_14_S3 01/13/2018 17:55:00 0.0
2018_01_14_S3 01/13/2018 18:00:00 0.0
2018_01_14_S3 01/13/2018 18:05:00 0.0
2018_01_14_S3 01/13/2018 18:10:00 0.0
2018_01_14_S3 01/13/2018 18:15:00 0.0
2018_01_14_S3 01/13/2018 18:20:00 0.0
2018_01_14_S3 01/13/2018 18:25:00 0.0
2018_01_14_S3 01/13/2018 18:30:00 0.0
2018_01_14_S3 01/13/2018 18:35:00 0.0
2018_01_14_S3 01/13/2018 18:40:00 0.0
2018_01_14_S3 01/13/2018 18:45:00 0.0
2018_01_14_S3 01/13/2018 18:50:00 0.0
2018_01_14_S3 01/13/2018 18:55:00 0.0
2018_01_14_S3 01/13/2018 19:00:00 0.0
2018_01_14_S3 01/13/2018 19:05:00 0.0
2018_01_14_S3 01/13/2018 19:10:00 0.0
2018_01_14_S3 01/13/2018 19:15:00 0.0
2018_01_14_S3 01/13/2018 19:20:00 0.0
2018_01_14_S3 01/13/2018 19:25:00 0.0
2018_01_14_S3 01/13/2018 19:30:00 0.0
2018_01_14_S3 01/13/2018 19:35:00 0.0
2018_01_14_S3 01/13/2018 19:40:00 0.0
2018_01_14_S3 01/13/2018 19:45:00 0.0
2018_01_14_S3 01/13/2018 19:50:00 0.0
2018_01_14_S3 01/13/2018 19:55:00 0.0
2018_01_14_S3 01/13/2018 20:00:00 0.0
2018_01_14_S3 01/13/2018 20:05:00 0.0
2018_01_14_S3 01/13/2018 20:10:00 0.0
2018_01_14_S3 01/13/2018 20:15:00 0.0
2018_01_14_S3 01/13/2018 20:20:00 0.0
2018_01_14_S3 01/13/2018 20:25:00 0.0
2018_01_14_S3 01/13/2018 20:30:00 0.0
2018_01_14_S3 01/13/2018 20:35:00 0.0
2018_01_14_S3 01/13/2018 20:40:00 0.0
2018_01_14_S3 01/13/2018 20:45:00 0.0
2018_01_14_S3 01/13/2018 20:50:00 0.0
2018_01_14_S3 01/13/2018 20:55:00 0.0
2018_01_14_S3 01/13/2018 21:00:00 0.0
2018_01_14_S3 01/13/2018 21:05:00 0.0
2018_01_14_S3 01/13/2018 21:10:00 0.0
2018_01_14_S3 01/13/2018 21:15:00 0.0
2018_01_14_S3 01/13/2018 21:20:00 0.0
2018_01_14_S3 01/13/2018 21:25:00 0.0
2018_01_14_S3 01/13/2018 21:30:00 0.0
2018_01_14_S3 01/13/2018 21:35:00 0.0
2018_01_14_S3 01/13/2018 21:40:00 0.0
2018_01_14_S3 01/13/2018 21:45:00 0.0
2018_01_14_S3 01/13/2018 21:50:00 0.0
2018_01_14_S3 01/13/2018 21:55:00 0.0
2018_01_14_S3 01/13/2018 22:00:00 0.0
2018_01_14_S3 01/13/2018 22:05:00 0.0
2018_01_14_S3 01/13/2018 22:10:00 0.0
2018_01_14_S3 01/13/2018 22:15:00 0.0
2018_01_14_S3 01/13/2018 22:20:00 0.0
2018_01_14_S3 01/13/2018 22:25:00 0.0
2018_01_14_S3 01/13/2018 22:30:00 0.0
2018_01_14_S3 01/13/2018 22:35:00 0.0
2018_01_14_S3 01/13/2018 22:40:00 0.0
2018_01_14_S3 01/13/2018 22:45:00 0.0
2018_01_14_S3 01/13/2018 22:50:00 0.0
2018_01_14_S3 01/13/2018 22:55:00 0.0
2018_01_14_S3 01/13/2018 23:00:00 0.0
2018_01_14_S3 01/13/2018 23:05:00 0.0
2018_01_14_S3 01/13/2018 23:10:00 0.0
2018_01_14_S3 01/13/2018 23:15:00 0.0
2018_01_14_S3 01/13/2018 23:20:00 0.0
2018_01_14_S3 01/13/2018 23:25:00 0.0
2018_01_14_S3 01/13/2018 23:30:00 0.0
2018_01_14_S3 01/13/2018 23:35:00 0.0
2018_01_14_S3 01/13/2018 23:40:00 0.0
2018_01_14_S3 01/13/2018 23:45:00 0.0
2018_01_14_S3 01/13/2018 23:50:00 0.0
2018_01_14_S3 01/13/2018 23:55:00 0.0
2018_01_14_S3 01/14/2018 00:00:00 0.0
2018_01_14_S3 01/14/2018 00:05:00 0.0
2018_01_14_S3 01/14/2018 00:10:00 0.0
2018_01_14_S3 01/14/2018 00:15:00 0.0
2018_01_14_S3 01/14/2018 00:20:00 0.0
2018_01_14_S3 01/14/2018 00:25:00 0.0
2018_01_14_S3 01/14/2018 00:30:00 0.0
2018_01_14_S3 01/14/2018 00:35:00 0.0
2018_01_14_S3 01/14/2018 00:40:00 0.0
2018_01_14_S3 01/14/2018 00:45:00 0.0
2018_01_14_S3 01/14/2018 00:50:00 0.0
2018_01_14_S3 01/14/2018 00:55:00 0.0
2018_01_14_S3 01/14/2018 01:00:00 0.0
2018_01_14_S3 01/14/2018 01:05:00 0.0
2018_01_14_S3 01/14/2018 01:10:00 0.0
2018_01_14_S3 01/14/2018 01:15:00 0.0
2018_01_14_S3 01/14/2018 01:20:00 0.0
2018_01_14_S3 01/14/2018 01:25:00 0.0
2018_01_14_S3 01/14/2018 01:30:00 0.0
2018_01_14_S3 01/14/2018 01:35:00 0.0
2018_01_14_S3 01/14/2018 01:40:00 0.0
2018_01_14_S3 01/14/2018 01:45:00 0.0
2018_01_14_S3 01/14/2018 01:50:00 0.0
2018_01_14_S3 01/14/2018 01:55:00 0.0
2018_01_14_S3 01/14/2018 02:00:00 0.0
2018_01_14_S3 01/14/2018 02:05:00 0.0
2018_01_14_S3 01/14/2018 02:10:00 0.0
2018_01_14_S3 01/14/2018 02:15:00 0.0
2018_01_14_S3 01/14/2018 02:20:00 0.0
2018_01_14_S3 01/14/2018 02:25:00 0.0
2018_01_14_S3 01/14/2018 02:30:00 0.0
2018_01_14_S3 01/14/2018 02:35:00 0.0
2018_01_14_S3 01/14/2018 02:40:00 0.0
2018_01_14_S3 01/14/2018 02:45:00 0.0
2018_01_14_S3 01/14/2018 02:50:00 0.0
2018_01_14_S3 01/14/2018 02:55:00 0.0002
2018_01_14_S3 01/14/2018 03:00:00 0.0072
2018_01_14_S3 01/14/2018 03:05:00 0.0328
2018_01_14_S3 01/14/2018 03:10:00 0.0724
2018_01_14_S3 01/14/2018 03:15:00 0.0
2018_01_14_S3 01/14/2018 03:20:00 0.0
2018_01_14_S3 01/14/2018 03:25:00 0.0
2018_01_14_S3 01/14/2018 03:30:00 0.0
2018_01_14_S3 01/14/2018 03:35:00 0.0
2018_01_14_S3 01/14/2018 03:40:00 0.0
2018_01_14_S3 01/14/2018 03:45:00 0.0
2018_01_14_S3 01/14/2018 03:50:00 0.0
2018_01_14_S3 01/14/2018 03:55:00 0.0
2018_01_14_S3 01/14/2018 04:00:00 0.0
2018_01_14_S3 01/14/2018 04:05:00 0.0
2018_01_14_S3 01/14/2018 04:10:00 0.0
2018_01_14_S3 01/14/2018 04:15:00 0.0
2018_01_14_S3 01/14/2018 04:20:00 0.0
2018_01_14_S3 01/14/2018 04:25:00 0.0
2018_01_14_S3 01/14/2018 04:30:00 0.0
2018_01_14_S3 01/14/2018 04:35:00 0.0
2018_01_14_S3 01/14/2018 04:40:00 0.0
2018_01_14_S3 01/14/2018 04:45:00 0.0
2018_01_14_S3 01/14/2018 04:50:00 0.0
2018_01_14_S3 01/14/2018 04:55:00 0.0
2018_01_14_S3 01/14/2018 05:00:00 0.0033
2018_01_14_S3 01/14/2018 05:05:00 0.0084
2018_01_14_S3 01/14/2018 05:10:00 0.045
2018_01_14_S3 01/14/2018 05:15:00 0.0006
2018_01_14_S3 01/14/2018 05:20:00 0.0
2018_01_14_S3 01/14/2018 05:25:00 0.0
2018_01_14_S3 01/14/2018 05:30:00 0.0
2018_01_14_S3 01/14/2018 05:35:00 0.0
2018_01_14_S3 01/14/2018 05:40:00 0.0
2018_01_14_S3 01/14/2018 05:45:00 0.0
2018_01_14_S3 01/14/2018 05:50:00 0.0
2018_01_14_S3 01/14/2018 05:55:00 0.2345
2018_01_14_S3 01/14/2018 06:00:00 4.3985
2018_01_14_S3 01/14/2018 06:05:00 0.7329
2018_01_14_S3 01/14/2018 06:10:00 0.0143
2018_01_14_S3 01/14/2018 06:15:00 0.0
2018_01_14_S3 01/14/2018 06:20:00 0.0624
2018_01_14_S3 01/14/2018 06:25:00 0.1236
2018_01_14_S3 01/14/2018 06:30:00 0.0006
2018_01_14_S3 01/14/2018 06:35:00 0.0
2018_01_14_S3 01/14/2018 06:40:00 0.0
2018_01_14_S3 01/14/2018 06:45:00 0.0
2018_01_14_S3 01/14/2018 06:50:00 0.0
2018_01_14_S3 01/14/2018 06:55:00 0.0
2018_01_14_S3 01/14/2018 07:00:00 0.0
2018_01_14_S3 01/14/2018 07:05:00 0.0
2018_01_14_S3 01/14/2018 07:10:00 0.0
2018_01_14_S3 01/14/2018 07:15:00 0.0
2018_01_14_S3 01/14/2018 07:20:00 0.0
2018_01_14_S3 01/14/2018 07:25:00 0.0
2018_01_14_S3 01/14/2018 07:30:00 0.0
2018_01_14_S3 01/14/2018 07:35:00 0.0
2018_01_14_S3 01/14/2018 07:40:00 0.0
2018_01_14_S3 01/14/2018 07:45:00 0.0
2018_01_14_S3 01/14/2018 07:50:00 0.008
2018_01_14_S3 01/14/2018 07:55:00 0.0001
2018_01_14_S3 01/14/2018 08:00:00 0.0
2018_01_14_S3 01/14/2018 08:05:00 0.0
2018_01_14_S3 01/14/2018 08:10:00 0.0
2018_01_14_S3 01/14/2018 08:15:00 0.0
2018_01_14_S3 01/14/2018 08:20:00 0.0
2018_01_14_S3 01/14/2018 08:25:00 0.0
2018_01_14_S3 01/14/2018 08:30:00 0.0095
2018_01_14_S3 01/14/2018 08:35:00 0.0088
2018_01_14_S3 01/14/2018 08:40:00 0.0821
2018_01_14_S3 01/14/2018 08:45:00 0.0
2018_01_14_S3 01/14/2018 08:50:00 0.0
2018_01_14_S3 01/14/2018 08:55:00 0.0
2018_01_14_S3 01/14/2018 09:00:00 0.0
2018_01_14_S3 01/14/2018 09:05:00 0.0
2018_01_14_S3 01/14/2018 09:10:00 0.0
2018_01_14_S3 01/14/2018 09:15:00 0.0
2018_01_14_S3 01/14/2018 09:20:00 0.0
2018_01_14_S3 01/14/2018 09:25:00 0.0
2018_01_14_S3 01/14/2018 09:30:00 0.0
2018_01_14_S3 01/14/2018 09:35:00 0.0
2018_01_14_S3 01/14/2018 09:40:00 0.0
2018_01_14_S3 01/14/2018 09:45:00 0.0
2018_01_14_S3 01/14/2018 09:50:00 0.0
2018_01_14_S3 01/14/2018 09:55:00 0.0
2018_01_14_S3 01/14/2018 10:00:00 0.0
2018_01_14_S3 01/14/2018 10:05:00 0.0
2018_01_14_S3 01/14/2018 10:10:00 0.0
2018_01_14_S3 01/14/2018 10:15:00 0.0
2018_01_14_S3 01/14/2018 10:20:00 0.0
2018_01_14_S3 01/14/2018 10:25:00 0.0
2018_01_14_S3 01/14/2018 10:30:00 0.0
2018_01_14_S3 01/14/2018 10:35:00 0.0
2018_01_14_S3 01/14/2018 10:40:00 0.0
2018_01_14_S3 01/14/2018 10:45:00 0.0
2018_01_14_S3 01/14/2018 10:50:00 0.0
2018_01_14_S3 01/14/2018 10:55:00 0.0
2018_01_14_S3 01/14/2018 11:00:00 0.0
2018_01_14_S3 01/14/2018 11:05:00 0.0
2018_01_14_S3 01/14/2018 11:10:00 0.0
2018_01_14_S3 01/14/2018 11:15:00 0.0
2018_01_14_S3 01/14/2018 11:20:00 0.0
2018_01_14_S3 01/14/2018 11:25:00 0.0
2018_01_14_S3 01/14/2018 11:30:00 0.0
2018_01_14_S3 01/14/2018 11:35:00 0.0
2018_01_14_S3 01/14/2018 11:40:00 0.0
2018_01_14_S3 01/14/2018 11:45:00 0.0
2018_01_14_S3 01/14/2018 11:50:00 0.0
2018_01_14_S3 01/14/2018 11:55:00 0.0
2018_01_14_S3 01/14/2018 12:00:00 0.0
2018_01_14_S3 01/14/2018 12:05:00 0.0
2018_01_14_S3 01/14/2018 12:10:00 0.0
2018_01_14_S3 01/14/2018 12:15:00 0.0
2018_01_14_S3 01/14/2018 12:20:00 0.0
2018_01_14_S3 01/14/2018 12:25:00 0.0
2018_01_14_S3 01/14/2018 12:30:00 0.0
2018_01_14_S3 01/14/2018 12:35:00 0.0
2018_01_14_S3 01/14/2018 12:40:00 0.0
2018_01_14_S3 01/14/2018 12:45:00 0.0
2018_01_14_S3 01/14/2018 12:50:00 0.0
2018_01_14_S3 01/14/2018 12:55:00 0.0
2018_01_14_S3 01/14/2018 13:00:00 0.0
2018_01_14_S3 01/14/2018 13:05:00 0.0
2018_01_14_S3 01/14/2018 13:10:00 0.0
2018_01_14_S3 01/14/2018 13:15:00 0.0
2018_01_14_S3 01/14/2018 13:20:00 0.0
2018_01_14_S3 01/14/2018 13:25:00 0.0
2018_01_14_S3 01/14/2018 13:30:00 0.0
2018_01_14_S3 01/14/2018 13:35:00 0.0
2018_01_14_S3 01/14/2018 13:40:00 0.0
2018_01_14_S3 01/14/2018 13:45:00 0.0
2018_01_14_S3 01/14/2018 13:50:00 0.0
2018_01_14_S3 01/14/2018 13:55:00 0.0
2018_01_14_S3 01/14/2018 14:00:00 0.0
2018_01_14_S3 01/14/2018 14:05:00 0.0
2018_01_14_S3 01/14/2018 14:10:00 0.0
2018_01_14_S3 01/14/2018 14:15:00 0.0
2018_01_14_S3 01/14/2018 14:20:00 0.0
2018_01_14_S3 01/14/2018 14:25:00 0.0
2018_01_14_S3 01/14/2018 14:30:00 0.0
2018_01_14_S3 01/14/2018 14:35:00 0.0
2018_01_14_S3 01/14/2018 14:40:00 0.0
2018_01_14_S3 01/14/2018 14:45:00 0.0
2018_01_14_S3 01/14/2018 14:50:00 0.0
2018_01_14_S3 01/14/2018 14:55:00 0.0
2018_01_14_S3 01/14/2018 15:00:00 0.0006
2018_01_14_S3 01/14/2018 15:05:00 0.0
2018_01_14_S3 01/14/2018 15:10:00 0.0
2018_01_14_S3 01/14/2018 15:15:00 0.0
2018_01_14_S3 01/14/2018 15:20:00 0.0
2018_01_14_S3 01/14/2018 15:25:00 0.0
2018_01_14_S3 01/14/2018 15:30:00 0.0
2018_01_14_S3 01/14/2018 15:35:00 0.0
2018_01_14_S3 01/14/2018 15:40:00 0.0
2018_01_14_S3 01/14/2018 15:45:00 0.0
2018_01_14_S3 01/14/2018 15:50:00 0.0
2018_01_14_S3 01/14/2018 15:55:00 0.0
2018_01_14_S3 01/14/2018 16:00:00 0.0
2018_01_14_S3 01/14/2018 16:05:00 0.0
2018_01_14_S3 01/14/2018 16:10:00 0.0
2018_01_14_S3 01/14/2018 16:15:00 0.0
2018_01_14_S3 01/14/2018 16:20:00 0.0
2018_01_14_S3 01/14/2018 16:25:00 0.0007
2018_01_14_S3 01/14/2018 16:30:00 0.0
2018_01_14_S3 01/14/2018 16:35:00 0.0
2018_01_14_S3 01/14/2018 16:40:00 0.0582
2018_01_14_S3 01/14/2018 16:45:00 0.0147
2018_01_14_S3 01/14/2018 16:50:00 0.0831
2018_01_14_S3 01/14/2018 16:55:00 0.0171
2018_01_14_S3 01/14/2018 17:00:00 0.0
2018_01_14_S3 01/14/2018 17:05:00 0.0023
2018_01_14_S3 01/14/2018 17:10:00 0.1972
2018_01_14_S3 01/14/2018 17:15:00 0.0142
2018_01_14_S3 01/14/2018 17:20:00 0.0071
2018_01_14_S3 01/14/2018 17:25:00 0.0005
2018_01_14_S3 01/14/2018 17:30:00 0.0
2018_01_14_S3 01/14/2018 17:35:00 0.1502
2018_01_14_S3 01/14/2018 17:40:00 0.3499
2018_01_14_S3 01/14/2018 17:45:00 0.4193
2018_01_14_S3 01/14/2018 17:50:00 0.1756
2018_01_14_S3 01/14/2018 17:55:00 0.1756
2018_01_14_S3 01/14/2018 18:00:00 0.5821
2018_01_14_S3 01/14/2018 18:05:00 0.5753
2018_01_14_S3 01/14/2018 18:10:00 0.9465
2018_01_14_S3 01/14/2018 18:15:00 1.3578
2018_01_14_S3 01/14/2018 18:20:00 3.2888
2018_01_14_S3 01/14/2018 18:25:00 0.6444
2018_01_14_S3 01/14/2018 18:30:00 0.3887
2018_01_14_S3 01/14/2018 18:35:00 0.0134
2018_01_14_S3 01/14/2018 18:40:00 0.0012
2018_01_14_S3 01/14/2018 18:45:00 0.6038
2018_01_14_S3 01/14/2018 18:50:00 6.9915
2018_01_14_S3 01/14/2018 18:55:00 0.0068
2018_01_14_S3 01/14/2018 19:00:00 0.065
2018_01_14_S3 01/14/2018 19:05:00 0.0
2018_01_14_S3 01/14/2018 19:10:00 0.0
2018_01_14_S3 01/14/2018 19:15:00 0.0
2018_01_14_S3 01/14/2018 19:20:00 0.0
2018_01_14_S3 01/14/2018 19:25:00 0.0
2018_01_14_S3 01/14/2018 19:30:00 0.0
2018_01_14_S3 01/14/2018 19:35:00 0.0
2018_01_14_S3 01/14/2018 19:40:00 0.0
2018_01_14_S3 01/14/2018 19:45:00 0.0
2018_01_14_S3 01/14/2018 19:50:00 0.0
2018_01_14_S3 01/14/2018 19:55:00 0.0
2018_01_14_S3 01/14/2018 20:00:00 0.0
2018_01_14_S3 01/14/2018 20:05:00 0.0
2018_01_14_S3 01/14/2018 20:10:00 0.0
2018_01_14_S3 01/14/2018 20:15:00 0.0
2018_01_14_S3 01/14/2018 20:20:00 0.0
2018_01_14_S3 01/14/2018 20:25:00 0.0
2018_01_14_S3 01/14/2018 20:30:00 0.0
2018_01_14_S3 01/14/2018 20:35:00 0.0
2018_01_14_S3 01/14/2018 20:40:00 0.0
2018_01_14_S3 01/14/2018 20:45:00 0.0
2018_01_14_S3 01/14/2018 20:50:00 0.0
2018_01_14_S3 01/14/2018 20:55:00 0.0
2018_01_14_S3 01/14/2018 21:00:00 0.0
2018_01_14_S3 01/14/2018 21:05:00 0.0
2018_01_14_S3 01/14/2018 21:10:00 0.0
2018_01_14_S3 01/14/2018 21:15:00 0.0
2018_01_14_S3 01/14/2018 21:20:00 0.0
2018_01_14_S3 01/14/2018 21:25:00 0.0
2018_01_14_S3 01/14/2018 21:30:00 0.0
2018_01_14_S3 01/14/2018 21:35:00 0.0
2018_01_14_S3 01/14/2018 21:40:00 0.0
2018_01_14_S3 01/14/2018 21:45:00 0.0
2018_01_14_S3 01/14/2018 21:50:00 0.0
2018_01_14_S3 01/14/2018 21:55:00 0.0
2018_01_14_S3 01/14/2018 22:00:00 0.0
2018_01_14_S3 01/14/2018 22:05:00 0.0
2018_01_14_S3 01/14/2018 22:10:00 0.0
2018_01_14_S3 01/14/2018 22:15:00 0.0
2018_01_14_S3 01/14/2018 22:20:00 0.0
2018_01_14_S3 01/14/2018 22:25:00 0.0
2018_01_14_S3 01/14/2018 22:30:00 0.0
2018_01_14_S3 01/14/2018 22:35:00 0.0
2018_01_14_S3 01/14/2018 22:40:00 0.0
2018_01_14_S3 01/14/2018 22:45:00 0.0
2018_01_14_S3 01/14/2018 22:50:00 0.0
2018_01_14_S3 01/14/2018 22:55:00 0.0255
2018_01_14_S3 01/14/2018 23:00:00 0.0142
2018_01_14_S3 01/14/2018 23:05:00 0.0008
2018_01_14_S3 01/14/2018 23:10:00 0.0006
2018_01_14_S3 01/14/2018 23:15:00 0.0041
2018_01_14_S3 01/14/2018 23:20:00 0.007
2018_01_14_S3 01/14/2018 23:25:00 0.0001
2018_01_14_S3 01/14/2018 23:30:00 0.0
2018_01_14_S3 01/14/2018 23:35:00 0.0
2018_01_14_S3 01/14/2018 23:40:00 0.0
2018_01_14_S3 01/14/2018 23:45:00 0.0
2018_01_14_S3 01/14/2018 23:50:00 0.0
2018_01_14_S3 01/14/2018 23:55:00 0.0
2018_01_14_S3 01/15/2018 00:00:00 0.0
2018_01_14_S3 01/15/2018 00:05:00 0.0
2018_01_14_S3 01/15/2018 00:10:00 0.0
2018_01_14_S3 01/15/2018 00:15:00 0.0
2018_01_14_S3 01/15/2018 00:20:00 0.0
2018_01_14_S3 01/15/2018 00:25:00 0.0
2018_01_14_S3 01/15/2018 00:30:00 0.0
2018_01_14_S3 01/15/2018 00:35:00 0.0
2018_01_14_S3 01/15/2018 00:40:00 0.0
2018_01_14_S3 01/15/2018 00:45:00 0.0
2018_01_14_S3 01/15/2018 00:50:00 0.0
2018_01_14_S3 01/15/2018 00:55:00 0.0
2018_01_14_S3 01/15/2018 01:00:00 0.0
2018_01_14_S3 01/15/2018 01:05:00 0.0
2018_01_14_S3 01/15/2018 01:10:00 0.0
2018_01_14_S3 01/15/2018 01:15:00 0.0
2018_01_14_S3 01/15/2018 01:20:00 0.0
2018_01_14_S3 01/15/2018 01:25:00 0.0
2018_01_14_S3 01/15/2018 01:30:00 0.0
2018_01_14_S3 01/15/2018 01:35:00 0.0
2018_01_14_S3 01/15/2018 01:40:00 0.0
2018_01_14_S3 01/15/2018 01:45:00 0.0
2018_01_14_S3 01/15/2018 01:50:00 0.0
2018_01_14_S3 01/15/2018 01:55:00 0.0
2018_01_14_S3 01/15/2018 02:00:00 0.0
2018_01_14_S3 01/15/2018 02:05:00 0.0
2018_01_14_S3 01/15/2018 02:10:00 0.0
2018_01_14_S3 01/15/2018 02:15:00 0.0
2018_01_14_S3 01/15/2018 02:20:00 0.0
2018_01_14_S3 01/15/2018 02:25:00 0.0018
2018_01_14_S3 01/15/2018 02:30:00 0.0
2018_01_14_S3 01/15/2018 02:35:00 0.0013
2018_01_14_S3 01/15/2018 02:40:00 0.247
2018_01_14_S3 01/15/2018 02:45:00 0.3644
2018_01_14_S3 01/15/2018 02:50:00 0.3823
2018_01_14_S3 01/15/2018 02:55:00 0.114
2018_01_14_S3 01/15/2018 03:00:00 0.0333
2018_01_14_S3 01/15/2018 03:05:00 0.0172
2018_01_14_S3 01/15/2018 03:10:00 0.0
2018_01_14_S3 01/15/2018 03:15:00 0.0
2018_01_14_S3 01/15/2018 03:20:00 0.0
2018_01_14_S3 01/15/2018 03:25:00 0.0
2018_01_14_S3 01/15/2018 03:30:00 0.0
2018_01_14_S3 01/15/2018 03:35:00 0.0
2018_01_14_S3 01/15/2018 03:40:00 0.0
2018_01_14_S3 01/15/2018 03:45:00 0.0
2018_01_14_S3 01/15/2018 03:50:00 0.0
2018_01_14_S3 01/15/2018 03:55:00 0.0
2018_01_14_S3 01/15/2018 04:00:00 0.0
2018_01_14_S3 01/15/2018 04:05:00 0.0
2018_01_14_S3 01/15/2018 04:10:00 0.0
2018_01_14_S3 01/15/2018 04:15:00 0.0
2018_01_14_S3 01/15/2018 04:20:00 0.0
2018_01_14_S3 01/15/2018 04:25:00 0.0
2018_01_14_S3 01/15/2018 04:30:00 0.0
2018_01_14_S3 01/15/2018 04:35:00 0.0
2018_01_14_S3 01/15/2018 04:40:00 0.0
2018_01_14_S3 01/15/2018 04:45:00 0.0
2018_01_14_S3 01/15/2018 04:50:00 0.0
2018_01_14_S3 01/15/2018 04:55:00 0.0
2018_01_14_S3 01/15/2018 05:00:00 0.0
2018_01_14_S3 01/15/2018 05:05:00 0.0
2018_01_14_S3 01/15/2018 05:10:00 0.0
2018_01_14_S3 01/15/2018 05:15:00 0.0
2018_01_14_S3 01/15/2018 05:20:00 0.0
2018_01_14_S3 01/15/2018 05:25:00 0.0
2018_01_14_S3 01/15/2018 05:30:00 0.0
2018_01_14_S3 01/15/2018 05:35:00 0.0
2018_01_14_S3 01/15/2018 05:40:00 0.0
2018_01_14_S3 01/15/2018 05:45:00 0.0
2018_01_14_S3 01/15/2018 05:50:00 0.0
2018_01_14_S3 01/15/2018 05:55:00 0.0
2018_01_14_S3 01/15/2018 06:00:00 0.0
2018_01_14_S3 01/15/2018 06:05:00 0.0
2018_01_14_S3 01/15/2018 06:10:00 0.0
2018_01_14_S3 01/15/2018 06:15:00 0.0003
2018_01_14_S3 01/15/2018 06:20:00 0.0039
2018_01_14_S3 01/15/2018 06:25:00 0.0
2018_01_14_S3 01/15/2018 06:30:00 0.0
2018_01_14_S3 01/15/2018 06:35:00 0.0
2018_01_14_S3 01/15/2018 06:40:00 0.0
2018_01_14_S3 01/15/2018 06:45:00 0.0
2018_01_14_S3 01/15/2018 06:50:00 0.0
2018_01_14_S3 01/15/2018 06:55:00 0.0
2018_01_14_S3 01/15/2018 07:00:00 0.0012
2018_01_14_S3 01/15/2018 07:05:00 0.0
2018_01_14_S3 01/15/2018 07:10:00 0.0
2018_01_14_S3 01/15/2018 07:15:00 0.0254
2018_01_14_S3 01/15/2018 07:20:00 0.3019
2018_01_14_S3 01/15/2018 07:25:00 0.0652
2018_01_14_S3 01/15/2018 07:30:00 0.0
2018_01_14_S3 01/15/2018 07:35:00 0.0
2018_01_14_S3 01/15/2018 07:40:00 0.0
2018_01_14_S3 01/15/2018 07:45:00 0.0
2018_01_14_S3 01/15/2018 07:50:00 0.0
2018_01_14_S3 01/15/2018 07:55:00 0.0
2018_01_14_S3 01/15/2018 08:00:00 0.0

2018_01_14_S4 01/13/2018 08:00:00 0.0
2018_01_14_S4 01/13/2018 08:05:00 0.0
2018_01_14_S4 01/13/2018 08:10:00 0.0
2018_01_14_S4 01/13/2018 08:15:00 0.0
2018_01_14_S4 01/13/2018 08:20:00 0.0
2018_01_14_S4 01/13/2018 08:25:00 0.0
2018_01_14_S4 01/13/2018 08:30:00 0.0
2018_01_14_S4 01/13/2018 08:35:00 0.0
2018_01_14_S4 01/13/2018 08:40:00 0.0
2018_01_14_S4 01/13/2018 08:45:00 0.0
2018_01_14_S4 01/13/2018 08:50:00 0.0
2018_01_14_S4 01/13/2018 08:55:00 0.0
2018_01_14_S4 01/13/2018 09:00:00 0.0
2018_01_14_S4 01/13/2018 09:05:00 0.0
2018_01_14_S4 01/13/2018 09:10:00 0.0
2018_01_14_S4 01/13/2018 09:15:00 0.0
2018_01_14_S4 01/13/2018 09:20:00 0.0
2018_01_14_S4 01/13/2018 09:25:00 0.0
2018_01_14_S4 01/13/2018 09:30:00 0.0
2018_01_14_S4 01/13/2018 09:35:00 0.0
2018_01_14_S4 01/13/2018 09:40:00 0.0
2018_01_14_S4 01/13/2018 09:45:00 0.0
2018_01_14_S4 01/13/2018 09:50:00 0.0
2018_01_14_S4 01/13/2018 09:55:00 0.0
2018_01_14_S4 01/13/2018 10:00:00 0.0
2018_01_14_S4 01/13/2018 10:05:00 0.0
2018_01_14_S4 01/13/2018 10:10:00 0.0
2018_01_14_S4 01/13/2018 10:15:00 0.0
2018_01_14_S4 01/13/2018 10:20:00 0.0
2018_01_14_S4 01/13/2018 10:25:00 0.0
2018_01_14_S4 01/13/2018 10:30:00 0.0
2018_01_14_S4 01/13/2018 10:35:00 0.0
2018_01_14_S4 01/13/2018 10:40:00 0.0
2018_01_14_S4 01/13/2018 10:45:00 0.0
2018_01_14_S4 01/13/2018 10:50:00 0.0
2018_01_14_S4 01/13/2018 10:55:00 0.0
2018_01_14_S4 01/13/2018 11:00:00 0.0
2018_01_14_S4 01/13/2018 11:05:00 0.0
2018_01_14_S4 01/13/2018 11:10:00 0.0
2018_01_14_S4 01/13/2018 11:15:00 0.0
2018_01_14_S4 01/13/2018 11:20:00 0.0
2018_01_14_S4 01/13/2018 11:25:00 0.0
2018_01_14_S4 01/13/2018 11:30:00 0.0
2018_01_14_S4 01/13/2018 11:35:00 0.0
2018_01_14_S4 01/13/2018 11:40:00 0.0
2018_01_14_S4 01/13/2018 11:45:00 0.0
2018_01_14_S4 01/13/2018 11:50:00 0.0
2018_01_14_S4 01/13/2018 11:55:00 0.0
2018_01_14_S4 01/13/2018 12:00:00 0.0
2018_01_14_S4 01/13/2018 12:05:00 0.0
2018_01_14_S4 01/13/2018 12:10:00 0.0
2018_01_14_S4 01/13/2018 12:15:00 0.0
2018_01_14_S4 01/13/2018 12:20:00 0.0
2018_01_14_S4 01/13/2018 12:25:00 0.0
2018_01_14_S4 01/13/2018 12:30:00 0.0
2018_01_14_S4 01/13/2018 12:35:00 0.0
2018_01_14_S4 01/13/2018 12:40:00 0.0
2018_01_14_S4 01/13/2018 12:45:00 0.0
2018_01_14_S4 01/13/2018 12:50:00 0.0
2018_01_14_S4 01/13/2018 12:55:00 0.0
2018_01_14_S4 01/13/2018 13:00:00 0.0
2018_01_14_S4 01/13/2018 13:05:00 0.0
2018_01_14_S4 01/13/2018 13:10:00 0.0
2018_01_14_S4 01/13/2018 13:15:00 0.0
2018_01_14_S4 01/13/2018 13:20:00 0.0
2018_01_14_S4 01/13/2018 13:25:00 0.0
2018_01_14_S4 01/13/2018 13:30:00 0.0
2018_01_14_S4 01/13/2018 13:35:00 0.0
2018_01_14_S4 01/13/2018 13:40:00 0.0
2018_01_14_S4 01/13/2018 13:45:00 0.0
2018_01_14_S4 01/13/2018 13:50:00 0.0
2018_01_14_S4 01/13/2018 13:55:00 0.0
2018_01_14_S4 01/13/2018 14:00:00 0.0
2018_01_14_S4 01/13/2018 14:05:00 0.0
2018_01_14_S4 01/13/2018 14:10:00 0.0
2018_01_14_S4 01/13/2018 14:15:00 0.0
2018_01_14_S4 01/13/2018 14:20:00 0.0
2018_01_14_S4 01/13/2018 14:25:00 0.0
2018_01_14_S4 01/13/2018 14:30:00 0.0
2018_01_14_S4 01/13/2018 14:35:00 0.0
2018_01_14_S4 01/13/2018 14:40:00 0.0
2018_01_14_S4 01/13/2018 14:45:00 0.0
2018_01_14_S4 01/13/2018 14:50:00 0.0
2018_01_14_S4 01/13/2018 14:55:00 0.0
2018_01_14_S4 01/13/2018 15:00:00 0.0
2018_01_14_S4 01/13/2018 15:05:00 0.0
2018_01_14_S4 01/13/2018 15:10:00 0.0
2018_01_14_S4 01/13/2018 15:15:00 0.0
2018_01_14_S4 01/13/2018 15:20:00 0.0
2018_01_14_S4 01/13/2018 15:25:00 0.0
2018_01_14_S4 01/13/2018 15:30:00 0.0
2018_01_14_S4 01/13/2018 15:35:00 0.0
2018_01_14_S4 01/13/2018 15:40:00 0.0
2018_01_14_S4 01/13/2018 15:45:00 0.0
2018_01_14_S4 01/13/2018 15:50:00 0.0
2018_01_14_S4 01/13/2018 15:55:00 0.0
2018_01_14_S4 01/13/2018 16:00:00 0.0
2018_01_14_S4 01/13/2018 16:05:00 0.0
2018_01_14_S4 01/13/2018 16:10:00 0.0
2018_01_14_S4 01/13/2018 16:15:00 0.0
2018_01_14_S4 01/13/2018 16:20:00 0.0
2018_01_14_S4 01/13/2018 16:25:00 0.0
2018_01_14_S4 01/13/2018 16:30:00 0.0
2018_01_14_S4 01/13/2018 16:35:00 0.0
2018_01_14_S4 01/13/2018 16:40:00 0.0
2018_01_14_S4 01/13/2018 16:45:00 0.0
2018_01_14_S4 01/13/2018 16:50:00 0.0
2018_01_14_S4 01/13/2018 16:55:00 0.0
2018_01_14_S4 01/13/2018 17:00:00 0.0
2018_01_14_S4 01/13/2018 17:05:00 0.0
2018_01_14_S4 01/13/2018 17:10:00 0.0
2018_01_14_S4 01/13/2018 17:15:00 0.0
2018_01_14_S4 01/13/2018 17:20:00 0.0
2018_01_14_S4 01/13/2018 17:25:00 0.0
2018_01_14_S4 01/13/2018 17:30:00 0.0
2018_01_14_S4 01/13/2018 17:35:00 0.0
2018_01_14_S4 01/13/2018 17:40:00 0.0
2018_01_14_S4 01/13/2018 17:45:00 0.0
2018_01_14_S4 01/13/2018 17:50:00 0.0
2018_01_14_S4 01/13/2018 17:55:00 0.0
2018_01_14_S4 01/13/2018 18:00:00 0.0
2018_01_14_S4 01/13/2018 18:05:00 0.0
2018_01_14_S4 01/13/2018 18:10:00 0.0
2018_01_14_S4 01/13/2018 18:15:00 0.0
2018_01_14_S4 01/13/2018 18:20:00 0.0
2018_01_14_S4 01/13/2018 18:25:00 0.0
2018_01_14_S4 01/13/2018 18:30:00 0.0
2018_01_14_S4 01/13/2018 18:35:00 0.0
2018_01_14_S4 01/13/2018 18:40:00 0.0
2018_01_14_S4 01/13/2018 18:45:00 0.0
2018_01_14_S4 01/13/2018 18:50:00 0.0
2018_01_14_S4 01/13/2018 18:55:00 0.0
2018_01_14_S4 01/13/2018 19:00:00 0.0
2018_01_14_S4 01/13/2018 19:05:00 0.0
2018_01_14_S4 01/13/2018 19:10:00 0.0
2018_01_14_S4 01/13/2018 19:15:00 0.0
2018_01_14_S4 01/13/2018 19:20:00 0.0
2018_01_14_S4 01/13/2018 19:25:00 0.0
2018_01_14_S4 01/13/2018 19:30:00 0.0
2018_01_14_S4 01/13/2018 19:35:00 0.0
2018_01_14_S4 01/13/2018 19:40:00 0.0
2018_01_14_S4 01/13/2018 19:45:00 0.0
2018_01_14_S4 01/13/2018 19:50:00 0.0
2018_01_14_S4 01/13/2018 19:55:00 0.0
2018_01_14_S4 01/13/2018 20:00:00 0.0
2018_01_14_S4 01/13/2018 20:05:00 0.0
2018_01_14_S4 01/13/2018 20:10:00 0.0
2018_01_14_S4 01/13/2018 20:15:00 0.0
2018_01_14_S4 01/13/2018 20:20:00 0.0
2018_01_14_S4 01/13/2018 20:25:00 0.0
2018_01_14_S4 01/13/2018 20:30:00 0.0
2018_01_14_S4 01/13/2018 20:35:00 0.0
2018_01_14_S4 01/13/2018 20:40:00 0.0
2018_01_14_S4 01/13/2018 20:45:00 0.0
2018_01_14_S4 01/13/2018 20:50:00 0.0
2018_01_14_S4 01/13/2018 20:55:00 0.0
2018_01_14_S4 01/13/2018 21:00:00 0.0
2018_01_14_S4 01/13/2018 21:05:00 0.0
2018_01_14_S4 01/13/2018 21:10:00 0.0
2018_01_14_S4 01/13/2018 21:15:00 0.0
2018_01_14_S4 01/13/2018 21:20:00 0.0
2018_01_14_S4 01/13/2018 21:25:00 0.0
2018_01_14_S4 01/13/2018 21:30:00 0.0
2018_01_14_S4 01/13/2018 21:35:00 0.0
2018_01_14_S4 01/13/2018 21:40:00 0.0
2018_01_14_S4 01/13/2018 21:45:00 0.0
2018_01_14_S4 01/13/2018 21:50:00 0.0
2018_01_14_S4 01/13/2018 21:55:00 0.0
2018_01_14_S4 01/13/2018 22:00:00 0.0
2018_01_14_S4 01/13/2018 22:05:00 0.0
2018_01_14_S4 01/13/2018 22:10:00 0.0
2018_01_14_S4 01/13/2018 22:15:00 0.0
2018_01_14_S4 01/13/2018 22:20:00 0.0
2018_01_14_S4 01/13/2018 22:25:00 0.0
2018_01_14_S4 01/13/2018 22:30:00 0.0
2018_01_14_S4 01/13/2018 22:35:00 0.0
2018_01_14_S4 01/13/2018 22:40:00 0.0
2018_01_14_S4 01/13/2018 22:45:00 0.0
2018_01_14_S4 01/13/2018 22:50:00 0.0
2018_01_14_S4 01/13/2018 22:55:00 0.0
2018_01_14_S4 01/13/2018 23:00:00 0.0
2018_01_14_S4 01/13/2018 23:05:00 0.0
2018_01_14_S4 01/13/2018 23:10:00 0.0
2018_01_14_S4 01/13/2018 23:15:00 0.0
2018_01_14_S4 01/13/2018 23:20:00 0.0
2018_01_14_S4 01/13/2018 23:25:00 0.0
2018_01_14_S4 01/13/2018 23:30:00 0.0
2018_01_14_S4 01/13/2018 23:35:00 0.0
2018_01_14_S4 01/13/2018 23:40:00 0.0
2018_01_14_S4 01/13/2018 23:45:00 0.0
2018_01_14_S4 01/13/2018 23:50:00 0.0
2018_01_14_S4 01/13/2018 23:55:00 0.0
2018_01_14_S4 01/14/2018 00:00:00 0.0
2018_01_14_S4 01/14/2018 00:05:00 0.0
2018_01_14_S4 01/14/2018 00:10:00 0.0
2018_01_14_S4 01/14/2018 00:15:00 0.0
2018_01_14_S4 01/14/2018 00:20:00 0.0
2018_01_14_S4 01/14/2018 00:25:00 0.0
2018_01_14_S4 01/14/2018 00:30:00 0.0
2018_01_14_S4 01/14/2018 00:35:00 0.0
2018_01_14_S4 01/14/2018 00:40:00 0.0
2018_01_14_S4 01/14/2018 00:45:00 0.0
2018_01_14_S4 01/14/2018 00:50:00 0.0
2018_01_14_S4 01/14/2018 00:55:00 0.0
2018_01_14_S4 01/14/2018 01:00:00 0.0
2018_01_14_S4 01/14/2018 01:05:00 0.0
2018_01_14_S4 01/14/2018 01:10:00 0.0
2018_01_14_S4 01/14/2018 01:15:00 0.0
2018_01_14_S4 01/14/2018 01:20:00 0.0
2018_01_14_S4 01/14/2018 01:25:00 0.0
2018_01_14_S4 01/14/2018 01:30:00 0.0
2018_01_14_S4 01/14/2018 01:35:00 0.0
2018_01_14_S4 01/14/2018 01:40:00 0.0
2018_01_14_S4 01/14/2018 01:45:00 0.0
2018_01_14_S4 01/14/2018 01:50:00 0.0
2018_01_14_S4 01/14/2018 01:55:00 0.0
2018_01_14_S4 01/14/2018 02:00:00 0.0
2018_01_14_S4 01/14/2018 02:05:00 0.0
2018_01_14_S4 01/14/2018 02:10:00 0.0
2018_01_14_S4 01/14/2018 02:15:00 0.0
2018_01_14_S4 01/14/2018 02:20:00 0.0
2018_01_14_S4 01/14/2018 02:25:00 0.0
2018_01_14_S4 01/14/2018 02:30:00 0.0
2018_01_14_S4 01/14/2018 02:35:00 0.0
2018_01_14_S4 01/14/2018 02:40:00 0.0
2018_01_14_S4 01/14/2018 02:45:00 0.0
2018_01_14_S4 01/14/2018 02:50:00 0.0
2018_01_14_S4 01/14/2018 02:55:00 0.0
2018_01_14_S4 01/14/2018 03:00:00 0.0088
2018_01_14_S4 01/14/2018 03:05:00 0.0201
2018_01_14_S4 01/14/2018 03:10:00 0.0819
2018_01_14_S4 01/14/2018 03:15:00 0.0
2018_01_14_S4 01/14/2018 03:20:00 0.0
2018_01_14_S4 01/14/2018 03:25:00 0.0
2018_01_14_S4 01/14/2018 03:30:00 0.0
2018_01_14_S4 01/14/2018 03:35:00 0.0
2018_01_14_S4 01/14/2018 03:40:00 0.0
2018_01_14_S4 01/14/2018 03:45:00 0.0
2018_01_14_S4 01/14/2018 03:50:00 0.0
2018_01_14_S4 01/14/2018 03:55:00 0.0
2018_01_14_S4 01/14/2018 04:00:00 0.0
2018_01_14_S4 01/14/2018 04:05:00 0.0
2018_01_14_S4 01/14/2018 04:10:00 0.0
2018_01_14_S4 01/14/2018 04:15:00 0.0
2018_01_14_S4 01/14/2018 04:20:00 0.0
2018_01_14_S4 01/14/2018 04:25:00 0.0
2018_01_14_S4 01/14/2018 04:30:00 0.0
2018_01_14_S4 01/14/2018 04:35:00 0.0
2018_01_14_S4 01/14/2018 04:40:00 0.0
2018_01_14_S4 01/14/2018 04:45:00 0.0
2018_01_14_S4 01/14/2018 04:50:00 0.0
2018_01_14_S4 01/14/2018 04:55:00 0.0
2018_01_14_S4 01/14/2018 05:00:00 0.005
2018_01_14_S4 01/14/2018 05:05:00 0.0079
2018_01_14_S4 01/14/2018 05:10:00 0.0193
2018_01_14_S4 01/14/2018 05:15:00 0.0001
2018_01_14_S4 01/14/2018 05:20:00 0.0
2018_01_14_S4 01/14/2018 05:25:00 0.0
2018_01_14_S4 01/14/2018 05:30:00 0.0
2018_01_14_S4 01/14/2018 05:35:00 0.0
2018_01_14_S4 01/14/2018 05:40:00 0.0
2018_01_14_S4 01/14/2018 05:45:00 0.0
2018_01_14_S4 01/14/2018 05:50:00 0.0
2018_01_14_S4 01/14/2018 05:55:00 0.1488
2018_01_14_S4 01/14/2018 06:00:00 5.3197
2018_01_14_S4 01/14/2018 06:05:00 0.9617
2018_01_14_S4 01/14/2018 06:10:00 0.0194
2018_01_14_S4 01/14/2018 06:15:00 0.0
2018_01_14_S4 01/14/2018 06:20:00 0.0623
2018_01_14_S4 01/14/2018 06:25:00 0.3605
2018_01_14_S4 01/14/2018 06:30:00 0.0001
2018_01_14_S4 01/14/2018 06:35:00 0.0
2018_01_14_S4 01/14/2018 06:40:00 0.0
2018_01_14_S4 01/14/2018 06:45:00 0.0
2018_01_14_S4 01/14/2018 06:50:00 0.0
2018_01_14_S4 01/14/2018 06:55:00 0.0
2018_01_14_S4 01/14/2018 07:00:00 0.0
2018_01_14_S4 01/14/2018 07:05:00 0.0
2018_01_14_S4 01/14/2018 07:10:00 0.0
2018_01_14_S4 01/14/2018 07:15:00 0.0
2018_01_14_S4 01/14/2018 07:20:00 0.0
2018_01_14_S4 01/14/2018 07:25:00 0.0
2018_01_14_S4 01/14/2018 07:30:00 0.0
2018_01_14_S4 01/14/2018 07:35:00 0.0
2018_01_14_S4 01/14/2018 07:40:00 0.0
2018_01_14_S4 01/14/2018 07:45:00 0.0
2018_01_14_S4 01/14/2018 07:50:00 0.0076
2018_01_14_S4 01/14/2018 07:55:00 0.0016
2018_01_14_S4 01/14/2018 08:00:00 0.0
2018_01_14_S4 01/14/2018 08:05:00 0.0
2018_01_14_S4 01/14/2018 08:10:00 0.0
2018_01_14_S4 01/14/2018 08:15:00 0.0
2018_01_14_S4 01/14/2018 08:20:00 0.0
2018_01_14_S4 01/14/2018 08:25:00 0.0
2018_01_14_S4 01/14/2018 08:30:00 0.0186
2018_01_14_S4 01/14/2018 08:35:00 0.01
2018_01_14_S4 01/14/2018 08:40:00 0.1842
2018_01_14_S4 01/14/2018 08:45:00 0.0
2018_01_14_S4 01/14/2018 08:50:00 0.0
2018_01_14_S4 01/14/2018 08:55:00 0.0
2018_01_14_S4 01/14/2018 09:00:00 0.0
2018_01_14_S4 01/14/2018 09:05:00 0.0
2018_01_14_S4 01/14/2018 09:10:00 0.0
2018_01_14_S4 01/14/2018 09:15:00 0.0
2018_01_14_S4 01/14/2018 09:20:00 0.0
2018_01_14_S4 01/14/2018 09:25:00 0.0
2018_01_14_S4 01/14/2018 09:30:00 0.0
2018_01_14_S4 01/14/2018 09:35:00 0.0
2018_01_14_S4 01/14/2018 09:40:00 0.0
2018_01_14_S4 01/14/2018 09:45:00 0.0
2018_01_14_S4 01/14/2018 09:50:00 0.0
2018_01_14_S4 01/14/2018 09:55:00 0.0
2018_01_14_S4 01/14/2018 10:00:00 0.0
2018_01_14_S4 01/14/2018 10:05:00 0.0
2018_01_14_S4 01/14/2018 10:10:00 0.0
2018_01_14_S4 01/14/2018 10:15:00 0.0
2018_01_14_S4 01/14/2018 10:20:00 0.0
2018_01_14_S4 01/14/2018 10:25:00 0.0
2018_01_14_S4 01/14/2018 10:30:00 0.0
2018_01_14_S4 01/14/2018 10:35:00 0.0
2018_01_14_S4 01/14/2018 10:40:00 0.0
2018_01_14_S4 01/14/2018 10:45:00 0.0
2018_01_14_S4 01/14/2018 10:50:00 0.0
2018_01_14_S4 01/14/2018 10:55:00 0.0
2018_01_14_S4 01/14/2018 11:00:00 0.0
2018_01_14_S4 01/14/2018 11:05:00 0.0
2018_01_14_S4 01/14/2018 11:10:00 0.0
2018_01_14_S4 01/14/2018 11:15:00 0.0
2018_01_14_S4 01/14/2018 11:20:00 0.0
2018_01_14_S4 01/14/2018 11:25:00 0.0
2018_01_14_S4 01/14/2018 11:30:00 0.0
2018_01_14_S4 01/14/2018 11:35:00 0.0
2018_01_14_S4 01/14/2018 11:40:00 0.0
2018_01_14_S4 01/14/2018 11:45:00 0.0
2018_01_14_S4 01/14/2018 11:50:00 0.0
2018_01_14_S4 01/14/2018 11:55:00 0.0
2018_01_14_S4 01/14/2018 12:00:00 0.0
2018_01_14_S4 01/14/2018 12:05:00 0.0
2018_01_14_S4 01/14/2018 12:10:00 0.0
2018_01_14_S4 01/14/2018 12:15:00 0.0
2018_01_14_S4 01/14/2018 12:20:00 0.0
2018_01_14_S4 01/14/2018 12:25:00 0.0
2018_01_14_S4 01/14/2018 12:30:00 0.0
2018_01_14_S4 01/14/2018 12:35:00 0.0
2018_01_14_S4 01/14/2018 12:40:00 0.0
2018_01_14_S4 01/14/2018 12:45:00 0.0
2018_01_14_S4 01/14/2018 12:50:00 0.0
2018_01_14_S4 01/14/2018 12:55:00 0.0
2018_01_14_S4 01/14/2018 13:00:00 0.0
2018_01_14_S4 01/14/2018 13:05:00 0.0
2018_01_14_S4 01/14/2018 13:10:00 0.0
2018_01_14_S4 01/14/2018 13:15:00 0.0
2018_01_14_S4 01/14/2018 13:20:00 0.0
2018_01_14_S4 01/14/2018 13:25:00 0.0
2018_01_14_S4 01/14/2018 13:30:00 0.0
2018_01_14_S4 01/14/2018 13:35:00 0.0
2018_01_14_S4 01/14/2018 13:40:00 0.0
2018_01_14_S4 01/14/2018 13:45:00 0.0
2018_01_14_S4 01/14/2018 13:50:00 0.0
2018_01_14_S4 01/14/2018 13:55:00 0.0
2018_01_14_S4 01/14/2018 14:00:00 0.0
2018_01_14_S4 01/14/2018 14:05:00 0.0
2018_01_14_S4 01/14/2018 14:10:00 0.0
2018_01_14_S4 01/14/2018 14:15:00 0.0
2018_01_14_S4 01/14/2018 14:20:00 0.0
2018_01_14_S4 01/14/2018 14:25:00 0.0
2018_01_14_S4 01/14/2018 14:30:00 0.0
2018_01_14_S4 01/14/2018 14:35:00 0.0
2018_01_14_S4 01/14/2018 14:40:00 0.0
2018_01_14_S4 01/14/2018 14:45:00 0.0
2018_01_14_S4 01/14/2018 14:50:00 0.0
2018_01_14_S4 01/14/2018 14:55:00 0.0
2018_01_14_S4 01/14/2018 15:00:00 0.0001
2018_01_14_S4 01/14/2018 15:05:00 0.0
2018_01_14_S4 01/14/2018 15:10:00 0.0
2018_01_14_S4 01/14/2018 15:15:00 0.0
2018_01_14_S4 01/14/2018 15:20:00 0.0
2018_01_14_S4 01/14/2018 15:25:00 0.0
2018_01_14_S4 01/14/2018 15:30:00 0.0
2018_01_14_S4 01/14/2018 15:35:00 0.0
2018_01_14_S4 01/14/2018 15:40:00 0.0
2018_01_14_S4 01/14/2018 15:45:00 0.0
2018_01_14_S4 01/14/2018 15:50:00 0.0
2018_01_14_S4 01/14/2018 15:55:00 0.0
2018_01_14_S4 01/14/2018 16:00:00 0.0
2018_01_14_S4 01/14/2018 16:05:00 0.0
2018_01_14_S4 01/14/2018 16:10:00 0.0
2018_01_14_S4 01/14/2018 16:15:00 0.0
2018_01_14_S4 01/14/2018 16:20:00 0.0
2018_01_14_S4 01/14/2018 16:25:00 0.0012
2018_01_14_S4 01/14/2018 16:30:00 0.0
2018_01_14_S4 01/14/2018 16:35:00 0.0
2018_01_14_S4 01/14/2018 16:40:00 0.0517
2018_01_14_S4 01/14/2018 16:45:00 0.0173
2018_01_14_S4 01/14/2018 16:50:00 0.0859
2018_01_14_S4 01/14/2018 16:55:00 0.0294
2018_01_14_S4 01/14/2018 17:00:00 0.0
2018_01_14_S4 01/14/2018 17:05:00 0.0055
2018_01_14_S4 01/14/2018 17:10:00 0.2848
2018_01_14_S4 01/14/2018 17:15:00 0.0202
2018_01_14_S4 01/14/2018 17:20:00 0.0044
2018_01_14_S4 01/14/2018 17:25:00 0.0019
2018_01_14_S4 01/14/2018 17:30:00 0.0
2018_01_14_S4 01/14/2018 17:35:00 0.1671
2018_01_14_S4 01/14/2018 17:40:00 0.2026
2018_01_14_S4 01/14/2018 17:45:00 0.5026
2018_01_14_S4 01/14/2018 17:50:00 0.2378
2018_01_14_S4 01/14/2018 17:55:00 0.1703
2018_01_14_S4 01/14/2018 18:00:00 0.4126
2018_01_14_S4 01/14/2018 18:05:00 0.5269
2018_01_14_S4 01/14/2018 18:10:00 0.7091
2018_01_14_S4 01/14/2018 18:15:00 1.0001
2018_01_14_S4 01/14/2018 18:20:00 4.2769
2018_01_14_S4 01/14/2018 18:25:00 0.8163
2018_01_14_S4 01/14/2018 18:30:00 0.2588
2018_01_14_S4 01/14/2018 18:35:00 0.0099
2018_01_14_S4 01/14/2018 18:40:00 0.0002
2018_01_14_S4 01/14/2018 18:45:00 0.7159
2018_01_14_S4 01/14/2018 18:50:00 5.4793
2018_01_14_S4 01/14/2018 18:55:00 0.0002
2018_01_14_S4 01/14/2018 19:00:00 0.2439
2018_01_14_S4 01/14/2018 19:05:00 0.0
2018_01_14_S4 01/14/2018 19:10:00 0.0
2018_01_14_S4 01/14/2018 19:15:00 0.0
2018_01_14_S4 01/14/2018 19:20:00 0.0
2018_01_14_S4 01/14/2018 19:25:00 0.0
2018_01_14_S4 01/14/2018 19:30:00 0.0
2018_01_14_S4 01/14/2018 19:35:00 0.0
2018_01_14_S4 01/14/2018 19:40:00 0.0
2018_01_14_S4 01/14/2018 19:45:00 0.0
2018_01_14_S4 01/14/2018 19:50:00 0.0
2018_01_14_S4 01/14/2018 19:55:00 0.0
2018_01_14_S4 01/14/2018 20:00:00 0.0
2018_01_14_S4 01/14/2018 20:05:00 0.0
2018_01_14_S4 01/14/2018 20:10:00 0.0
2018_01_14_S4 01/14/2018 20:15:00 0.0
2018_01_14_S4 01/14/2018 20:20:00 0.0
2018_01_14_S4 01/14/2018 20:25:00 0.0
2018_01_14_S4 01/14/2018 20:30:00 0.0
2018_01_14_S4 01/14/2018 20:35:00 0.0
2018_01_14_S4 01/14/2018 20:40:00 0.0
2018_01_14_S4 01/14/2018 20:45:00 0.0
2018_01_14_S4 01/14/2018 20:50:00 0.0
2018_01_14_S4 01/14/2018 20:55:00 0.0
2018_01_14_S4 01/14/2018 21:00:00 0.0
2018_01_14_S4 01/14/2018 21:05:00 0.0
2018_01_14_S4 01/14/2018 21:10:00 0.0
2018_01_14_S4 01/14/2018 21:15:00 0.0
2018_01_14_S4 01/14/2018 21:20:00 0.0
2018_01_14_S4 01/14/2018 21:25:00 0.0
2018_01_14_S4 01/14/2018 21:30:00 0.0
2018_01_14_S4 01/14/2018 21:35:00 0.0
2018_01_14_S4 01/14/2018 21:40:00 0.0
2018_01_14_S4 01/14/2018 21:45:00 0.0
2018_01_14_S4 01/14/2018 21:50:00 0.0
2018_01_14_S4 01/14/2018 21:55:00 0.0
2018_01_14_S4 01/14/2018 22:00:00 0.0
2018_01_14_S4 01/14/2018 22:05:00 0.0
2018_01_14_S4 01/14/2018 22:10:00 0.0
2018_01_14_S4 01/14/2018 22:15:00 0.0
2018_01_14_S4 01/14/2018 22:20:00 0.0
2018_01_14_S4 01/14/2018 22:25:00 0.0
2018_01_14_S4 01/14/2018 22:30:00 0.0
2018_01_14_S4 01/14/2018 22:35:00 0.0
2018_01_14_S4 01/14/2018 22:40:00 0.0
2018_01_14_S4 01/14/2018 22:45:00 0.0
2018_01_14_S4 01/14/2018 22:50:00 0.0
2018_01_14_S4 01/14/2018 22:55:00 0.0353
2018_01_14_S4 01/14/2018 23:00:00 0.0097
2018_01_14_S4 01/14/2018 23:05:00 0.001
2018_01_14_S4 01/14/2018 23:10:00 0.0015
2018_01_14_S4 01/14/2018 23:15:00 0.0013
2018_01_14_S4 01/14/2018 23:20:00 0.0099
2018_01_14_S4 01/14/2018 23:25:00 0.0009
2018_01_14_S4 01/14/2018 23:30:00 0.0
2018_01_14_S4 01/14/2018 23:35:00 0.0
2018_01_14_S4 01/14/2018 23:40:00 0.0
2018_01_14_S4 01/14/2018 23:45:00 0.0
2018_01_14_S4 01/14/2018 23:50:00 0.0
2018_01_14_S4 01/14/2018 23:55:00 0.0
2018_01_14_S4 01/15/2018 00:00:00 0.0
2018_01_14_S4 01/15/2018 00:05:00 0.0
2018_01_14_S4 01/15/2018 00:10:00 0.0
2018_01_14_S4 01/15/2018 00:15:00 0.0
2018_01_14_S4 01/15/2018 00:20:00 0.0
2018_01_14_S4 01/15/2018 00:25:00 0.0
2018_01_14_S4 01/15/2018 00:30:00 0.0
2018_01_14_S4 01/15/2018 00:35:00 0.0
2018_01_14_S4 01/15/2018 00:40:00 0.0
2018_01_14_S4 01/15/2018 00:45:00 0.0
2018_01_14_S4 01/15/2018 00:50:00 0.0
2018_01_14_S4 01/15/2018 00:55:00 0.0
2018_01_14_S4 01/15/2018 01:00:00 0.0
2018_01_14_S4 01/15/2018 01:05:00 0.0
2018_01_14_S4 01/15/2018 01:10:00 0.0
2018_01_14_S4 01/15/2018 01:15:00 0.0
2018_01_14_S4 01/15/2018 01:20:00 0.0
2018_01_14_S4 01/15/2018 01:25:00 0.0
2018_01_14_S4 01/15/2018 01:30:00 0.0
2018_01_14_S4 01/15/2018 01:35:00 0.0
2018_01_14_S4 01/15/2018 01:40:00 0.0
2018_01_14_S4 01/15/2018 01:45:00 0.0
2018_01_14_S4 01/15/2018 01:50:00 0.0
2018_01_14_S4 01/15/2018 01:55:00 0.0
2018_01_14_S4 01/15/2018 02:00:00 0.0
2018_01_14_S4 01/15/2018 02:05:00 0.0
2018_01_14_S4 01/15/2018 02:10:00 0.0
2018_01_14_S4 01/15/2018 02:15:00 0.0
2018_01_14_S4 01/15/2018 02:20:00 0.0
2018_01_14_S4 01/15/2018 02:25:00 0.0032
2018_01_14_S4 01/15/2018 02:30:00 0.0
2018_01_14_S4 01/15/2018 02:35:00 0.0017
2018_01_14_S4 01/15/2018 02:40:00 0.2371
2018_01_14_S4 01/15/2018 02:45:00 0.5647
2018_01_14_S4 01/15/2018 02:50:00 0.2832
2018_01_14_S4 01/15/2018 02:55:00 0.0205
2018_01_14_S4 01/15/2018 03:00:00 0.0292
2018_01_14_S4 01/15/2018 03:05:00 0.0112
2018_01_14_S4 01/15/2018 03:10:00 0.0
2018_01_14_S4 01/15/2018 03:15:00 0.0
2018_01_14_S4 01/15/2018 03:20:00 0.0
2018_01_14_S4 01/15/2018 03:25:00 0.0
2018_01_14_S4 01/15/2018 03:30:00 0.0
2018_01_14_S4 01/15/2018 03:35:00 0.0
2018_01_14_S4 01/15/2018 03:40:00 0.0
2018_01_14_S4 01/15/2018 03:45:00 0.0
2018_01_14_S4 01/15/2018 03:50:00 0.0
2018_01_14_S4 01/15/2018 03:55:00 0.0
2018_01_14_S4 01/15/2018 04:00:00 0.0
2018_01_14_S4 01/15/2018 04:05:00 0.0
2018_01_14_S4 01/15/2018 04:10:00 0.0
2018_01_14_S4 01/15/2018 04:15:00 0.0
2018_01_14_S4 01/15/2018 04:20:00 0.0
2018_01_14_S4 01/15/2018 04:25:00 0.0
2018_01_14_S4 01/15/2018 04:30:00 0.0
2018_01_14_S4 01/15/2018 04:35:00 0.0
2018_01_14_S4 01/15/2018 04:40:00 0.0
2018_01_14_S4 01/15/2018 04:45:00 0.0
2018_01_14_S4 01/15/2018 04:50:00 0.0
2018_01_14_S4 01/15/2018 04:55:00 0.0
2018_01_14_S4 01/15/2018 05:00:00 0.0
2018_01_14_S4 01/15/2018 05:05:00 0.0
2018_01_14_S4 01/15/2018 05:10:00 0.0
2018_01_14_S4 01/15/2018 05:15:00 0.0
2018_01_14_S4 01/15/2018 05:20:00 0.0
2018_01_14_S4 01/15/2018 05:25:00 0.0
2018_01_14_S4 01/15/2018 05:30:00 0.0
2018_01_14_S4 01/15/2018 05:35:00 0.0
2018_01_14_S4 01/15/2018 05:40:00 0.0
2018_01_14_S4 01/15/2018 05:45:00 0.0
2018_01_14_S4 01/15/2018 05:50:00 0.0
2018_01_14_S4 01/15/2018 05:55:00 0.0
2018_01_14_S4 01/15/2018 06:00:00 0.0
2018_01_14_S4 01/15/2018 06:05:00 0.0
2018_01_14_S4 01/15/2018 06:10:00 0.0
2018_01_14_S4 01/15/2018 06:15:00 0.0
2018_01_14_S4 01/15/2018 06:20:00 0.0136
2018_01_14_S4 01/15/2018 06:25:00 0.0
2018_01_14_S4 01/15/2018 06:30:00 0.0
2018_01_14_S4 01/15/2018 06:35:00 0.0
2018_01_14_S4 01/15/2018 06:40:00 0.0
2018_01_14_S4 01/15/2018 06:45:00 0.0
2018_01_14_S4 01/15/2018 06:50:00 0.0
2018_01_14_S4 01/15/2018 06:55:00 0.0
2018_01_14_S4 01/15/2018 07:00:00 0.0002
2018_01_14_S4 01/15/2018 07:05:00 0.0
2018_01_14_S4 01/15/2018 07:10:00 0.0
2018_01_14_S4 01/15/2018 07:15:00 0.0065
2018_01_14_S4 01/15/2018 07:20:00 0.0842
2018_01_14_S4 01/15/2018 07:25:00 0.1267
2018_01_14_S4 01/15/2018 07:30:00 0.0
2018_01_14_S4 01/15/2018 07:35:00 0.0
2018_01_14_S4 01/15/2018 07:40:00 0.0
2018_01_14_S4 01/15/2018 07:45:00 0.0
2018_01_14_S4 01/15/2018 07:50:00 0.0
2018_01_14_S4 01/15/2018 07:55:00 0.0
2018_01_14_S4 01/15/2018 08:00:00 0.0

2018_01_14_S5 01/13/2018 08:00:00 0.0
2018_01_14_S5 01/13/2018 08:05:00 0.0
2018_01_14_S5 01/13/2018 08:10:00 0.0
2018_01_14_S5 01/13/2018 08:15:00 0.0
2018_01_14_S5 01/13/2018 08:20:00 0.0
2018_01_14_S5 01/13/2018 08:25:00 0.0
2018_01_14_S5 01/13/2018 08:30:00 0.0
2018_01_14_S5 01/13/2018 08:35:00 0.0
2018_01_14_S5 01/13/2018 08:40:00 0.0
2018_01_14_S5 01/13/2018 08:45:00 0.0
2018_01_14_S5 01/13/2018 08:50:00 0.0
2018_01_14_S5 01/13/2018 08:55:00 0.0
2018_01_14_S5 01/13/2018 09:00:00 0.0
2018_01_14_S5 01/13/2018 09:05:00 0.0
2018_01_14_S5 01/13/2018 09:10:00 0.0
2018_01_14_S5 01/13/2018 09:15:00 0.0
2018_01_14_S5 01/13/2018 09:20:00 0.0
2018_01_14_S5 01/13/2018 09:25:00 0.0
2018_01_14_S5 01/13/2018 09:30:00 0.0
2018_01_14_S5 01/13/2018 09:35:00 0.0
2018_01_14_S5 01/13/2018 09:40:00 0.0
2018_01_14_S5 01/13/2018 09:45:00 0.0
2018_01_14_S5 01/13/2018 09:50:00 0.0
2018_01_14_S5 01/13/2018 09:55:00 0.0
2018_01_14_S5 01/13/2018 10:00:00 0.0
2018_01_14_S5 01/13/2018 10:05:00 0.0
2018_01_14_S5 01/13/2018 10:10:00 0.0
2018_01_14_S5 01/13/2018 10:15:00 0.0
2018_01_14_S5 01/13/2018 10:20:00 0.0
2018_01_14_S5 01/13/2018 10:25:00 0.0
2018_01_14_S5 01/13/2018 10:30:00 0.0
2018_01_14_S5 01/13/2018 10:35:00 0.0
2018_01_14_S5 01/13/2018 10:40:00 0.0
2018_01_14_S5 01/13/2018 10:45:00 0.0
2018_01_14_S5 01/13/2018 10:50:00 0.0
2018_01_14_S5 01/13/2018 10:55:00 0.0
2018_01_14_S5 01/13/2018 11:00:00 0.0
2018_01_14_S5 01/13/2018 11:05:00 0.0
2018_01_14_S5 01/13/2018 11:10:00 0.0
2018_01_14_S5 01/13/2018 11:15:00 0.0
2018_01_14_S5 01/13/2018 11:20:00 0.0
2018_01_14_S5 01/13/2018 11:25:00 0.0
2018_01_14_S5 01/13/2018 11:30:00 0.0
2018_01_14_S5 01/13/2018 11:35:00 0.0
2018_01_14_S5 01/13/2018 11:40:00 0.0
2018_01_14_S5 01/13/2018 11:45:00 0.0
2018_01_14_S5 01/13/2018 11:50:00 0.0
2018_01_14_S5 01/13/2018 11:55:00 0.0
2018_01_14_S5 01/13/2018 12:00:00 0.0
2018_01_14_S5 01/13/2018 12:05:00 0.0
2018_01_14_S5 01/13/2018 12:10:00 0.0
2018_01_14_S5 01/13/2018 12:15:00 0.0
2018_01_14_S5 01/13/2018 12:20:00 0.0
2018_01_14_S5 01/13/2018 12:25:00 0.0
2018_01_14_S5 01/13/2018 12:30:00 0.0
2018_01_14_S5 01/13/2018 12:35:00 0.0
2018_01_14_S5 01/13/2018 12:40:00 0.0
2018_01_14_S5 01/13/2018 12:45:00 0.0
2018_01_14_S5 01/13/2018 12:50:00 0.0
2018_01_14_S5 01/13/2018 12:55:00 0.0
2018_01_14_S5 01/13/2018 13:00:00 0.0
2018_01_14_S5 01/13/2018 13:05:00 0.0
2018_01_14_S5 01/13/2018 13:10:00 0.0
2018_01_14_S5 01/13/2018 13:15:00 0.0
2018_01_14_S5 01/13/2018 13:20:00 0.0
2018_01_14_S5 01/13/2018 13:25:00 0.0
2018_01_14_S5 01/13/2018 13:30:00 0.0
2018_01_14_S5 01/13/2018 13:35:00 0.0
2018_01_14_S5 01/13/2018 13:40:00 0.0
2018_01_14_S5 01/13/2018 13:45:00 0.0
2018_01_14_S5 01/13/2018 13:50:00 0.0
2018_01_14_S5 01/13/2018 13:55:00 0.0
2018_01_14_S5 01/13/2018 14:00:00 0.0
2018_01_14_S5 01/13/2018 14:05:00 0.0
2018_01_14_S5 01/13/2018 14:10:00 0.0
2018_01_14_S5 01/13/2018 14:15:00 0.0
2018_01_14_S5 01/13/2018 14:20:00 0.0
2018_01_14_S5 01/13/2018 14:25:00 0.0
2018_01_14_S5 01/13/2018 14:30:00 0.0
2018_01_14_S5 01/13/2018 14:35:00 0.0
2018_01_14_S5 01/13/2018 14:40:00 0.0
2018_01_14_S5 01/13/2018 14:45:00 0.0
2018_01_14_S5 01/13/2018 14:50:00 0.0
2018_01_14_S5 01/13/2018 14:55:00 0.0
2018_01_14_S5 01/13/2018 15:00:00 0.0
2018_01_14_S5 01/13/2018 15:05:00 0.0
2018_01_14_S5 01/13/2018 15:10:00 0.0
2018_01_14_S5 01/13/2018 15:15:00 0.0
2018_01_14_S5 01/13/2018 15:20:00 0.0
2018_01_14_S5 01/13/2018 15:25:00 0.0
2018_01_14_S5 01/13/2018 15:30:00 0.0
2018_01_14_S5 01/13/2018 15:35:00 0.0
2018_01_14_S5 01/13/2018 15:40:00 0.0
2018_01_14_S5 01/13/2018 15:45:00 0.0
2018_01_14_S5 01/13/2018 15:50:00 0.0
2018_01_14_S5 01/13/2018 15:55:00 0.0
2018_01_14_S5 01/13/2018 16:00:00 0.0
2018_01_14_S5 01/13/2018 16:05:00 0.0
2018_01_14_S5 01/13/2018 16:10:00 0.0
2018_01_14_S5 01/13/2018 16:15:00 0.0
2018_01_14_S5 01/13/2018 16:20:00 0.0
2018_01_14_S5 01/13/2018 16:25:00 0.0
2018_01_14_S5 01/13/2018 16:30:00 0.0
2018_01_14_S5 01/13/2018 16:35:00 0.0
2018_01_14_S5 01/13/2018 16:40:00 0.0
2018_01_14_S5 01/13/2018 16:45:00 0.0
2018_01_14_S5 01/13/2018 16:50:00 0.0
2018_01_14_S5 01/13/2018 16:55:00 0.0
2018_01_14_S5 01/13/2018 17:00:00 0.0
2018_01_14_S5 01/13/2018 17:05:00 0.0
2018_01_14_S5 01/13/2018 17:10:00 0.0
2018_01_14_S5 01/13/2018 17:15:00 0.0
2018_01_14_S5 01/13/2018 17:20:00 0.0
2018_01_14_S5 01/13/2018 17:25:00 0.0
2018_01_14_S5 01/13/2018 17:30:00 0.0
2018_01_14_S5 01/13/2018 17:35:00 0.0
2018_01_14_S5 01/13/2018 17:40:00 0.0
2018_01_14_S5 01/13/2018 17:45:00 0.0
2018_01_14_S5 01/13/2018 17:50:00 0.0
2018_01_14_S5 01/13/2018 17:55:00 0.0
2018_01_14_S5 01/13/2018 18:00:00 0.0
2018_01_14_S5 01/13/2018 18:05:00 0.0
2018_01_14_S5 01/13/2018 18:10:00 0.0
2018_01_14_S5 01/13/2018 18:15:00 0.0
2018_01_14_S5 01/13/2018 18:20:00 0.0
2018_01_14_S5 01/13/2018 18:25:00 0.0
2018_01_14_S5 01/13/2018 18:30:00 0.0
2018_01_14_S5 01/13/2018 18:35:00 0.0
2018_01_14_S5 01/13/2018 18:40:00 0.0
2018_01_14_S5 01/13/2018 18:45:00 0.0
2018_01_14_S5 01/13/2018 18:50:00 0.0
2018_01_14_S5 01/13/2018 18:55:00 0.0
2018_01_14_S5 01/13/2018 19:00:00 0.0
2018_01_14_S5 01/13/2018 19:05:00 0.0
2018_01_14_S5 01/13/2018 19:10:00 0.0
2018_01_14_S5 01/13/2018 19:15:00 0.0
2018_01_14_S5 01/13/2018 19:20:00 0.0
2018_01_14_S5 01/13/2018 19:25:00 0.0
2018_01_14_S5 01/13/2018 19:30:00 0.0
2018_01_14_S5 01/13/2018 19:35:00 0.0
2018_01_14_S5 01/13/2018 19:40:00 0.0
2018_01_14_S5 01/13/2018 19:45:00 0.0
2018_01_14_S5 01/13/2018 19:50:00 0.0
2018_01_14_S5 01/13/2018 19:55:00 0.0
2018_01_14_S5 01/13/2018 20:00:00 0.0
2018_01_14_S5 01/13/2018 20:05:00 0.0
2018_01_14_S5 01/13/2018 20:10:00 0.0
2018_01_14_S5 01/13/2018 20:15:00 0.0
2018_01_14_S5 01/13/2018 20:20:00 0.0
2018_01_14_S5 01/13/2018 20:25:00 0.0
2018_01_14_S5 01/13/2018 20:30:00 0.0
2018_01_14_S5 01/13/2018 20:35:00 0.0
2018_01_14_S5 01/13/2018 20:40:00 0.0
2018_01_14_S5 01/13/2018 20:45:00 0.0
2018_01_14_S5 01/13/2018 20:50:00 0.0
2018_01_14_S5 01/13/2018 20:55:00 0.0
2018_01_14_S5 01/13/2018 21:00:00 0.0
2018_01_14_S5 01/13/2018 21:05:00 0.0
2018_01_14_S5 01/13/2018 21:10:00 0.0
2018_01_14_S5 01/13/2018 21:15:00 0.0
2018_01_14_S5 01/13/2018 21:20:00 0.0
2018_01_14_S5 01/13/2018 21:25:00 0.0
2018_01_14_S5 01/13/2018 21:30:00 0.0
2018_01_14_S5 01/13/2018 21:35:00 0.0
2018_01_14_S5 01/13/2018 21:40:00 0.0
2018_01_14_S5 01/13/2018 21:45:00 0.0
2018_01_14_S5 01/13/2018 21:50:00 0.0
2018_01_14_S5 01/13/2018 21:55:00 0.0
2018_01_14_S5 01/13/2018 22:00:00 0.0
2018_01_14_S5 01/13/2018 22:05:00 0.0
2018_01_14_S5 01/13/2018 22:10:00 0.0
2018_01_14_S5 01/13/2018 22:15:00 0.0
2018_01_14_S5 01/13/2018 22:20:00 0.0
2018_01_14_S5 01/13/2018 22:25:00 0.0
2018_01_14_S5 01/13/2018 22:30:00 0.0
2018_01_14_S5 01/13/2018 22:35:00 0.0
2018_01_14_S5 01/13/2018 22:40:00 0.0
2018_01_14_S5 01/13/2018 22:45:00 0.0
2018_01_14_S5 01/13/2018 22:50:00 0.0
2018_01_14_S5 01/13/2018 22:55:00 0.0
2018_01_14_S5 01/13/2018 23:00:00 0.0
2018_01_14_S5 01/13/2018 23:05:00 0.0
2018_01_14_S5 01/13/2018 23:10:00 0.0
2018_01_14_S5 01/13/2018 23:15:00 0.0
2018_01_14_S5 01/13/2018 23:20:00 0.0
2018_01_14_S5 01/13/2018 23:25:00 0.0
2018_01_14_S5 01/13/2018 23:30:00 0.0
2018_01_14_S5 01/13/2018 23:35:00 0.0
2018_01_14_S5 01/13/2018 23:40:00 0.0
2018_01_14_S5 01/13/2018 23:45:00 0.0
2018_01_14_S5 01/13/2018 23:50:00 0.0
2018_01_14_S5 01/13/2018 23:55:00 0.0
2018_01_14_S5 01/14/2018 00:00:00 0.0
2018_01_14_S5 01/14/2018 00:05:00 0.0
2018_01_14_S5 01/14/2018 00:10:00 0.0
2018_01_14_S5 01/14/2018 00:15:00 0.0
2018_01_14_S5 01/14/2018 00:20:00 0.0
2018_01_14_S5 01/14/2018 00:25:00 0.0
2018_01_14_S5 01/14/2018 00:30:00 0.0
2018_01_14_S5 01/14/2018 00:35:00 0.0
2018_01_14_S5 01/14/2018 00:40:00 0.0
2018_01_14_S5 01/14/2018 00:45:00 0.0
2018_01_14_S5 01/14/2018 00:50:00 0.0
2018_01_14_S5 01/14/2018 00:55:00 0.0
2018_01_14_S5 01/14/2018 01:00:00 0.0
2018_01_14_S5 01/14/2018 01:05:00 0.0
2018_01_14_S5 01/14/2018 01:10:00 0.0
2018_01_14_S5 01/14/2018 01:15:00 0.0
2018_01_14_S5 01/14/2018 01:20:00 0.0
2018_01_14_S5 01/14/2018 01:25:00 0.0
2018_01_14_S5 01/14/2018 01:30:00 0.0
2018_01_14_S5 01/14/2018 01:35:00 0.0
2018_01_14_S5 01/14/2018 01:40:00 0.0
2018_01_14_S5 01/14/2018 01:45:00 0.0
2018_01_14_S5 01/14/2018 01:50:00 0.0
2018_01_14_S5 01/14/2018 01:55:00 0.0
2018_01_14_S5 01/14/2018 02:00:00 0.0
2018_01_14_S5 01/14/2018 02:05:00 0.0
2018_01_14_S5 01/14/2018 02:10:00 0.0
2018_01_14_S5 01/14/2018 02:15:00 0.0
2018_01_14_S5 01/14/2018 02:20:00 0.0
2018_01_14_S5 01/14/2018 02:25:00 0.0
2018_01_14_S5 01/14/2018 02:30:00 0.0
2018_01_14_S5 01/14/2018 02:35:00 0.0
2018_01_14_S5 01/14/2018 02:40:00 0.0
2018_01_14_S5 01/14/2018 02:45:00 0.0
2018_01_14_S5 01/14/2018 02:50:00 0.0
2018_01_14_S5 01/14/2018 02:55:00 0.0
2018_01_14_S5 01/14/2018 03:00:00 0.0084
2018_01_14_S5 01/14/2018 03:05:00 0.0187
2018_01_14_S5 01/14/2018 03:10:00 0.0694
2018_01_14_S5 01/14/2018 03:15:00 0.0
2018_01_14_S5 01/14/2018 03:20:00 0.0
2018_01_14_S5 01/14/2018 03:25:00 0.0
2018_01_14_S5 01/14/2018 03:30:00 0.0
2018_01_14_S5 01/14/2018 03:35:00 0.0
2018_01_14_S5 01/14/2018 03:40:00 0.0
2018_01_14_S5 01/14/2018 03:45:00 0.0
2018_01_14_S5 01/14/2018 03:50:00 0.0
2018_01_14_S5 01/14/2018 03:55:00 0.0
2018_01_14_S5 01/14/2018 04:00:00 0.0
2018_01_14_S5 01/14/2018 04:05:00 0.0
2018_01_14_S5 01/14/2018 04:10:00 0.0
2018_01_14_S5 01/14/2018 04:15:00 0.0
2018_01_14_S5 01/14/2018 04:20:00 0.0
2018_01_14_S5 01/14/2018 04:25:00 0.0
2018_01_14_S5 01/14/2018 04:30:00 0.0
2018_01_14_S5 01/14/2018 04:35:00 0.0
2018_01_14_S5 01/14/2018 04:40:00 0.0
2018_01_14_S5 01/14/2018 04:45:00 0.0
2018_01_14_S5 01/14/2018 04:50:00 0.0
2018_01_14_S5 01/14/2018 04:55:00 0.0
2018_01_14_S5 01/14/2018 05:00:00 0.0041
2018_01_14_S5 01/14/2018 05:05:00 0.0076
2018_01_14_S5 01/14/2018 05:10:00 0.012
2018_01_14_S5 01/14/2018 05:15:00 0.0
2018_01_14_S5 01/14/2018 05:20:00 0.0
2018_01_14_S5 01/14/2018 05:25:00 0.0
2018_01_14_S5 01/14/2018 05:30:00 0.0
2018_01_14_S5 01/14/2018 05:35:00 0.0
2018_01_14_S5 01/14/2018 05:40:00 0.0
2018_01_14_S5 01/14/2018 05:45:00 0.0
2018_01_14_S5 01/14/2018 05:50:00 0.0
2018_01_14_S5 01/14/2018 05:55:00 0.0767
2018_01_14_S5 01/14/2018 06:00:00 4.9714
2018_01_14_S5 01/14/2018 06:05:00 1.1139
2018_01_14_S5 01/14/2018 06:10:00 0.0213
2018_01_14_S5 01/14/2018 06:15:00 0.0
2018_01_14_S5 01/14/2018 06:20:00 0.0675
2018_01_14_S5 01/14/2018 06:25:00 0.4628
2018_01_14_S5 01/14/2018 06:30:00 0.0
2018_01_14_S5 01/14/2018 06:35:00 0.0
2018_01_14_S5 01/14/2018 06:40:00 0.0
2018_01_14_S5 01/14/2018 06:45:00 0.0
2018_01_14_S5 01/14/2018 06:50:00 0.0
2018_01_14_S5 01/14/2018 06:55:00 0.0
2018_01_14_S5 01/14/2018 07:00:00 0.0
2018_01_14_S5 01/14/2018 07:05:00 0.0
2018_01_14_S5 01/14/2018 07:10:00 0.0
2018_01_14_S5 01/14/2018 07:15:00 0.0
2018_01_14_S5 01/14/2018 07:20:00 0.0
2018_01_14_S5 01/14/2018 07:25:00 0.0
2018_01_14_S5 01/14/2018 07:30:00 0.0
2018_01_14_S5 01/14/2018 07:35:00 0.0
2018_01_14_S5 01/14/2018 07:40:00 0.0
2018_01_14_S5 01/14/2018 07:45:00 0.0
2018_01_14_S5 01/14/2018 07:50:00 0.0079
2018_01_14_S5 01/14/2018 07:55:00 0.0016
2018_01_14_S5 01/14/2018 08:00:00 0.0
2018_01_14_S5 01/14/2018 08:05:00 0.0
2018_01_14_S5 01/14/2018 08:10:00 0.0
2018_01_14_S5 01/14/2018 08:15:00 0.0
2018_01_14_S5 01/14/2018 08:20:00 0.0
2018_01_14_S5 01/14/2018 08:25:00 0.0
2018_01_14_S5 01/14/2018 08:30:00 0.0213
2018_01_14_S5 01/14/2018 08:35:00 0.013
2018_01_14_S5 01/14/2018 08:40:00 0.1784
2018_01_14_S5 01/14/2018 08:45:00 0.0
2018_01_14_S5 01/14/2018 08:50:00 0.0
2018_01_14_S5 01/14/2018 08:55:00 0.0
2018_01_14_S5 01/14/2018 09:00:00 0.0
2018_01_14_S5 01/14/2018 09:05:00 0.0
2018_01_14_S5 01/14/2018 09:10:00 0.0
2018_01_14_S5 01/14/2018 09:15:00 0.0
2018_01_14_S5 01/14/2018 09:20:00 0.0
2018_01_14_S5 01/14/2018 09:25:00 0.0
2018_01_14_S5 01/14/2018 09:30:00 0.0
2018_01_14_S5 01/14/2018 09:35:00 0.0
2018_01_14_S5 01/14/2018 09:40:00 0.0
2018_01_14_S5 01/14/2018 09:45:00 0.0
2018_01_14_S5 01/14/2018 09:50:00 0.0
2018_01_14_S5 01/14/2018 09:55:00 0.0
2018_01_14_S5 01/14/2018 10:00:00 0.0
2018_01_14_S5 01/14/2018 10:05:00 0.0
2018_01_14_S5 01/14/2018 10:10:00 0.0
2018_01_14_S5 01/14/2018 10:15:00 0.0
2018_01_14_S5 01/14/2018 10:20:00 0.0
2018_01_14_S5 01/14/2018 10:25:00 0.0
2018_01_14_S5 01/14/2018 10:30:00 0.0
2018_01_14_S5 01/14/2018 10:35:00 0.0
2018_01_14_S5 01/14/2018 10:40:00 0.0
2018_01_14_S5 01/14/2018 10:45:00 0.0
2018_01_14_S5 01/14/2018 10:50:00 0.0
2018_01_14_S5 01/14/2018 10:55:00 0.0
2018_01_14_S5 01/14/2018 11:00:00 0.0
2018_01_14_S5 01/14/2018 11:05:00 0.0
2018_01_14_S5 01/14/2018 11:10:00 0.0
2018_01_14_S5 01/14/2018 11:15:00 0.0
2018_01_14_S5 01/14/2018 11:20:00 0.0
2018_01_14_S5 01/14/2018 11:25:00 0.0
2018_01_14_S5 01/14/2018 11:30:00 0.0
2018_01_14_S5 01/14/2018 11:35:00 0.0
2018_01_14_S5 01/14/2018 11:40:00 0.0
2018_01_14_S5 01/14/2018 11:45:00 0.0
2018_01_14_S5 01/14/2018 11:50:00 0.0
2018_01_14_S5 01/14/2018 11:55:00 0.0
2018_01_14_S5 01/14/2018 12:00:00 0.0
2018_01_14_S5 01/14/2018 12:05:00 0.0
2018_01_14_S5 01/14/2018 12:10:00 0.0
2018_01_14_S5 01/14/2018 12:15:00 0.0
2018_01_14_S5 01/14/2018 12:20:00 0.0
2018_01_14_S5 01/14/2018 12:25:00 0.0
2018_01_14_S5 01/14/2018 12:30:00 0.0
2018_01_14_S5 01/14/2018 12:35:00 0.0
2018_01_14_S5 01/14/2018 12:40:00 0.0
2018_01_14_S5 01/14/2018 12:45:00 0.0
2018_01_14_S5 01/14/2018 12:50:00 0.0
2018_01_14_S5 01/14/2018 12:55:00 0.0
2018_01_14_S5 01/14/2018 13:00:00 0.0
2018_01_14_S5 01/14/2018 13:05:00 0.0
2018_01_14_S5 01/14/2018 13:10:00 0.0
2018_01_14_S5 01/14/2018 13:15:00 0.0
2018_01_14_S5 01/14/2018 13:20:00 0.0
2018_01_14_S5 01/14/2018 13:25:00 0.0
2018_01_14_S5 01/14/2018 13:30:00 0.0
2018_01_14_S5 01/14/2018 13:35:00 0.0
2018_01_14_S5 01/14/2018 13:40:00 0.0
2018_01_14_S5 01/14/2018 13:45:00 0.0
2018_01_14_S5 01/14/2018 13:50:00 0.0
2018_01_14_S5 01/14/2018 13:55:00 0.0
2018_01_14_S5 01/14/2018 14:00:00 0.0
2018_01_14_S5 01/14/2018 14:05:00 0.0
2018_01_14_S5 01/14/2018 14:10:00 0.0
2018_01_14_S5 01/14/2018 14:15:00 0.0
2018_01_14_S5 01/14/2018 14:20:00 0.0
2018_01_14_S5 01/14/2018 14:25:00 0.0
2018_01_14_S5 01/14/2018 14:30:00 0.0
2018_01_14_S5 01/14/2018 14:35:00 0.0
2018_01_14_S5 01/14/2018 14:40:00 0.0
2018_01_14_S5 01/14/2018 14:45:00 0.0
2018_01_14_S5 01/14/2018 14:50:00 0.0
2018_01_14_S5 01/14/2018 14:55:00 0.0
2018_01_14_S5 01/14/2018 15:00:00 0.0
2018_01_14_S5 01/14/2018 15:05:00 0.0
2018_01_14_S5 01/14/2018 15:10:00 0.0
2018_01_14_S5 01/14/2018 15:15:00 0.0
2018_01_14_S5 01/14/2018 15:20:00 0.0
2018_01_14_S5 01/14/2018 15:25:00 0.0
2018_01_14_S5 01/14/2018 15:30:00 0.0
2018_01_14_S5 01/14/2018 15:35:00 0.0
2018_01_14_S5 01/14/2018 15:40:00 0.0
2018_01_14_S5 01/14/2018 15:45:00 0.0
2018_01_14_S5 01/14/2018 15:50:00 0.0
2018_01_14_S5 01/14/2018 15:55:00 0.0
2018_01_14_S5 01/14/2018 16:00:00 0.0
2018_01_14_S5 01/14/2018 16:05:00 0.0
2018_01_14_S5 01/14/2018 16:10:00 0.0
2018_01_14_S5 01/14/2018 16:15:00 0.0
2018_01_14_S5 01/14/2018 16:20:00 0.0
2018_01_14_S5 01/14/2018 16:25:00 0.0
2018_01_14_S5 01/14/2018 16:30:00 0.0
2018_01_14_S5 01/14/2018 16:35:00 0.0
2018_01_14_S5 01/14/2018 16:40:00 0.0453
2018_01_14_S5 01/14/2018 16:45:00 0.0193
2018_01_14_S5 01/14/2018 16:50:00 0.089
2018_01_14_S5 01/14/2018 16:55:00 0.0296
2018_01_14_S5 01/14/2018 17:00:00 0.0
2018_01_14_S5 01/14/2018 17:05:00 0.0059
2018_01_14_S5 01/14/2018 17:10:00 0.3057
2018_01_14_S5 01/14/2018 17:15:00 0.0243
2018_01_14_S5 01/14/2018 17:20:00 0.0035
2018_01_14_S5 01/14/2018 17:25:00 0.0023
2018_01_14_S5 01/14/2018 17:30:00 0.0
2018_01_14_S5 01/14/2018 17:35:00 0.1727
2018_01_14_S5 01/14/2018 17:40:00 0.1606
2018_01_14_S5 01/14/2018 17:45:00 0.5321
2018_01_14_S5 01/14/2018 17:50:00 0.2615
2018_01_14_S5 01/14/2018 17:55:00 0.1707
2018_01_14_S5 01/14/2018 18:00:00 0.4098
2018_01_14_S5 01/14/2018 18:05:00 0.4444
2018_01_14_S5 01/14/2018 18:10:00 0.6053
2018_01_14_S5 01/14/2018 18:15:00 0.9543
2018_01_14_S5 01/14/2018 18:20:00 4.0967
2018_01_14_S5 01/14/2018 18:25:00 1.0997
2018_01_14_S5 01/14/2018 18:30:00 0.2438
2018_01_14_S5 01/14/2018 18:35:00 0.0095
2018_01_14_S5 01/14/2018 18:40:00 0.0
2018_01_14_S5 01/14/2018 18:45:00 0.763
2018_01_14_S5 01/14/2018 18:50:00 4.9719
2018_01_14_S5 01/14/2018 18:55:00 0.0
2018_01_14_S5 01/14/2018 19:00:00 0.3463
2018_01_14_S5 01/14/2018 19:05:00 0.0
2018_01_14_S5 01/14/2018 19:10:00 0.0
2018_01_14_S5 01/14/2018 19:15:00 0.0
2018_01_14_S5 01/14/2018 19:20:00 0.0
2018_01_14_S5 01/14/2018 19:25:00 0.0
2018_01_14_S5 01/14/2018 19:30:00 0.0
2018_01_14_S5 01/14/2018 19:35:00 0.0
2018_01_14_S5 01/14/2018 19:40:00 0.0
2018_01_14_S5 01/14/2018 19:45:00 0.0
2018_01_14_S5 01/14/2018 19:50:00 0.0
2018_01_14_S5 01/14/2018 19:55:00 0.0
2018_01_14_S5 01/14/2018 20:00:00 0.0
2018_01_14_S5 01/14/2018 20:05:00 0.0
2018_01_14_S5 01/14/2018 20:10:00 0.0
2018_01_14_S5 01/14/2018 20:15:00 0.0
2018_01_14_S5 01/14/2018 20:20:00 0.0
2018_01_14_S5 01/14/2018 20:25:00 0.0
2018_01_14_S5 01/14/2018 20:30:00 0.0
2018_01_14_S5 01/14/2018 20:35:00 0.0
2018_01_14_S5 01/14/2018 20:40:00 0.0
2018_01_14_S5 01/14/2018 20:45:00 0.0
2018_01_14_S5 01/14/2018 20:50:00 0.0
2018_01_14_S5 01/14/2018 20:55:00 0.0
2018_01_14_S5 01/14/2018 21:00:00 0.0
2018_01_14_S5 01/14/2018 21:05:00 0.0
2018_01_14_S5 01/14/2018 21:10:00 0.0
2018_01_14_S5 01/14/2018 21:15:00 0.0
2018_01_14_S5 01/14/2018 21:20:00 0.0
2018_01_14_S5 01/14/2018 21:25:00 0.0
2018_01_14_S5 01/14/2018 21:30:00 0.0
2018_01_14_S5 01/14/2018 21:35:00 0.0
2018_01_14_S5 01/14/2018 21:40:00 0.0
2018_01_14_S5 01/14/2018 21:45:00 0.0
2018_01_14_S5 01/14/2018 21:50:00 0.0
2018_01_14_S5 01/14/2018 21:55:00 0.0
2018_01_14_S5 01/14/2018 22:00:00 0.0
2018_01_14_S5 01/14/2018 22:05:00 0.0
2018_01_14_S5 01/14/2018 22:10:00 0.0
2018_01_14_S5 01/14/2018 22:15:00 0.0
2018_01_14_S5 01/14/2018 22:20:00 0.0
2018_01_14_S5 01/14/2018 22:25:00 0.0
2018_01_14_S5 01/14/2018 22:30:00 0.0
2018_01_14_S5 01/14/2018 22:35:00 0.0
2018_01_14_S5 01/14/2018 22:40:00 0.0009
2018_01_14_S5 01/14/2018 22:45:00 0.0
2018_01_14_S5 01/14/2018 22:50:00 0.0
2018_01_14_S5 01/14/2018 22:55:00 0.0325
2018_01_14_S5 01/14/2018 23:00:00 0.0084
2018_01_14_S5 01/14/2018 23:05:00 0.0008
2018_01_14_S5 01/14/2018 23:10:00 0.0029
2018_01_14_S5 01/14/2018 23:15:00 0.0
2018_01_14_S5 01/14/2018 23:20:00 0.0094
2018_01_14_S5 01/14/2018 23:25:00 0.0008
2018_01_14_S5 01/14/2018 23:30:00 0.0
2018_01_14_S5 01/14/2018 23:35:00 0.0
2018_01_14_S5 01/14/2018 23:40:00 0.0
2018_01_14_S5 01/14/2018 23:45:00 0.0
2018_01_14_S5 01/14/2018 23:50:00 0.0
2018_01_14_S5 01/14/2018 23:55:00 0.0
2018_01_14_S5 01/15/2018 00:00:00 0.0
2018_01_14_S5 01/15/2018 00:05:00 0.0
2018_01_14_S5 01/15/2018 00:10:00 0.0
2018_01_14_S5 01/15/2018 00:15:00 0.0
2018_01_14_S5 01/15/2018 00:20:00 0.0
2018_01_14_S5 01/15/2018 00:25:00 0.0
2018_01_14_S5 01/15/2018 00:30:00 0.0
2018_01_14_S5 01/15/2018 00:35:00 0.0
2018_01_14_S5 01/15/2018 00:40:00 0.0
2018_01_14_S5 01/15/2018 00:45:00 0.0
2018_01_14_S5 01/15/2018 00:50:00 0.0
2018_01_14_S5 01/15/2018 00:55:00 0.0
2018_01_14_S5 01/15/2018 01:00:00 0.0
2018_01_14_S5 01/15/2018 01:05:00 0.0
2018_01_14_S5 01/15/2018 01:10:00 0.0
2018_01_14_S5 01/15/2018 01:15:00 0.0
2018_01_14_S5 01/15/2018 01:20:00 0.0
2018_01_14_S5 01/15/2018 01:25:00 0.0
2018_01_14_S5 01/15/2018 01:30:00 0.0
2018_01_14_S5 01/15/2018 01:35:00 0.0
2018_01_14_S5 01/15/2018 01:40:00 0.0
2018_01_14_S5 01/15/2018 01:45:00 0.0
2018_01_14_S5 01/15/2018 01:50:00 0.0
2018_01_14_S5 01/15/2018 01:55:00 0.0
2018_01_14_S5 01/15/2018 02:00:00 0.0
2018_01_14_S5 01/15/2018 02:05:00 0.0
2018_01_14_S5 01/15/2018 02:10:00 0.0
2018_01_14_S5 01/15/2018 02:15:00 0.0
2018_01_14_S5 01/15/2018 02:20:00 0.0
2018_01_14_S5 01/15/2018 02:25:00 0.0037
2018_01_14_S5 01/15/2018 02:30:00 0.0016
2018_01_14_S5 01/15/2018 02:35:00 0.0
2018_01_14_S5 01/15/2018 02:40:00 0.2077
2018_01_14_S5 01/15/2018 02:45:00 0.6114
2018_01_14_S5 01/15/2018 02:50:00 0.2519
2018_01_14_S5 01/15/2018 02:55:00 0.0145
2018_01_14_S5 01/15/2018 03:00:00 0.0242
2018_01_14_S5 01/15/2018 03:05:00 0.0078
2018_01_14_S5 01/15/2018 03:10:00 0.0
2018_01_14_S5 01/15/2018 03:15:00 0.0
2018_01_14_S5 01/15/2018 03:20:00 0.0
2018_01_14_S5 01/15/2018 03:25:00 0.0
2018_01_14_S5 01/15/2018 03:30:00 0.0
2018_01_14_S5 01/15/2018 03:35:00 0.0
2018_01_14_S5 01/15/2018 03:40:00 0.0
2018_01_14_S5 01/15/2018 03:45:00 0.0
2018_01_14_S5 01/15/2018 03:50:00 0.0
2018_01_14_S5 01/15/2018 03:55:00 0.0
2018_01_14_S5 01/15/2018 04:00:00 0.0
2018_01_14_S5 01/15/2018 04:05:00 0.0
2018_01_14_S5 01/15/2018 04:10:00 0.0
2018_01_14_S5 01/15/2018 04:15:00 0.0
2018_01_14_S5 01/15/2018 04:20:00 0.0
2018_01_14_S5 01/15/2018 04:25:00 0.0
2018_01_14_S5 01/15/2018 04:30:00 0.0
2018_01_14_S5 01/15/2018 04:35:00 0.0
2018_01_14_S5 01/15/2018 04:40:00 0.0
2018_01_14_S5 01/15/2018 04:45:00 0.0
2018_01_14_S5 01/15/2018 04:50:00 0.0
2018_01_14_S5 01/15/2018 04:55:00 0.0
2018_01_14_S5 01/15/2018 05:00:00 0.0
2018_01_14_S5 01/15/2018 05:05:00 0.0
2018_01_14_S5 01/15/2018 05:10:00 0.0
2018_01_14_S5 01/15/2018 05:15:00 0.0
2018_01_14_S5 01/15/2018 05:20:00 0.0
2018_01_14_S5 01/15/2018 05:25:00 0.0
2018_01_14_S5 01/15/2018 05:30:00 0.0
2018_01_14_S5 01/15/2018 05:35:00 0.0
2018_01_14_S5 01/15/2018 05:40:00 0.0
2018_01_14_S5 01/15/2018 05:45:00 0.0
2018_01_14_S5 01/15/2018 05:50:00 0.0
2018_01_14_S5 01/15/2018 05:55:00 0.0
2018_01_14_S5 01/15/2018 06:00:00 0.0
2018_01_14_S5 01/15/2018 06:05:00 0.0
2018_01_14_S5 01/15/2018 06:10:00 0.0
2018_01_14_S5 01/15/2018 06:15:00 0.0
2018_01_14_S5 01/15/2018 06:20:00 0.0232
2018_01_14_S5 01/15/2018 06:25:00 0.0
2018_01_14_S5 01/15/2018 06:30:00 0.0
2018_01_14_S5 01/15/2018 06:35:00 0.0
2018_01_14_S5 01/15/2018 06:40:00 0.0
2018_01_14_S5 01/15/2018 06:45:00 0.0
2018_01_14_S5 01/15/2018 06:50:00 0.0
2018_01_14_S5 01/15/2018 06:55:00 0.0
2018_01_14_S5 01/15/2018 07:00:00 0.0
2018_01_14_S5 01/15/2018 07:05:00 0.0
2018_01_14_S5 01/15/2018 07:10:00 0.0
2018_01_14_S5 01/15/2018 07:15:00 0.0034
2018_01_14_S5 01/15/2018 07:20:00 0.066
2018_01_14_S5 01/15/2018 07:25:00 0.138
2018_01_14_S5 01/15/2018 07:30:00 0.0
2018_01_14_S5 01/15/2018 07:35:00 0.0
2018_01_14_S5 01/15/2018 07:40:00 0.0
2018_01_14_S5 01/15/2018 07:45:00 0.0
2018_01_14_S5 01/15/2018 07:50:00 0.0
2018_01_14_S5 01/15/2018 07:55:00 0.0
2018_01_14_S5 01/15/2018 08:00:00 0.0

2018_01_14_S6 01/13/2018 08:00:00 0.0
2018_01_14_S6 01/13/2018 08:05:00 0.0
2018_01_14_S6 01/13/2018 08:10:00 0.0
2018_01_14_S6 01/13/2018 08:15:00 0.0
2018_01_14_S6 01/13/2018 08:20:00 0.0
2018_01_14_S6 01/13/2018 08:25:00 0.0
2018_01_14_S6 01/13/2018 08:30:00 0.0
2018_01_14_S6 01/13/2018 08:35:00 0.0
2018_01_14_S6 01/13/2018 08:40:00 0.0
2018_01_14_S6 01/13/2018 08:45:00 0.0
2018_01_14_S6 01/13/2018 08:50:00 0.0
2018_01_14_S6 01/13/2018 08:55:00 0.0
2018_01_14_S6 01/13/2018 09:00:00 0.0
2018_01_14_S6 01/13/2018 09:05:00 0.0
2018_01_14_S6 01/13/2018 09:10:00 0.0
2018_01_14_S6 01/13/2018 09:15:00 0.0
2018_01_14_S6 01/13/2018 09:20:00 0.0
2018_01_14_S6 01/13/2018 09:25:00 0.0
2018_01_14_S6 01/13/2018 09:30:00 0.0
2018_01_14_S6 01/13/2018 09:35:00 0.0
2018_01_14_S6 01/13/2018 09:40:00 0.0
2018_01_14_S6 01/13/2018 09:45:00 0.0
2018_01_14_S6 01/13/2018 09:50:00 0.0
2018_01_14_S6 01/13/2018 09:55:00 0.0
2018_01_14_S6 01/13/2018 10:00:00 0.0
2018_01_14_S6 01/13/2018 10:05:00 0.0
2018_01_14_S6 01/13/2018 10:10:00 0.0
2018_01_14_S6 01/13/2018 10:15:00 0.0
2018_01_14_S6 01/13/2018 10:20:00 0.0
2018_01_14_S6 01/13/2018 10:25:00 0.0
2018_01_14_S6 01/13/2018 10:30:00 0.0
2018_01_14_S6 01/13/2018 10:35:00 0.0
2018_01_14_S6 01/13/2018 10:40:00 0.0
2018_01_14_S6 01/13/2018 10:45:00 0.0
2018_01_14_S6 01/13/2018 10:50:00 0.0
2018_01_14_S6 01/13/2018 10:55:00 0.0
2018_01_14_S6 01/13/2018 11:00:00 0.0
2018_01_14_S6 01/13/2018 11:05:00 0.0
2018_01_14_S6 01/13/2018 11:10:00 0.0
2018_01_14_S6 01/13/2018 11:15:00 0.0
2018_01_14_S6 01/13/2018 11:20:00 0.0
2018_01_14_S6 01/13/2018 11:25:00 0.0
2018_01_14_S6 01/13/2018 11:30:00 0.0
2018_01_14_S6 01/13/2018 11:35:00 0.0
2018_01_14_S6 01/13/2018 11:40:00 0.0
2018_01_14_S6 01/13/2018 11:45:00 0.0
2018_01_14_S6 01/13/2018 11:50:00 0.0
2018_01_14_S6 01/13/2018 11:55:00 0.0
2018_01_14_S6 01/13/2018 12:00:00 0.0
2018_01_14_S6 01/13/2018 12:05:00 0.0
2018_01_14_S6 01/13/2018 12:10:00 0.0
2018_01_14_S6 01/13/2018 12:15:00 0.0
2018_01_14_S6 01/13/2018 12:20:00 0.0
2018_01_14_S6 01/13/2018 12:25:00 0.0
2018_01_14_S6 01/13/2018 12:30:00 0.0
2018_01_14_S6 01/13/2018 12:35:00 0.0
2018_01_14_S6 01/13/2018 12:40:00 0.0
2018_01_14_S6 01/13/2018 12:45:00 0.0
2018_01_14_S6 01/13/2018 12:50:00 0.0
2018_01_14_S6 01/13/2018 12:55:00 0.0
2018_01_14_S6 01/13/2018 13:00:00 0.0
2018_01_14_S6 01/13/2018 13:05:00 0.0
2018_01_14_S6 01/13/2018 13:10:00 0.0
2018_01_14_S6 01/13/2018 13:15:00 0.0
2018_01_14_S6 01/13/2018 13:20:00 0.0
2018_01_14_S6 01/13/2018 13:25:00 0.0
2018_01_14_S6 01/13/2018 13:30:00 0.0
2018_01_14_S6 01/13/2018 13:35:00 0.0
2018_01_14_S6 01/13/2018 13:40:00 0.0
2018_01_14_S6 01/13/2018 13:45:00 0.0
2018_01_14_S6 01/13/2018 13:50:00 0.0
2018_01_14_S6 01/13/2018 13:55:00 0.0
2018_01_14_S6 01/13/2018 14:00:00 0.0
2018_01_14_S6 01/13/2018 14:05:00 0.0
2018_01_14_S6 01/13/2018 14:10:00 0.0
2018_01_14_S6 01/13/2018 14:15:00 0.0
2018_01_14_S6 01/13/2018 14:20:00 0.0
2018_01_14_S6 01/13/2018 14:25:00 0.0
2018_01_14_S6 01/13/2018 14:30:00 0.0
2018_01_14_S6 01/13/2018 14:35:00 0.0
2018_01_14_S6 01/13/2018 14:40:00 0.0
2018_01_14_S6 01/13/2018 14:45:00 0.0
2018_01_14_S6 01/13/2018 14:50:00 0.0
2018_01_14_S6 01/13/2018 14:55:00 0.0
2018_01_14_S6 01/13/2018 15:00:00 0.0
2018_01_14_S6 01/13/2018 15:05:00 0.0
2018_01_14_S6 01/13/2018 15:10:00 0.0
2018_01_14_S6 01/13/2018 15:15:00 0.0
2018_01_14_S6 01/13/2018 15:20:00 0.0
2018_01_14_S6 01/13/2018 15:25:00 0.0
2018_01_14_S6 01/13/2018 15:30:00 0.0
2018_01_14_S6 01/13/2018 15:35:00 0.0
2018_01_14_S6 01/13/2018 15:40:00 0.0
2018_01_14_S6 01/13/2018 15:45:00 0.0
2018_01_14_S6 01/13/2018 15:50:00 0.0
2018_01_14_S6 01/13/2018 15:55:00 0.0
2018_01_14_S6 01/13/2018 16:00:00 0.0
2018_01_14_S6 01/13/2018 16:05:00 0.0
2018_01_14_S6 01/13/2018 16:10:00 0.0
2018_01_14_S6 01/13/2018 16:15:00 0.0
2018_01_14_S6 01/13/2018 16:20:00 0.0
2018_01_14_S6 01/13/2018 16:25:00 0.0
2018_01_14_S6 01/13/2018 16:30:00 0.0
2018_01_14_S6 01/13/2018 16:35:00 0.0
2018_01_14_S6 01/13/2018 16:40:00 0.0
2018_01_14_S6 01/13/2018 16:45:00 0.0
2018_01_14_S6 01/13/2018 16:50:00 0.0
2018_01_14_S6 01/13/2018 16:55:00 0.0
2018_01_14_S6 01/13/2018 17:00:00 0.0
2018_01_14_S6 01/13/2018 17:05:00 0.0
2018_01_14_S6 01/13/2018 17:10:00 0.0
2018_01_14_S6 01/13/2018 17:15:00 0.0
2018_01_14_S6 01/13/2018 17:20:00 0.0
2018_01_14_S6 01/13/2018 17:25:00 0.0
2018_01_14_S6 01/13/2018 17:30:00 0.0
2018_01_14_S6 01/13/2018 17:35:00 0.0
2018_01_14_S6 01/13/2018 17:40:00 0.0
2018_01_14_S6 01/13/2018 17:45:00 0.0
2018_01_14_S6 01/13/2018 17:50:00 0.0
2018_01_14_S6 01/13/2018 17:55:00 0.0
2018_01_14_S6 01/13/2018 18:00:00 0.0
2018_01_14_S6 01/13/2018 18:05:00 0.0
2018_01_14_S6 01/13/2018 18:10:00 0.0
2018_01_14_S6 01/13/2018 18:15:00 0.0
2018_01_14_S6 01/13/2018 18:20:00 0.0
2018_01_14_S6 01/13/2018 18:25:00 0.0
2018_01_14_S6 01/13/2018 18:30:00 0.0
2018_01_14_S6 01/13/2018 18:35:00 0.0
2018_01_14_S6 01/13/2018 18:40:00 0.0
2018_01_14_S6 01/13/2018 18:45:00 0.0
2018_01_14_S6 01/13/2018 18:50:00 0.0
2018_01_14_S6 01/13/2018 18:55:00 0.0
2018_01_14_S6 01/13/2018 19:00:00 0.0
2018_01_14_S6 01/13/2018 19:05:00 0.0
2018_01_14_S6 01/13/2018 19:10:00 0.0
2018_01_14_S6 01/13/2018 19:15:00 0.0
2018_01_14_S6 01/13/2018 19:20:00 0.0
2018_01_14_S6 01/13/2018 19:25:00 0.0
2018_01_14_S6 01/13/2018 19:30:00 0.0
2018_01_14_S6 01/13/2018 19:35:00 0.0
2018_01_14_S6 01/13/2018 19:40:00 0.0
2018_01_14_S6 01/13/2018 19:45:00 0.0
2018_01_14_S6 01/13/2018 19:50:00 0.0
2018_01_14_S6 01/13/2018 19:55:00 0.0
2018_01_14_S6 01/13/2018 20:00:00 0.0
2018_01_14_S6 01/13/2018 20:05:00 0.0
2018_01_14_S6 01/13/2018 20:10:00 0.0
2018_01_14_S6 01/13/2018 20:15:00 0.0
2018_01_14_S6 01/13/2018 20:20:00 0.0
2018_01_14_S6 01/13/2018 20:25:00 0.0
2018_01_14_S6 01/13/2018 20:30:00 0.0
2018_01_14_S6 01/13/2018 20:35:00 0.0
2018_01_14_S6 01/13/2018 20:40:00 0.0
2018_01_14_S6 01/13/2018 20:45:00 0.0
2018_01_14_S6 01/13/2018 20:50:00 0.0
2018_01_14_S6 01/13/2018 20:55:00 0.0
2018_01_14_S6 01/13/2018 21:00:00 0.0
2018_01_14_S6 01/13/2018 21:05:00 0.0
2018_01_14_S6 01/13/2018 21:10:00 0.0
2018_01_14_S6 01/13/2018 21:15:00 0.0
2018_01_14_S6 01/13/2018 21:20:00 0.0
2018_01_14_S6 01/13/2018 21:25:00 0.0
2018_01_14_S6 01/13/2018 21:30:00 0.0
2018_01_14_S6 01/13/2018 21:35:00 0.0
2018_01_14_S6 01/13/2018 21:40:00 0.0
2018_01_14_S6 01/13/2018 21:45:00 0.0
2018_01_14_S6 01/13/2018 21:50:00 0.0
2018_01_14_S6 01/13/2018 21:55:00 0.0
2018_01_14_S6 01/13/2018 22:00:00 0.0
2018_01_14_S6 01/13/2018 22:05:00 0.0
2018_01_14_S6 01/13/2018 22:10:00 0.0
2018_01_14_S6 01/13/2018 22:15:00 0.0
2018_01_14_S6 01/13/2018 22:20:00 0.0
2018_01_14_S6 01/13/2018 22:25:00 0.0
2018_01_14_S6 01/13/2018 22:30:00 0.0
2018_01_14_S6 01/13/2018 22:35:00 0.0
2018_01_14_S6 01/13/2018 22:40:00 0.0
2018_01_14_S6 01/13/2018 22:45:00 0.0
2018_01_14_S6 01/13/2018 22:50:00 0.0
2018_01_14_S6 01/13/2018 22:55:00 0.0
2018_01_14_S6 01/13/2018 23:00:00 0.0
2018_01_14_S6 01/13/2018 23:05:00 0.0
2018_01_14_S6 01/13/2018 23:10:00 0.0
2018_01_14_S6 01/13/2018 23:15:00 0.0
2018_01_14_S6 01/13/2018 23:20:00 0.0
2018_01_14_S6 01/13/2018 23:25:00 0.0
2018_01_14_S6 01/13/2018 23:30:00 0.0
2018_01_14_S6 01/13/2018 23:35:00 0.0
2018_01_14_S6 01/13/2018 23:40:00 0.0
2018_01_14_S6 01/13/2018 23:45:00 0.0
2018_01_14_S6 01/13/2018 23:50:00 0.0
2018_01_14_S6 01/13/2018 23:55:00 0.0
2018_01_14_S6 01/14/2018 00:00:00 0.0
2018_01_14_S6 01/14/2018 00:05:00 0.0
2018_01_14_S6 01/14/2018 00:10:00 0.0
2018_01_14_S6 01/14/2018 00:15:00 0.0
2018_01_14_S6 01/14/2018 00:20:00 0.0
2018_01_14_S6 01/14/2018 00:25:00 0.0
2018_01_14_S6 01/14/2018 00:30:00 0.0
2018_01_14_S6 01/14/2018 00:35:00 0.0
2018_01_14_S6 01/14/2018 00:40:00 0.0
2018_01_14_S6 01/14/2018 00:45:00 0.0
2018_01_14_S6 01/14/2018 00:50:00 0.0
2018_01_14_S6 01/14/2018 00:55:00 0.0
2018_01_14_S6 01/14/2018 01:00:00 0.0
2018_01_14_S6 01/14/2018 01:05:00 0.0
2018_01_14_S6 01/14/2018 01:10:00 0.0
2018_01_14_S6 01/14/2018 01:15:00 0.0
2018_01_14_S6 01/14/2018 01:20:00 0.0
2018_01_14_S6 01/14/2018 01:25:00 0.0
2018_01_14_S6 01/14/2018 01:30:00 0.0
2018_01_14_S6 01/14/2018 01:35:00 0.0
2018_01_14_S6 01/14/2018 01:40:00 0.0
2018_01_14_S6 01/14/2018 01:45:00 0.0
2018_01_14_S6 01/14/2018 01:50:00 0.0
2018_01_14_S6 01/14/2018 01:55:00 0.0
2018_01_14_S6 01/14/2018 02:00:00 0.0
2018_01_14_S6 01/14/2018 02:05:00 0.0
2018_01_14_S6 01/14/2018 02:10:00 0.0
2018_01_14_S6 01/14/2018 02:15:00 0.0
2018_01_14_S6 01/14/2018 02:20:00 0.0
2018_01_14_S6 01/14/2018 02:25:00 0.0
2018_01_14_S6 01/14/2018 02:30:00 0.0
2018_01_14_S6 01/14/2018 02:35:00 0.0
2018_01_14_S6 01/14/2018 02:40:00 0.0
2018_01_14_S6 01/14/2018 02:45:00 0.0
2018_01_14_S6 01/14/2018 02:50:00 0.0
2018_01_14_S6 01/14/2018 02:55:00 0.0
2018_01_14_S6 01/14/2018 03:00:00 0.0065
2018_01_14_S6 01/14/2018 03:05:00 0.0312
2018_01_14_S6 01/14/2018 03:10:00 0.026
2018_01_14_S6 01/14/2018 03:15:00 0.0
2018_01_14_S6 01/14/2018 03:20:00 0.0
2018_01_14_S6 01/14/2018 03:25:00 0.0
2018_01_14_S6 01/14/2018 03:30:00 0.0
2018_01_14_S6 01/14/2018 03:35:00 0.0
2018_01_14_S6 01/14/2018 03:40:00 0.0
2018_01_14_S6 01/14/2018 03:45:00 0.0
2018_01_14_S6 01/14/2018 03:50:00 0.0
2018_01_14_S6 01/14/2018 03:55:00 0.0
2018_01_14_S6 01/14/2018 04:00:00 0.0
2018_01_14_S6 01/14/2018 04:05:00 0.0
2018_01_14_S6 01/14/2018 04:10:00 0.0
2018_01_14_S6 01/14/2018 04:15:00 0.0
2018_01_14_S6 01/14/2018 04:20:00 0.0
2018_01_14_S6 01/14/2018 04:25:00 0.0
2018_01_14_S6 01/14/2018 04:30:00 0.0
2018_01_14_S6 01/14/2018 04:35:00 0.0
2018_01_14_S6 01/14/2018 04:40:00 0.0
2018_01_14_S6 01/14/2018 04:45:00 0.0
2018_01_14_S6 01/14/2018 04:50:00 0.0
2018_01_14_S6 01/14/2018 04:55:00 0.0008
2018_01_14_S6 01/14/2018 05:00:00 0.0035
2018_01_14_S6 01/14/2018 05:05:00 0.0054
2018_01_14_S6 01/14/2018 05:10:00 0.0142
2018_01_14_S6 01/14/2018 05:15:00 0.0
2018_01_14_S6 01/14/2018 05:20:00 0.0
2018_01_14_S6 01/14/2018 05:25:00 0.0
2018_01_14_S6 01/14/2018 05:30:00 0.0
2018_01_14_S6 01/14/2018 05:35:00 0.0
2018_01_14_S6 01/14/2018 05:40:00 0.0
2018_01_14_S6 01/14/2018 05:45:00 0.0
2018_01_14_S6 01/14/2018 05:50:00 0.0
2018_01_14_S6 01/14/2018 05:55:00 0.4804
2018_01_14_S6 01/14/2018 06:00:00 2.1192
2018_01_14_S6 01/14/2018 06:05:00 1.2226
2018_01_14_S6 01/14/2018 06:10:00 0.0118
2018_01_14_S6 01/14/2018 06:15:00 0.0
2018_01_14_S6 01/14/2018 06:20:00 0.1354
2018_01_14_S6 01/14/2018 06:25:00 0.205
2018_01_14_S6 01/14/2018 06:30:00 0.0
2018_01_14_S6 01/14/2018 06:35:00 0.0
2018_01_14_S6 01/14/2018 06:40:00 0.0
2018_01_14_S6 01/14/2018 06:45:00 0.0
2018_01_14_S6 01/14/2018 06:50:00 0.0
2018_01_14_S6 01/14/2018 06:55:00 0.0
2018_01_14_S6 01/14/2018 07:00:00 0.0
2018_01_14_S6 01/14/2018 07:05:00 0.0
2018_01_14_S6 01/14/2018 07:10:00 0.0
2018_01_14_S6 01/14/2018 07:15:00 0.0
2018_01_14_S6 01/14/2018 07:20:00 0.0
2018_01_14_S6 01/14/2018 07:25:00 0.0
2018_01_14_S6 01/14/2018 07:30:00 0.0
2018_01_14_S6 01/14/2018 07:35:00 0.0
2018_01_14_S6 01/14/2018 07:40:00 0.0
2018_01_14_S6 01/14/2018 07:45:00 0.0
2018_01_14_S6 01/14/2018 07:50:00 0.0071
2018_01_14_S6 01/14/2018 07:55:00 0.0003
2018_01_14_S6 01/14/2018 08:00:00 0.0
2018_01_14_S6 01/14/2018 08:05:00 0.0
2018_01_14_S6 01/14/2018 08:10:00 0.0
2018_01_14_S6 01/14/2018 08:15:00 0.0
2018_01_14_S6 01/14/2018 08:20:00 0.0
2018_01_14_S6 01/14/2018 08:25:00 0.0
2018_01_14_S6 01/14/2018 08:30:00 0.0053
2018_01_14_S6 01/14/2018 08:35:00 0.0318
2018_01_14_S6 01/14/2018 08:40:00 0.0766
2018_01_14_S6 01/14/2018 08:45:00 0.0
2018_01_14_S6 01/14/2018 08:50:00 0.0
2018_01_14_S6 01/14/2018 08:55:00 0.0
2018_01_14_S6 01/14/2018 09:00:00 0.0
2018_01_14_S6 01/14/2018 09:05:00 0.0
2018_01_14_S6 01/14/2018 09:10:00 0.0
2018_01_14_S6 01/14/2018 09:15:00 0.0
2018_01_14_S6 01/14/2018 09:20:00 0.0
2018_01_14_S6 01/14/2018 09:25:00 0.0
2018_01_14_S6 01/14/2018 09:30:00 0.0
2018_01_14_S6 01/14/2018 09:35:00 0.0
2018_01_14_S6 01/14/2018 09:40:00 0.0
2018_01_14_S6 01/14/2018 09:45:00 0.0
2018_01_14_S6 01/14/2018 09:50:00 0.0
2018_01_14_S6 01/14/2018 09:55:00 0.0
2018_01_14_S6 01/14/2018 10:00:00 0.0
2018_01_14_S6 01/14/2018 10:05:00 0.0
2018_01_14_S6 01/14/2018 10:10:00 0.0
2018_01_14_S6 01/14/2018 10:15:00 0.0
2018_01_14_S6 01/14/2018 10:20:00 0.0
2018_01_14_S6 01/14/2018 10:25:00 0.0
2018_01_14_S6 01/14/2018 10:30:00 0.0
2018_01_14_S6 01/14/2018 10:35:00 0.0
2018_01_14_S6 01/14/2018 10:40:00 0.0
2018_01_14_S6 01/14/2018 10:45:00 0.0
2018_01_14_S6 01/14/2018 10:50:00 0.0
2018_01_14_S6 01/14/2018 10:55:00 0.0
2018_01_14_S6 01/14/2018 11:00:00 0.0
2018_01_14_S6 01/14/2018 11:05:00 0.0
2018_01_14_S6 01/14/2018 11:10:00 0.0
2018_01_14_S6 01/14/2018 11:15:00 0.0
2018_01_14_S6 01/14/2018 11:20:00 0.0
2018_01_14_S6 01/14/2018 11:25:00 0.0
2018_01_14_S6 01/14/2018 11:30:00 0.0
2018_01_14_S6 01/14/2018 11:35:00 0.0
2018_01_14_S6 01/14/2018 11:40:00 0.0
2018_01_14_S6 01/14/2018 11:45:00 0.0
2018_01_14_S6 01/14/2018 11:50:00 0.0
2018_01_14_S6 01/14/2018 11:55:00 0.0
2018_01_14_S6 01/14/2018 12:00:00 0.0
2018_01_14_S6 01/14/2018 12:05:00 0.0
2018_01_14_S6 01/14/2018 12:10:00 0.0
2018_01_14_S6 01/14/2018 12:15:00 0.0
2018_01_14_S6 01/14/2018 12:20:00 0.0
2018_01_14_S6 01/14/2018 12:25:00 0.0
2018_01_14_S6 01/14/2018 12:30:00 0.0
2018_01_14_S6 01/14/2018 12:35:00 0.0
2018_01_14_S6 01/14/2018 12:40:00 0.0
2018_01_14_S6 01/14/2018 12:45:00 0.0
2018_01_14_S6 01/14/2018 12:50:00 0.0
2018_01_14_S6 01/14/2018 12:55:00 0.0
2018_01_14_S6 01/14/2018 13:00:00 0.0
2018_01_14_S6 01/14/2018 13:05:00 0.0
2018_01_14_S6 01/14/2018 13:10:00 0.0
2018_01_14_S6 01/14/2018 13:15:00 0.0
2018_01_14_S6 01/14/2018 13:20:00 0.0
2018_01_14_S6 01/14/2018 13:25:00 0.0
2018_01_14_S6 01/14/2018 13:30:00 0.0
2018_01_14_S6 01/14/2018 13:35:00 0.0
2018_01_14_S6 01/14/2018 13:40:00 0.0
2018_01_14_S6 01/14/2018 13:45:00 0.0
2018_01_14_S6 01/14/2018 13:50:00 0.0
2018_01_14_S6 01/14/2018 13:55:00 0.0
2018_01_14_S6 01/14/2018 14:00:00 0.0
2018_01_14_S6 01/14/2018 14:05:00 0.0
2018_01_14_S6 01/14/2018 14:10:00 0.0
2018_01_14_S6 01/14/2018 14:15:00 0.0
2018_01_14_S6 01/14/2018 14:20:00 0.0
2018_01_14_S6 01/14/2018 14:25:00 0.0
2018_01_14_S6 01/14/2018 14:30:00 0.0
2018_01_14_S6 01/14/2018 14:35:00 0.0
2018_01_14_S6 01/14/2018 14:40:00 0.0
2018_01_14_S6 01/14/2018 14:45:00 0.0
2018_01_14_S6 01/14/2018 14:50:00 0.0
2018_01_14_S6 01/14/2018 14:55:00 0.0
2018_01_14_S6 01/14/2018 15:00:00 0.0
2018_01_14_S6 01/14/2018 15:05:00 0.0
2018_01_14_S6 01/14/2018 15:10:00 0.0
2018_01_14_S6 01/14/2018 15:15:00 0.0
2018_01_14_S6 01/14/2018 15:20:00 0.0
2018_01_14_S6 01/14/2018 15:25:00 0.0
2018_01_14_S6 01/14/2018 15:30:00 0.0
2018_01_14_S6 01/14/2018 15:35:00 0.0
2018_01_14_S6 01/14/2018 15:40:00 0.0
2018_01_14_S6 01/14/2018 15:45:00 0.0
2018_01_14_S6 01/14/2018 15:50:00 0.0
2018_01_14_S6 01/14/2018 15:55:00 0.0
2018_01_14_S6 01/14/2018 16:00:00 0.0
2018_01_14_S6 01/14/2018 16:05:00 0.0
2018_01_14_S6 01/14/2018 16:10:00 0.0
2018_01_14_S6 01/14/2018 16:15:00 0.0
2018_01_14_S6 01/14/2018 16:20:00 0.0
2018_01_14_S6 01/14/2018 16:25:00 0.001
2018_01_14_S6 01/14/2018 16:30:00 0.0
2018_01_14_S6 01/14/2018 16:35:00 0.0
2018_01_14_S6 01/14/2018 16:40:00 0.0349
2018_01_14_S6 01/14/2018 16:45:00 0.0196
2018_01_14_S6 01/14/2018 16:50:00 0.0965
2018_01_14_S6 01/14/2018 16:55:00 0.0321
2018_01_14_S6 01/14/2018 17:00:00 0.0
2018_01_14_S6 01/14/2018 17:05:00 0.0098
2018_01_14_S6 01/14/2018 17:10:00 0.2978
2018_01_14_S6 01/14/2018 17:15:00 0.0142
2018_01_14_S6 01/14/2018 17:20:00 0.0018
2018_01_14_S6 01/14/2018 17:25:00 0.0
2018_01_14_S6 01/14/2018 17:30:00 0.0
2018_01_14_S6 01/14/2018 17:35:00 0.1203
2018_01_14_S6 01/14/2018 17:40:00 0.1631
2018_01_14_S6 01/14/2018 17:45:00 0.485
2018_01_14_S6 01/14/2018 17:50:00 0.2645
2018_01_14_S6 01/14/2018 17:55:00 0.1878
2018_01_14_S6 01/14/2018 18:00:00 0.6041
2018_01_14_S6 01/14/2018 18:05:00 0.3628
2018_01_14_S6 01/14/2018 18:10:00 0.8704
2018_01_14_S6 01/14/2018 18:15:00 0.5742
2018_01_14_S6 01/14/2018 18:20:00 2.8922
2018_01_14_S6 01/14/2018 18:25:00 0.6547
2018_01_14_S6 01/14/2018 18:30:00 0.1783
2018_01_14_S6 01/14/2018 18:35:00 0.0156
2018_01_14_S6 01/14/2018 18:40:00 0.0
2018_01_14_S6 01/14/2018 18:45:00 0.7202
2018_01_14_S6 01/14/2018 18:50:00 4.5622
2018_01_14_S6 01/14/2018 18:55:00 0.0065
2018_01_14_S6 01/14/2018 19:00:00 0.2278
2018_01_14_S6 01/14/2018 19:05:00 0.0
2018_01_14_S6 01/14/2018 19:10:00 0.0
2018_01_14_S6 01/14/2018 19:15:00 0.0
2018_01_14_S6 01/14/2018 19:20:00 0.0
2018_01_14_S6 01/14/2018 19:25:00 0.0
2018_01_14_S6 01/14/2018 19:30:00 0.0
2018_01_14_S6 01/14/2018 19:35:00 0.0
2018_01_14_S6 01/14/2018 19:40:00 0.0
2018_01_14_S6 01/14/2018 19:45:00 0.0
2018_01_14_S6 01/14/2018 19:50:00 0.0
2018_01_14_S6 01/14/2018 19:55:00 0.0
2018_01_14_S6 01/14/2018 20:00:00 0.0
2018_01_14_S6 01/14/2018 20:05:00 0.0
2018_01_14_S6 01/14/2018 20:10:00 0.0
2018_01_14_S6 01/14/2018 20:15:00 0.0
2018_01_14_S6 01/14/2018 20:20:00 0.0
2018_01_14_S6 01/14/2018 20:25:00 0.0
2018_01_14_S6 01/14/2018 20:30:00 0.0
2018_01_14_S6 01/14/2018 20:35:00 0.0
2018_01_14_S6 01/14/2018 20:40:00 0.0
2018_01_14_S6 01/14/2018 20:45:00 0.0
2018_01_14_S6 01/14/2018 20:50:00 0.0
2018_01_14_S6 01/14/2018 20:55:00 0.0
2018_01_14_S6 01/14/2018 21:00:00 0.0
2018_01_14_S6 01/14/2018 21:05:00 0.0
2018_01_14_S6 01/14/2018 21:10:00 0.0
2018_01_14_S6 01/14/2018 21:15:00 0.0
2018_01_14_S6 01/14/2018 21:20:00 0.0
2018_01_14_S6 01/14/2018 21:25:00 0.0
2018_01_14_S6 01/14/2018 21:30:00 0.0
2018_01_14_S6 01/14/2018 21:35:00 0.0
2018_01_14_S6 01/14/2018 21:40:00 0.0
2018_01_14_S6 01/14/2018 21:45:00 0.0
2018_01_14_S6 01/14/2018 21:50:00 0.0
2018_01_14_S6 01/14/2018 21:55:00 0.0
2018_01_14_S6 01/14/2018 22:00:00 0.0
2018_01_14_S6 01/14/2018 22:05:00 0.0
2018_01_14_S6 01/14/2018 22:10:00 0.0
2018_01_14_S6 01/14/2018 22:15:00 0.0
2018_01_14_S6 01/14/2018 22:20:00 0.0
2018_01_14_S6 01/14/2018 22:25:00 0.0
2018_01_14_S6 01/14/2018 22:30:00 0.0
2018_01_14_S6 01/14/2018 22:35:00 0.0
2018_01_14_S6 01/14/2018 22:40:00 0.003
2018_01_14_S6 01/14/2018 22:45:00 0.0
2018_01_14_S6 01/14/2018 22:50:00 0.0
2018_01_14_S6 01/14/2018 22:55:00 0.0556
2018_01_14_S6 01/14/2018 23:00:00 0.0085
2018_01_14_S6 01/14/2018 23:05:00 0.0
2018_01_14_S6 01/14/2018 23:10:00 0.0112
2018_01_14_S6 01/14/2018 23:15:00 0.0033
2018_01_14_S6 01/14/2018 23:20:00 0.008
2018_01_14_S6 01/14/2018 23:25:00 0.0001
2018_01_14_S6 01/14/2018 23:30:00 0.0
2018_01_14_S6 01/14/2018 23:35:00 0.0
2018_01_14_S6 01/14/2018 23:40:00 0.0
2018_01_14_S6 01/14/2018 23:45:00 0.0
2018_01_14_S6 01/14/2018 23:50:00 0.0
2018_01_14_S6 01/14/2018 23:55:00 0.0
2018_01_14_S6 01/15/2018 00:00:00 0.0
2018_01_14_S6 01/15/2018 00:05:00 0.0
2018_01_14_S6 01/15/2018 00:10:00 0.0
2018_01_14_S6 01/15/2018 00:15:00 0.0
2018_01_14_S6 01/15/2018 00:20:00 0.0
2018_01_14_S6 01/15/2018 00:25:00 0.0
2018_01_14_S6 01/15/2018 00:30:00 0.0
2018_01_14_S6 01/15/2018 00:35:00 0.0
2018_01_14_S6 01/15/2018 00:40:00 0.0
2018_01_14_S6 01/15/2018 00:45:00 0.0
2018_01_14_S6 01/15/2018 00:50:00 0.0
2018_01_14_S6 01/15/2018 00:55:00 0.0
2018_01_14_S6 01/15/2018 01:00:00 0.0
2018_01_14_S6 01/15/2018 01:05:00 0.0
2018_01_14_S6 01/15/2018 01:10:00 0.0
2018_01_14_S6 01/15/2018 01:15:00 0.0
2018_01_14_S6 01/15/2018 01:20:00 0.0
2018_01_14_S6 01/15/2018 01:25:00 0.0
2018_01_14_S6 01/15/2018 01:30:00 0.0
2018_01_14_S6 01/15/2018 01:35:00 0.0
2018_01_14_S6 01/15/2018 01:40:00 0.0
2018_01_14_S6 01/15/2018 01:45:00 0.0
2018_01_14_S6 01/15/2018 01:50:00 0.0
2018_01_14_S6 01/15/2018 01:55:00 0.0
2018_01_14_S6 01/15/2018 02:00:00 0.0
2018_01_14_S6 01/15/2018 02:05:00 0.0
2018_01_14_S6 01/15/2018 02:10:00 0.0
2018_01_14_S6 01/15/2018 02:15:00 0.0
2018_01_14_S6 01/15/2018 02:20:00 0.0
2018_01_14_S6 01/15/2018 02:25:00 0.0324
2018_01_14_S6 01/15/2018 02:30:00 0.0041
2018_01_14_S6 01/15/2018 02:35:00 0.0153
2018_01_14_S6 01/15/2018 02:40:00 0.3296
2018_01_14_S6 01/15/2018 02:45:00 0.3879
2018_01_14_S6 01/15/2018 02:50:00 0.0562
2018_01_14_S6 01/15/2018 02:55:00 0.0107
2018_01_14_S6 01/15/2018 03:00:00 0.0078
2018_01_14_S6 01/15/2018 03:05:00 0.003
2018_01_14_S6 01/15/2018 03:10:00 0.0
2018_01_14_S6 01/15/2018 03:15:00 0.0
2018_01_14_S6 01/15/2018 03:20:00 0.0
2018_01_14_S6 01/15/2018 03:25:00 0.0
2018_01_14_S6 01/15/2018 03:30:00 0.0
2018_01_14_S6 01/15/2018 03:35:00 0.0
2018_01_14_S6 01/15/2018 03:40:00 0.0
2018_01_14_S6 01/15/2018 03:45:00 0.0
2018_01_14_S6 01/15/2018 03:50:00 0.0
2018_01_14_S6 01/15/2018 03:55:00 0.0
2018_01_14_S6 01/15/2018 04:00:00 0.0
2018_01_14_S6 01/15/2018 04:05:00 0.0
2018_01_14_S6 01/15/2018 04:10:00 0.0
2018_01_14_S6 01/15/2018 04:15:00 0.0
2018_01_14_S6 01/15/2018 04:20:00 0.0
2018_01_14_S6 01/15/2018 04:25:00 0.0
2018_01_14_S6 01/15/2018 04:30:00 0.0
2018_01_14_S6 01/15/2018 04:35:00 0.0
2018_01_14_S6 01/15/2018 04:40:00 0.0
2018_01_14_S6 01/15/2018 04:45:00 0.0
2018_01_14_S6 01/15/2018 04:50:00 0.0
2018_01_14_S6 01/15/2018 04:55:00 0.0
2018_01_14_S6 01/15/2018 05:00:00 0.0
2018_01_14_S6 01/15/2018 05:05:00 0.0
2018_01_14_S6 01/15/2018 05:10:00 0.0
2018_01_14_S6 01/15/2018 05:15:00 0.0
2018_01_14_S6 01/15/2018 05:20:00 0.0
2018_01_14_S6 01/15/2018 05:25:00 0.0
2018_01_14_S6 01/15/2018 05:30:00 0.0
2018_01_14_S6 01/15/2018 05:35:00 0.0
2018_01_14_S6 01/15/2018 05:40:00 0.0
2018_01_14_S6 01/15/2018 05:45:00 0.0
2018_01_14_S6 01/15/2018 05:50:00 0.0
2018_01_14_S6 01/15/2018 05:55:00 0.0
2018_01_14_S6 01/15/2018 06:00:00 0.0
2018_01_14_S6 01/15/2018 06:05:00 0.0
2018_01_14_S6 01/15/2018 06:10:00 0.0
2018_01_14_S6 01/15/2018 06:15:00 0.001
2018_01_14_S6 01/15/2018 06:20:00 0.0381
2018_01_14_S6 01/15/2018 06:25:00 0.0
2018_01_14_S6 01/15/2018 06:30:00 0.0
2018_01_14_S6 01/15/2018 06:35:00 0.0
2018_01_14_S6 01/15/2018 06:40:00 0.0
2018_01_14_S6 01/15/2018 06:45:00 0.0
2018_01_14_S6 01/15/2018 06:50:00 0.0
2018_01_14_S6 01/15/2018 06:55:00 0.0
2018_01_14_S6 01/15/2018 07:00:00 0.0
2018_01_14_S6 01/15/2018 07:05:00 0.0
2018_01_14_S6 01/15/2018 07:10:00 0.0
2018_01_14_S6 01/15/2018 07:15:00 0.0045
2018_01_14_S6 01/15/2018 07:20:00 0.0375
2018_01_14_S6 01/15/2018 07:25:00 0.0359
2018_01_14_S6 01/15/2018 07:30:00 0.0
2018_01_14_S6 01/15/2018 07:35:00 0.0
2018_01_14_S6 01/15/2018 07:40:00 0.0
2018_01_14_S6 01/15/2018 07:45:00 0.0
2018_01_14_S6 01/15/2018 07:50:00 0.0
2018_01_14_S6 01/15/2018 07:55:00 0.0
2018_01_14_S6 01/15/2018 08:00:00 0.0

2018_01_14_S7 01/13/2018 08:00:00 0.0
2018_01_14_S7 01/13/2018 08:05:00 0.0
2018_01_14_S7 01/13/2018 08:10:00 0.0
2018_01_14_S7 01/13/2018 08:15:00 0.0
2018_01_14_S7 01/13/2018 08:20:00 0.0
2018_01_14_S7 01/13/2018 08:25:00 0.0
2018_01_14_S7 01/13/2018 08:30:00 0.0
2018_01_14_S7 01/13/2018 08:35:00 0.0
2018_01_14_S7 01/13/2018 08:40:00 0.0
2018_01_14_S7 01/13/2018 08:45:00 0.0
2018_01_14_S7 01/13/2018 08:50:00 0.0
2018_01_14_S7 01/13/2018 08:55:00 0.0
2018_01_14_S7 01/13/2018 09:00:00 0.0
2018_01_14_S7 01/13/2018 09:05:00 0.0
2018_01_14_S7 01/13/2018 09:10:00 0.0
2018_01_14_S7 01/13/2018 09:15:00 0.0
2018_01_14_S7 01/13/2018 09:20:00 0.0
2018_01_14_S7 01/13/2018 09:25:00 0.0
2018_01_14_S7 01/13/2018 09:30:00 0.0
2018_01_14_S7 01/13/2018 09:35:00 0.0
2018_01_14_S7 01/13/2018 09:40:00 0.0
2018_01_14_S7 01/13/2018 09:45:00 0.0
2018_01_14_S7 01/13/2018 09:50:00 0.0
2018_01_14_S7 01/13/2018 09:55:00 0.0
2018_01_14_S7 01/13/2018 10:00:00 0.0
2018_01_14_S7 01/13/2018 10:05:00 0.0
2018_01_14_S7 01/13/2018 10:10:00 0.0
2018_01_14_S7 01/13/2018 10:15:00 0.0
2018_01_14_S7 01/13/2018 10:20:00 0.0
2018_01_14_S7 01/13/2018 10:25:00 0.0
2018_01_14_S7 01/13/2018 10:30:00 0.0
2018_01_14_S7 01/13/2018 10:35:00 0.0
2018_01_14_S7 01/13/2018 10:40:00 0.0
2018_01_14_S7 01/13/2018 10:45:00 0.0
2018_01_14_S7 01/13/2018 10:50:00 0.0
2018_01_14_S7 01/13/2018 10:55:00 0.0
2018_01_14_S7 01/13/2018 11:00:00 0.0
2018_01_14_S7 01/13/2018 11:05:00 0.0
2018_01_14_S7 01/13/2018 11:10:00 0.0
2018_01_14_S7 01/13/2018 11:15:00 0.0
2018_01_14_S7 01/13/2018 11:20:00 0.0
2018_01_14_S7 01/13/2018 11:25:00 0.0
2018_01_14_S7 01/13/2018 11:30:00 0.0
2018_01_14_S7 01/13/2018 11:35:00 0.0
2018_01_14_S7 01/13/2018 11:40:00 0.0
2018_01_14_S7 01/13/2018 11:45:00 0.0
2018_01_14_S7 01/13/2018 11:50:00 0.0
2018_01_14_S7 01/13/2018 11:55:00 0.0
2018_01_14_S7 01/13/2018 12:00:00 0.0
2018_01_14_S7 01/13/2018 12:05:00 0.0
2018_01_14_S7 01/13/2018 12:10:00 0.0
2018_01_14_S7 01/13/2018 12:15:00 0.0
2018_01_14_S7 01/13/2018 12:20:00 0.0
2018_01_14_S7 01/13/2018 12:25:00 0.0
2018_01_14_S7 01/13/2018 12:30:00 0.0
2018_01_14_S7 01/13/2018 12:35:00 0.0
2018_01_14_S7 01/13/2018 12:40:00 0.0
2018_01_14_S7 01/13/2018 12:45:00 0.0
2018_01_14_S7 01/13/2018 12:50:00 0.0
2018_01_14_S7 01/13/2018 12:55:00 0.0
2018_01_14_S7 01/13/2018 13:00:00 0.0
2018_01_14_S7 01/13/2018 13:05:00 0.0
2018_01_14_S7 01/13/2018 13:10:00 0.0
2018_01_14_S7 01/13/2018 13:15:00 0.0
2018_01_14_S7 01/13/2018 13:20:00 0.0
2018_01_14_S7 01/13/2018 13:25:00 0.0
2018_01_14_S7 01/13/2018 13:30:00 0.0
2018_01_14_S7 01/13/2018 13:35:00 0.0
2018_01_14_S7 01/13/2018 13:40:00 0.0
2018_01_14_S7 01/13/2018 13:45:00 0.0
2018_01_14_S7 01/13/2018 13:50:00 0.0
2018_01_14_S7 01/13/2018 13:55:00 0.0
2018_01_14_S7 01/13/2018 14:00:00 0.0
2018_01_14_S7 01/13/2018 14:05:00 0.0
2018_01_14_S7 01/13/2018 14:10:00 0.0
2018_01_14_S7 01/13/2018 14:15:00 0.0
2018_01_14_S7 01/13/2018 14:20:00 0.0
2018_01_14_S7 01/13/2018 14:25:00 0.0
2018_01_14_S7 01/13/2018 14:30:00 0.0
2018_01_14_S7 01/13/2018 14:35:00 0.0
2018_01_14_S7 01/13/2018 14:40:00 0.0
2018_01_14_S7 01/13/2018 14:45:00 0.0
2018_01_14_S7 01/13/2018 14:50:00 0.0
2018_01_14_S7 01/13/2018 14:55:00 0.0
2018_01_14_S7 01/13/2018 15:00:00 0.0
2018_01_14_S7 01/13/2018 15:05:00 0.0
2018_01_14_S7 01/13/2018 15:10:00 0.0
2018_01_14_S7 01/13/2018 15:15:00 0.0
2018_01_14_S7 01/13/2018 15:20:00 0.0
2018_01_14_S7 01/13/2018 15:25:00 0.0
2018_01_14_S7 01/13/2018 15:30:00 0.0
2018_01_14_S7 01/13/2018 15:35:00 0.0
2018_01_14_S7 01/13/2018 15:40:00 0.0
2018_01_14_S7 01/13/2018 15:45:00 0.0
2018_01_14_S7 01/13/2018 15:50:00 0.0
2018_01_14_S7 01/13/2018 15:55:00 0.0
2018_01_14_S7 01/13/2018 16:00:00 0.0
2018_01_14_S7 01/13/2018 16:05:00 0.0
2018_01_14_S7 01/13/2018 16:10:00 0.0
2018_01_14_S7 01/13/2018 16:15:00 0.0
2018_01_14_S7 01/13/2018 16:20:00 0.0
2018_01_14_S7 01/13/2018 16:25:00 0.0
2018_01_14_S7 01/13/2018 16:30:00 0.0
2018_01_14_S7 01/13/2018 16:35:00 0.0
2018_01_14_S7 01/13/2018 16:40:00 0.0
2018_01_14_S7 01/13/2018 16:45:00 0.0
2018_01_14_S7 01/13/2018 16:50:00 0.0
2018_01_14_S7 01/13/2018 16:55:00 0.0
2018_01_14_S7 01/13/2018 17:00:00 0.0
2018_01_14_S7 01/13/2018 17:05:00 0.0
2018_01_14_S7 01/13/2018 17:10:00 0.0
2018_01_14_S7 01/13/2018 17:15:00 0.0
2018_01_14_S7 01/13/2018 17:20:00 0.0
2018_01_14_S7 01/13/2018 17:25:00 0.0
2018_01_14_S7 01/13/2018 17:30:00 0.0
2018_01_14_S7 01/13/2018 17:35:00 0.0
2018_01_14_S7 01/13/2018 17:40:00 0.0
2018_01_14_S7 01/13/2018 17:45:00 0.0
2018_01_14_S7 01/13/2018 17:50:00 0.0
2018_01_14_S7 01/13/2018 17:55:00 0.0
2018_01_14_S7 01/13/2018 18:00:00 0.0
2018_01_14_S7 01/13/2018 18:05:00 0.0
2018_01_14_S7 01/13/2018 18:10:00 0.0
2018_01_14_S7 01/13/2018 18:15:00 0.0
2018_01_14_S7 01/13/2018 18:20:00 0.0
2018_01_14_S7 01/13/2018 18:25:00 0.0
2018_01_14_S7 01/13/2018 18:30:00 0.0
2018_01_14_S7 01/13/2018 18:35:00 0.0
2018_01_14_S7 01/13/2018 18:40:00 0.0
2018_01_14_S7 01/13/2018 18:45:00 0.0
2018_01_14_S7 01/13/2018 18:50:00 0.0
2018_01_14_S7 01/13/2018 18:55:00 0.0
2018_01_14_S7 01/13/2018 19:00:00 0.0
2018_01_14_S7 01/13/2018 19:05:00 0.0
2018_01_14_S7 01/13/2018 19:10:00 0.0
2018_01_14_S7 01/13/2018 19:15:00 0.0
2018_01_14_S7 01/13/2018 19:20:00 0.0
2018_01_14_S7 01/13/2018 19:25:00 0.0
2018_01_14_S7 01/13/2018 19:30:00 0.0
2018_01_14_S7 01/13/2018 19:35:00 0.0
2018_01_14_S7 01/13/2018 19:40:00 0.0
2018_01_14_S7 01/13/2018 19:45:00 0.0
2018_01_14_S7 01/13/2018 19:50:00 0.0
2018_01_14_S7 01/13/2018 19:55:00 0.0
2018_01_14_S7 01/13/2018 20:00:00 0.0
2018_01_14_S7 01/13/2018 20:05:00 0.0
2018_01_14_S7 01/13/2018 20:10:00 0.0
2018_01_14_S7 01/13/2018 20:15:00 0.0
2018_01_14_S7 01/13/2018 20:20:00 0.0
2018_01_14_S7 01/13/2018 20:25:00 0.0
2018_01_14_S7 01/13/2018 20:30:00 0.0
2018_01_14_S7 01/13/2018 20:35:00 0.0
2018_01_14_S7 01/13/2018 20:40:00 0.0
2018_01_14_S7 01/13/2018 20:45:00 0.0
2018_01_14_S7 01/13/2018 20:50:00 0.0
2018_01_14_S7 01/13/2018 20:55:00 0.0
2018_01_14_S7 01/13/2018 21:00:00 0.0
2018_01_14_S7 01/13/2018 21:05:00 0.0
2018_01_14_S7 01/13/2018 21:10:00 0.0
2018_01_14_S7 01/13/2018 21:15:00 0.0
2018_01_14_S7 01/13/2018 21:20:00 0.0
2018_01_14_S7 01/13/2018 21:25:00 0.0
2018_01_14_S7 01/13/2018 21:30:00 0.0
2018_01_14_S7 01/13/2018 21:35:00 0.0
2018_01_14_S7 01/13/2018 21:40:00 0.0
2018_01_14_S7 01/13/2018 21:45:00 0.0
2018_01_14_S7 01/13/2018 21:50:00 0.0
2018_01_14_S7 01/13/2018 21:55:00 0.0
2018_01_14_S7 01/13/2018 22:00:00 0.0
2018_01_14_S7 01/13/2018 22:05:00 0.0
2018_01_14_S7 01/13/2018 22:10:00 0.0
2018_01_14_S7 01/13/2018 22:15:00 0.0
2018_01_14_S7 01/13/2018 22:20:00 0.0
2018_01_14_S7 01/13/2018 22:25:00 0.0
2018_01_14_S7 01/13/2018 22:30:00 0.0
2018_01_14_S7 01/13/2018 22:35:00 0.0
2018_01_14_S7 01/13/2018 22:40:00 0.0
2018_01_14_S7 01/13/2018 22:45:00 0.0
2018_01_14_S7 01/13/2018 22:50:00 0.0
2018_01_14_S7 01/13/2018 22:55:00 0.0
2018_01_14_S7 01/13/2018 23:00:00 0.0
2018_01_14_S7 01/13/2018 23:05:00 0.0
2018_01_14_S7 01/13/2018 23:10:00 0.0
2018_01_14_S7 01/13/2018 23:15:00 0.0
2018_01_14_S7 01/13/2018 23:20:00 0.0
2018_01_14_S7 01/13/2018 23:25:00 0.0
2018_01_14_S7 01/13/2018 23:30:00 0.0
2018_01_14_S7 01/13/2018 23:35:00 0.0
2018_01_14_S7 01/13/2018 23:40:00 0.0
2018_01_14_S7 01/13/2018 23:45:00 0.0
2018_01_14_S7 01/13/2018 23:50:00 0.0
2018_01_14_S7 01/13/2018 23:55:00 0.0
2018_01_14_S7 01/14/2018 00:00:00 0.0
2018_01_14_S7 01/14/2018 00:05:00 0.0
2018_01_14_S7 01/14/2018 00:10:00 0.0
2018_01_14_S7 01/14/2018 00:15:00 0.0
2018_01_14_S7 01/14/2018 00:20:00 0.0
2018_01_14_S7 01/14/2018 00:25:00 0.0
2018_01_14_S7 01/14/2018 00:30:00 0.0
2018_01_14_S7 01/14/2018 00:35:00 0.0
2018_01_14_S7 01/14/2018 00:40:00 0.0
2018_01_14_S7 01/14/2018 00:45:00 0.0
2018_01_14_S7 01/14/2018 00:50:00 0.0
2018_01_14_S7 01/14/2018 00:55:00 0.0
2018_01_14_S7 01/14/2018 01:00:00 0.0
2018_01_14_S7 01/14/2018 01:05:00 0.0
2018_01_14_S7 01/14/2018 01:10:00 0.0
2018_01_14_S7 01/14/2018 01:15:00 0.0
2018_01_14_S7 01/14/2018 01:20:00 0.0
2018_01_14_S7 01/14/2018 01:25:00 0.0
2018_01_14_S7 01/14/2018 01:30:00 0.0
2018_01_14_S7 01/14/2018 01:35:00 0.0
2018_01_14_S7 01/14/2018 01:40:00 0.0
2018_01_14_S7 01/14/2018 01:45:00 0.0
2018_01_14_S7 01/14/2018 01:50:00 0.0
2018_01_14_S7 01/14/2018 01:55:00 0.0
2018_01_14_S7 01/14/2018 02:00:00 0.0
2018_01_14_S7 01/14/2018 02:05:00 0.0
2018_01_14_S7 01/14/2018 02:10:00 0.0
2018_01_14_S7 01/14/2018 02:15:00 0.0
2018_01_14_S7 01/14/2018 02:20:00 0.0
2018_01_14_S7 01/14/2018 02:25:00 0.0
2018_01_14_S7 01/14/2018 02:30:00 0.0
2018_01_14_S7 01/14/2018 02:35:00 0.0
2018_01_14_S7 01/14/2018 02:40:00 0.0
2018_01_14_S7 01/14/2018 02:45:00 0.0
2018_01_14_S7 01/14/2018 02:50:00 0.0
2018_01_14_S7 01/14/2018 02:55:00 0.0
2018_01_14_S7 01/14/2018 03:00:00 0.0074
2018_01_14_S7 01/14/2018 03:05:00 0.0283
2018_01_14_S7 01/14/2018 03:10:00 0.0131
2018_01_14_S7 01/14/2018 03:15:00 0.0
2018_01_14_S7 01/14/2018 03:20:00 0.0
2018_01_14_S7 01/14/2018 03:25:00 0.0
2018_01_14_S7 01/14/2018 03:30:00 0.0
2018_01_14_S7 01/14/2018 03:35:00 0.0
2018_01_14_S7 01/14/2018 03:40:00 0.0
2018_01_14_S7 01/14/2018 03:45:00 0.0
2018_01_14_S7 01/14/2018 03:50:00 0.0
2018_01_14_S7 01/14/2018 03:55:00 0.0
2018_01_14_S7 01/14/2018 04:00:00 0.0
2018_01_14_S7 01/14/2018 04:05:00 0.0
2018_01_14_S7 01/14/2018 04:10:00 0.0
2018_01_14_S7 01/14/2018 04:15:00 0.0
2018_01_14_S7 01/14/2018 04:20:00 0.0
2018_01_14_S7 01/14/2018 04:25:00 0.0
2018_01_14_S7 01/14/2018 04:30:00 0.0
2018_01_14_S7 01/14/2018 04:35:00 0.0
2018_01_14_S7 01/14/2018 04:40:00 0.0
2018_01_14_S7 01/14/2018 04:45:00 0.0
2018_01_14_S7 01/14/2018 04:50:00 0.0
2018_01_14_S7 01/14/2018 04:55:00 0.0
2018_01_14_S7 01/14/2018 05:00:00 0.0014
2018_01_14_S7 01/14/2018 05:05:00 0.0049
2018_01_14_S7 01/14/2018 05:10:00 0.0018
2018_01_14_S7 01/14/2018 05:15:00 0.0
2018_01_14_S7 01/14/2018 05:20:00 0.0
2018_01_14_S7 01/14/2018 05:25:00 0.0
2018_01_14_S7 01/14/2018 05:30:00 0.0
2018_01_14_S7 01/14/2018 05:35:00 0.0
2018_01_14_S7 01/14/2018 05:40:00 0.0
2018_01_14_S7 01/14/2018 05:45:00 0.0
2018_01_14_S7 01/14/2018 05:50:00 0.0
2018_01_14_S7 01/14/2018 05:55:00 0.2802
2018_01_14_S7 01/14/2018 06:00:00 0.7017
2018_01_14_S7 01/14/2018 06:05:00 1.9755
2018_01_14_S7 01/14/2018 06:10:00 0.0222
2018_01_14_S7 01/14/2018 06:15:00 0.0
2018_01_14_S7 01/14/2018 06:20:00 0.1869
2018_01_14_S7 01/14/2018 06:25:00 0.2413
2018_01_14_S7 01/14/2018 06:30:00 0.0
2018_01_14_S7 01/14/2018 06:35:00 0.0
2018_01_14_S7 01/14/2018 06:40:00 0.0
2018_01_14_S7 01/14/2018 06:45:00 0.0
2018_01_14_S7 01/14/2018 06:50:00 0.0
2018_01_14_S7 01/14/2018 06:55:00 0.0
2018_01_14_S7 01/14/2018 07:00:00 0.0
2018_01_14_S7 01/14/2018 07:05:00 0.0
2018_01_14_S7 01/14/2018 07:10:00 0.0
2018_01_14_S7 01/14/2018 07:15:00 0.0
2018_01_14_S7 01/14/2018 07:20:00 0.0
2018_01_14_S7 01/14/2018 07:25:00 0.0
2018_01_14_S7 01/14/2018 07:30:00 0.0
2018_01_14_S7 01/14/2018 07:35:00 0.0
2018_01_14_S7 01/14/2018 07:40:00 0.0
2018_01_14_S7 01/14/2018 07:45:00 0.0
2018_01_14_S7 01/14/2018 07:50:00 0.0214
2018_01_14_S7 01/14/2018 07:55:00 0.0012
2018_01_14_S7 01/14/2018 08:00:00 0.0
2018_01_14_S7 01/14/2018 08:05:00 0.0
2018_01_14_S7 01/14/2018 08:10:00 0.0
2018_01_14_S7 01/14/2018 08:15:00 0.0
2018_01_14_S7 01/14/2018 08:20:00 0.0
2018_01_14_S7 01/14/2018 08:25:00 0.0045
2018_01_14_S7 01/14/2018 08:30:00 0.0036
2018_01_14_S7 01/14/2018 08:35:00 0.0935
2018_01_14_S7 01/14/2018 08:40:00 0.0151
2018_01_14_S7 01/14/2018 08:45:00 0.0
2018_01_14_S7 01/14/2018 08:50:00 0.0
2018_01_14_S7 01/14/2018 08:55:00 0.0
2018_01_14_S7 01/14/2018 09:00:00 0.0
2018_01_14_S7 01/14/2018 09:05:00 0.0
2018_01_14_S7 01/14/2018 09:10:00 0.0
2018_01_14_S7 01/14/2018 09:15:00 0.0
2018_01_14_S7 01/14/2018 09:20:00 0.0
2018_01_14_S7 01/14/2018 09:25:00 0.0
2018_01_14_S7 01/14/2018 09:30:00 0.0
2018_01_14_S7 01/14/2018 09:35:00 0.0
2018_01_14_S7 01/14/2018 09:40:00 0.0
2018_01_14_S7 01/14/2018 09:45:00 0.0
2018_01_14_S7 01/14/2018 09:50:00 0.0
2018_01_14_S7 01/14/2018 09:55:00 0.0
2018_01_14_S7 01/14/2018 10:00:00 0.0
2018_01_14_S7 01/14/2018 10:05:00 0.0
2018_01_14_S7 01/14/2018 10:10:00 0.0
2018_01_14_S7 01/14/2018 10:15:00 0.0
2018_01_14_S7 01/14/2018 10:20:00 0.0
2018_01_14_S7 01/14/2018 10:25:00 0.0
2018_01_14_S7 01/14/2018 10:30:00 0.0
2018_01_14_S7 01/14/2018 10:35:00 0.0
2018_01_14_S7 01/14/2018 10:40:00 0.0
2018_01_14_S7 01/14/2018 10:45:00 0.0
2018_01_14_S7 01/14/2018 10:50:00 0.0
2018_01_14_S7 01/14/2018 10:55:00 0.0
2018_01_14_S7 01/14/2018 11:00:00 0.0
2018_01_14_S7 01/14/2018 11:05:00 0.0
2018_01_14_S7 01/14/2018 11:10:00 0.0
2018_01_14_S7 01/14/2018 11:15:00 0.0
2018_01_14_S7 01/14/2018 11:20:00 0.0
2018_01_14_S7 01/14/2018 11:25:00 0.0
2018_01_14_S7 01/14/2018 11:30:00 0.0
2018_01_14_S7 01/14/2018 11:35:00 0.0
2018_01_14_S7 01/14/2018 11:40:00 0.0
2018_01_14_S7 01/14/2018 11:45:00 0.0
2018_01_14_S7 01/14/2018 11:50:00 0.0
2018_01_14_S7 01/14/2018 11:55:00 0.0
2018_01_14_S7 01/14/2018 12:00:00 0.0
2018_01_14_S7 01/14/2018 12:05:00 0.0
2018_01_14_S7 01/14/2018 12:10:00 0.0
2018_01_14_S7 01/14/2018 12:15:00 0.0
2018_01_14_S7 01/14/2018 12:20:00 0.0
2018_01_14_S7 01/14/2018 12:25:00 0.0
2018_01_14_S7 01/14/2018 12:30:00 0.0
2018_01_14_S7 01/14/2018 12:35:00 0.0
2018_01_14_S7 01/14/2018 12:40:00 0.0
2018_01_14_S7 01/14/2018 12:45:00 0.0
2018_01_14_S7 01/14/2018 12:50:00 0.0
2018_01_14_S7 01/14/2018 12:55:00 0.0
2018_01_14_S7 01/14/2018 13:00:00 0.0
2018_01_14_S7 01/14/2018 13:05:00 0.0
2018_01_14_S7 01/14/2018 13:10:00 0.0
2018_01_14_S7 01/14/2018 13:15:00 0.0
2018_01_14_S7 01/14/2018 13:20:00 0.0
2018_01_14_S7 01/14/2018 13:25:00 0.0
2018_01_14_S7 01/14/2018 13:30:00 0.0
2018_01_14_S7 01/14/2018 13:35:00 0.0
2018_01_14_S7 01/14/2018 13:40:00 0.0
2018_01_14_S7 01/14/2018 13:45:00 0.0
2018_01_14_S7 01/14/2018 13:50:00 0.0
2018_01_14_S7 01/14/2018 13:55:00 0.0
2018_01_14_S7 01/14/2018 14:00:00 0.0
2018_01_14_S7 01/14/2018 14:05:00 0.0
2018_01_14_S7 01/14/2018 14:10:00 0.0
2018_01_14_S7 01/14/2018 14:15:00 0.0
2018_01_14_S7 01/14/2018 14:20:00 0.0
2018_01_14_S7 01/14/2018 14:25:00 0.0
2018_01_14_S7 01/14/2018 14:30:00 0.0
2018_01_14_S7 01/14/2018 14:35:00 0.0
2018_01_14_S7 01/14/2018 14:40:00 0.0
2018_01_14_S7 01/14/2018 14:45:00 0.0
2018_01_14_S7 01/14/2018 14:50:00 0.0
2018_01_14_S7 01/14/2018 14:55:00 0.0
2018_01_14_S7 01/14/2018 15:00:00 0.0
2018_01_14_S7 01/14/2018 15:05:00 0.0
2018_01_14_S7 01/14/2018 15:10:00 0.0
2018_01_14_S7 01/14/2018 15:15:00 0.0
2018_01_14_S7 01/14/2018 15:20:00 0.0
2018_01_14_S7 01/14/2018 15:25:00 0.0
2018_01_14_S7 01/14/2018 15:30:00 0.0
2018_01_14_S7 01/14/2018 15:35:00 0.0
2018_01_14_S7 01/14/2018 15:40:00 0.0
2018_01_14_S7 01/14/2018 15:45:00 0.0
2018_01_14_S7 01/14/2018 15:50:00 0.0
2018_01_14_S7 01/14/2018 15:55:00 0.0
2018_01_14_S7 01/14/2018 16:00:00 0.0
2018_01_14_S7 01/14/2018 16:05:00 0.0
2018_01_14_S7 01/14/2018 16:10:00 0.0
2018_01_14_S7 01/14/2018 16:15:00 0.0
2018_01_14_S7 01/14/2018 16:20:00 0.0
2018_01_14_S7 01/14/2018 16:25:00 0.0
2018_01_14_S7 01/14/2018 16:30:00 0.0
2018_01_14_S7 01/14/2018 16:35:00 0.0
2018_01_14_S7 01/14/2018 16:40:00 0.0128
2018_01_14_S7 01/14/2018 16:45:00 0.0219
2018_01_14_S7 01/14/2018 16:50:00 0.0956
2018_01_14_S7 01/14/2018 16:55:00 0.0449
2018_01_14_S7 01/14/2018 17:00:00 0.0003
2018_01_14_S7 01/14/2018 17:05:00 0.0109
2018_01_14_S7 01/14/2018 17:10:00 0.344
2018_01_14_S7 01/14/2018 17:15:00 0.0133
2018_01_14_S7 01/14/2018 17:20:00 0.0
2018_01_14_S7 01/14/2018 17:25:00 0.0
2018_01_14_S7 01/14/2018 17:30:00 0.0
2018_01_14_S7 01/14/2018 17:35:00 0.1573
2018_01_14_S7 01/14/2018 17:40:00 0.0647
2018_01_14_S7 01/14/2018 17:45:00 0.5643
2018_01_14_S7 01/14/2018 17:50:00 0.2685
2018_01_14_S7 01/14/2018 17:55:00 0.1996
2018_01_14_S7 01/14/2018 18:00:00 0.5314
2018_01_14_S7 01/14/2018 18:05:00 0.1929
2018_01_14_S7 01/14/2018 18:10:00 0.696
2018_01_14_S7 01/14/2018 18:15:00 0.4459
2018_01_14_S7 01/14/2018 18:20:00 2.7227
2018_01_14_S7 01/14/2018 18:25:00 1.3473
2018_01_14_S7 01/14/2018 18:30:00 0.0921
2018_01_14_S7 01/14/2018 18:35:00 0.0095
2018_01_14_S7 01/14/2018 18:40:00 0.0
2018_01_14_S7 01/14/2018 18:45:00 0.6582
2018_01_14_S7 01/14/2018 18:50:00 2.383
2018_01_14_S7 01/14/2018 18:55:00 0.0132
2018_01_14_S7 01/14/2018 19:00:00 0.4288
2018_01_14_S7 01/14/2018 19:05:00 0.0
2018_01_14_S7 01/14/2018 19:10:00 0.0
2018_01_14_S7 01/14/2018 19:15:00 0.0
2018_01_14_S7 01/14/2018 19:20:00 0.0
2018_01_14_S7 01/14/2018 19:25:00 0.0
2018_01_14_S7 01/14/2018 19:30:00 0.0
2018_01_14_S7 01/14/2018 19:35:00 0.0
2018_01_14_S7 01/14/2018 19:40:00 0.0
2018_01_14_S7 01/14/2018 19:45:00 0.0
2018_01_14_S7 01/14/2018 19:50:00 0.0
2018_01_14_S7 01/14/2018 19:55:00 0.0
2018_01_14_S7 01/14/2018 20:00:00 0.0
2018_01_14_S7 01/14/2018 20:05:00 0.0
2018_01_14_S7 01/14/2018 20:10:00 0.0
2018_01_14_S7 01/14/2018 20:15:00 0.0
2018_01_14_S7 01/14/2018 20:20:00 0.0
2018_01_14_S7 01/14/2018 20:25:00 0.0
2018_01_14_S7 01/14/2018 20:30:00 0.0
2018_01_14_S7 01/14/2018 20:35:00 0.0
2018_01_14_S7 01/14/2018 20:40:00 0.0
2018_01_14_S7 01/14/2018 20:45:00 0.0
2018_01_14_S7 01/14/2018 20:50:00 0.0
2018_01_14_S7 01/14/2018 20:55:00 0.0
2018_01_14_S7 01/14/2018 21:00:00 0.0
2018_01_14_S7 01/14/2018 21:05:00 0.0
2018_01_14_S7 01/14/2018 21:10:00 0.0
2018_01_14_S7 01/14/2018 21:15:00 0.0
2018_01_14_S7 01/14/2018 21:20:00 0.0
2018_01_14_S7 01/14/2018 21:25:00 0.0
2018_01_14_S7 01/14/2018 21:30:00 0.0
2018_01_14_S7 01/14/2018 21:35:00 0.0
2018_01_14_S7 01/14/2018 21:40:00 0.0
2018_01_14_S7 01/14/2018 21:45:00 0.0
2018_01_14_S7 01/14/2018 21:50:00 0.0
2018_01_14_S7 01/14/2018 21:55:00 0.0
2018_01_14_S7 01/14/2018 22:00:00 0.0
2018_01_14_S7 01/14/2018 22:05:00 0.0
2018_01_14_S7 01/14/2018 22:10:00 0.0
2018_01_14_S7 01/14/2018 22:15:00 0.0
2018_01_14_S7 01/14/2018 22:20:00 0.0
2018_01_14_S7 01/14/2018 22:25:00 0.0
2018_01_14_S7 01/14/2018 22:30:00 0.0
2018_01_14_S7 01/14/2018 22:35:00 0.0
2018_01_14_S7 01/14/2018 22:40:00 0.0066
2018_01_14_S7 01/14/2018 22:45:00 0.0
2018_01_14_S7 01/14/2018 22:50:00 0.0
2018_01_14_S7 01/14/2018 22:55:00 0.0526
2018_01_14_S7 01/14/2018 23:00:00 0.0093
2018_01_14_S7 01/14/2018 23:05:00 0.0
2018_01_14_S7 01/14/2018 23:10:00 0.0203
2018_01_14_S7 01/14/2018 23:15:00 0.0041
2018_01_14_S7 01/14/2018 23:20:00 0.006
2018_01_14_S7 01/14/2018 23:25:00 0.0
2018_01_14_S7 01/14/2018 23:30:00 0.0
2018_01_14_S7 01/14/2018 23:35:00 0.0
2018_01_14_S7 01/14/2018 23:40:00 0.0
2018_01_14_S7 01/14/2018 23:45:00 0.0
2018_01_14_S7 01/14/2018 23:50:00 0.0
2018_01_14_S7 01/14/2018 23:55:00 0.0
2018_01_14_S7 01/15/2018 00:00:00 0.0
2018_01_14_S7 01/15/2018 00:05:00 0.0
2018_01_14_S7 01/15/2018 00:10:00 0.0
2018_01_14_S7 01/15/2018 00:15:00 0.0
2018_01_14_S7 01/15/2018 00:20:00 0.0
2018_01_14_S7 01/15/2018 00:25:00 0.0
2018_01_14_S7 01/15/2018 00:30:00 0.0
2018_01_14_S7 01/15/2018 00:35:00 0.0
2018_01_14_S7 01/15/2018 00:40:00 0.0
2018_01_14_S7 01/15/2018 00:45:00 0.0
2018_01_14_S7 01/15/2018 00:50:00 0.0
2018_01_14_S7 01/15/2018 00:55:00 0.0
2018_01_14_S7 01/15/2018 01:00:00 0.0
2018_01_14_S7 01/15/2018 01:05:00 0.0
2018_01_14_S7 01/15/2018 01:10:00 0.0
2018_01_14_S7 01/15/2018 01:15:00 0.0
2018_01_14_S7 01/15/2018 01:20:00 0.0
2018_01_14_S7 01/15/2018 01:25:00 0.0
2018_01_14_S7 01/15/2018 01:30:00 0.0
2018_01_14_S7 01/15/2018 01:35:00 0.0
2018_01_14_S7 01/15/2018 01:40:00 0.0
2018_01_14_S7 01/15/2018 01:45:00 0.0
2018_01_14_S7 01/15/2018 01:50:00 0.0
2018_01_14_S7 01/15/2018 01:55:00 0.0
2018_01_14_S7 01/15/2018 02:00:00 0.0
2018_01_14_S7 01/15/2018 02:05:00 0.0
2018_01_14_S7 01/15/2018 02:10:00 0.0
2018_01_14_S7 01/15/2018 02:15:00 0.0
2018_01_14_S7 01/15/2018 02:20:00 0.0
2018_01_14_S7 01/15/2018 02:25:00 0.0495
2018_01_14_S7 01/15/2018 02:30:00 0.0091
2018_01_14_S7 01/15/2018 02:35:00 0.0154
2018_01_14_S7 01/15/2018 02:40:00 0.2459
2018_01_14_S7 01/15/2018 02:45:00 0.3864
2018_01_14_S7 01/15/2018 02:50:00 0.0221
2018_01_14_S7 01/15/2018 02:55:00 0.0042
2018_01_14_S7 01/15/2018 03:00:00 0.0078
2018_01_14_S7 01/15/2018 03:05:00 0.0
2018_01_14_S7 01/15/2018 03:10:00 0.0
2018_01_14_S7 01/15/2018 03:15:00 0.0
2018_01_14_S7 01/15/2018 03:20:00 0.0
2018_01_14_S7 01/15/2018 03:25:00 0.0
2018_01_14_S7 01/15/2018 03:30:00 0.0
2018_01_14_S7 01/15/2018 03:35:00 0.0
2018_01_14_S7 01/15/2018 03:40:00 0.0
2018_01_14_S7 01/15/2018 03:45:00 0.0
2018_01_14_S7 01/15/2018 03:50:00 0.0
2018_01_14_S7 01/15/2018 03:55:00 0.0
2018_01_14_S7 01/15/2018 04:00:00 0.0
2018_01_14_S7 01/15/2018 04:05:00 0.0
2018_01_14_S7 01/15/2018 04:10:00 0.0
2018_01_14_S7 01/15/2018 04:15:00 0.0
2018_01_14_S7 01/15/2018 04:20:00 0.0
2018_01_14_S7 01/15/2018 04:25:00 0.0
2018_01_14_S7 01/15/2018 04:30:00 0.0
2018_01_14_S7 01/15/2018 04:35:00 0.0
2018_01_14_S7 01/15/2018 04:40:00 0.0
2018_01_14_S7 01/15/2018 04:45:00 0.0
2018_01_14_S7 01/15/2018 04:50:00 0.0
2018_01_14_S7 01/15/2018 04:55:00 0.0
2018_01_14_S7 01/15/2018 05:00:00 0.0
2018_01_14_S7 01/15/2018 05:05:00 0.0
2018_01_14_S7 01/15/2018 05:10:00 0.0
2018_01_14_S7 01/15/2018 05:15:00 0.0
2018_01_14_S7 01/15/2018 05:20:00 0.0
2018_01_14_S7 01/15/2018 05:25:00 0.0
2018_01_14_S7 01/15/2018 05:30:00 0.0
2018_01_14_S7 01/15/2018 05:35:00 0.0
2018_01_14_S7 01/15/2018 05:40:00 0.0
2018_01_14_S7 01/15/2018 05:45:00 0.0
2018_01_14_S7 01/15/2018 05:50:00 0.0
2018_01_14_S7 01/15/2018 05:55:00 0.0
2018_01_14_S7 01/15/2018 06:00:00 0.0
2018_01_14_S7 01/15/2018 06:05:00 0.0
2018_01_14_S7 01/15/2018 06:10:00 0.0
2018_01_14_S7 01/15/2018 06:15:00 0.0
2018_01_14_S7 01/15/2018 06:20:00 0.0484
2018_01_14_S7 01/15/2018 06:25:00 0.0033
2018_01_14_S7 01/15/2018 06:30:00 0.0
2018_01_14_S7 01/15/2018 06:35:00 0.0
2018_01_14_S7 01/15/2018 06:40:00 0.0
2018_01_14_S7 01/15/2018 06:45:00 0.0
2018_01_14_S7 01/15/2018 06:50:00 0.0
2018_01_14_S7 01/15/2018 06:55:00 0.0
2018_01_14_S7 01/15/2018 07:00:00 0.0
2018_01_14_S7 01/15/2018 07:05:00 0.0
2018_01_14_S7 01/15/2018 07:10:00 0.0
2018_01_14_S7 01/15/2018 07:15:00 0.0
2018_01_14_S7 01/15/2018 07:20:00 0.0035
2018_01_14_S7 01/15/2018 07:25:00 0.0192
2018_01_14_S7 01/15/2018 07:30:00 0.0
2018_01_14_S7 01/15/2018 07:35:00 0.0
2018_01_14_S7 01/15/2018 07:40:00 0.0
2018_01_14_S7 01/15/2018 07:45:00 0.0
2018_01_14_S7 01/15/2018 07:50:00 0.0
2018_01_14_S7 01/15/2018 07:55:00 0.0
2018_01_14_S7 01/15/2018 08:00:00 0.0

2018_01_14_S8 01/13/2018 08:00:00 0.0
2018_01_14_S8 01/13/2018 08:05:00 0.0
2018_01_14_S8 01/13/2018 08:10:00 0.0
2018_01_14_S8 01/13/2018 08:15:00 0.0
2018_01_14_S8 01/13/2018 08:20:00 0.0
2018_01_14_S8 01/13/2018 08:25:00 0.0
2018_01_14_S8 01/13/2018 08:30:00 0.0
2018_01_14_S8 01/13/2018 08:35:00 0.0
2018_01_14_S8 01/13/2018 08:40:00 0.0
2018_01_14_S8 01/13/2018 08:45:00 0.0
2018_01_14_S8 01/13/2018 08:50:00 0.0
2018_01_14_S8 01/13/2018 08:55:00 0.0
2018_01_14_S8 01/13/2018 09:00:00 0.0
2018_01_14_S8 01/13/2018 09:05:00 0.0
2018_01_14_S8 01/13/2018 09:10:00 0.0
2018_01_14_S8 01/13/2018 09:15:00 0.0
2018_01_14_S8 01/13/2018 09:20:00 0.0
2018_01_14_S8 01/13/2018 09:25:00 0.0
2018_01_14_S8 01/13/2018 09:30:00 0.0
2018_01_14_S8 01/13/2018 09:35:00 0.0
2018_01_14_S8 01/13/2018 09:40:00 0.0
2018_01_14_S8 01/13/2018 09:45:00 0.0
2018_01_14_S8 01/13/2018 09:50:00 0.0
2018_01_14_S8 01/13/2018 09:55:00 0.0
2018_01_14_S8 01/13/2018 10:00:00 0.0
2018_01_14_S8 01/13/2018 10:05:00 0.0
2018_01_14_S8 01/13/2018 10:10:00 0.0
2018_01_14_S8 01/13/2018 10:15:00 0.0
2018_01_14_S8 01/13/2018 10:20:00 0.0
2018_01_14_S8 01/13/2018 10:25:00 0.0
2018_01_14_S8 01/13/2018 10:30:00 0.0
2018_01_14_S8 01/13/2018 10:35:00 0.0
2018_01_14_S8 01/13/2018 10:40:00 0.0
2018_01_14_S8 01/13/2018 10:45:00 0.0
2018_01_14_S8 01/13/2018 10:50:00 0.0
2018_01_14_S8 01/13/2018 10:55:00 0.0
2018_01_14_S8 01/13/2018 11:00:00 0.0
2018_01_14_S8 01/13/2018 11:05:00 0.0
2018_01_14_S8 01/13/2018 11:10:00 0.0
2018_01_14_S8 01/13/2018 11:15:00 0.0
2018_01_14_S8 01/13/2018 11:20:00 0.0
2018_01_14_S8 01/13/2018 11:25:00 0.0
2018_01_14_S8 01/13/2018 11:30:00 0.0
2018_01_14_S8 01/13/2018 11:35:00 0.0
2018_01_14_S8 01/13/2018 11:40:00 0.0
2018_01_14_S8 01/13/2018 11:45:00 0.0
2018_01_14_S8 01/13/2018 11:50:00 0.0
2018_01_14_S8 01/13/2018 11:55:00 0.0
2018_01_14_S8 01/13/2018 12:00:00 0.0
2018_01_14_S8 01/13/2018 12:05:00 0.0
2018_01_14_S8 01/13/2018 12:10:00 0.0
2018_01_14_S8 01/13/2018 12:15:00 0.0
2018_01_14_S8 01/13/2018 12:20:00 0.0
2018_01_14_S8 01/13/2018 12:25:00 0.0
2018_01_14_S8 01/13/2018 12:30:00 0.0
2018_01_14_S8 01/13/2018 12:35:00 0.0
2018_01_14_S8 01/13/2018 12:40:00 0.0
2018_01_14_S8 01/13/2018 12:45:00 0.0
2018_01_14_S8 01/13/2018 12:50:00 0.0
2018_01_14_S8 01/13/2018 12:55:00 0.0
2018_01_14_S8 01/13/2018 13:00:00 0.0
2018_01_14_S8 01/13/2018 13:05:00 0.0
2018_01_14_S8 01/13/2018 13:10:00 0.0
2018_01_14_S8 01/13/2018 13:15:00 0.0
2018_01_14_S8 01/13/2018 13:20:00 0.0
2018_01_14_S8 01/13/2018 13:25:00 0.0
2018_01_14_S8 01/13/2018 13:30:00 0.0
2018_01_14_S8 01/13/2018 13:35:00 0.0
2018_01_14_S8 01/13/2018 13:40:00 0.0
2018_01_14_S8 01/13/2018 13:45:00 0.0
2018_01_14_S8 01/13/2018 13:50:00 0.0
2018_01_14_S8 01/13/2018 13:55:00 0.0
2018_01_14_S8 01/13/2018 14:00:00 0.0
2018_01_14_S8 01/13/2018 14:05:00 0.0
2018_01_14_S8 01/13/2018 14:10:00 0.0
2018_01_14_S8 01/13/2018 14:15:00 0.0
2018_01_14_S8 01/13/2018 14:20:00 0.0
2018_01_14_S8 01/13/2018 14:25:00 0.0
2018_01_14_S8 01/13/2018 14:30:00 0.0
2018_01_14_S8 01/13/2018 14:35:00 0.0
2018_01_14_S8 01/13/2018 14:40:00 0.0
2018_01_14_S8 01/13/2018 14:45:00 0.0
2018_01_14_S8 01/13/2018 14:50:00 0.0
2018_01_14_S8 01/13/2018 14:55:00 0.0
2018_01_14_S8 01/13/2018 15:00:00 0.0
2018_01_14_S8 01/13/2018 15:05:00 0.0
2018_01_14_S8 01/13/2018 15:10:00 0.0
2018_01_14_S8 01/13/2018 15:15:00 0.0
2018_01_14_S8 01/13/2018 15:20:00 0.0
2018_01_14_S8 01/13/2018 15:25:00 0.0
2018_01_14_S8 01/13/2018 15:30:00 0.0
2018_01_14_S8 01/13/2018 15:35:00 0.0
2018_01_14_S8 01/13/2018 15:40:00 0.0
2018_01_14_S8 01/13/2018 15:45:00 0.0
2018_01_14_S8 01/13/2018 15:50:00 0.0
2018_01_14_S8 01/13/2018 15:55:00 0.0
2018_01_14_S8 01/13/2018 16:00:00 0.0
2018_01_14_S8 01/13/2018 16:05:00 0.0
2018_01_14_S8 01/13/2018 16:10:00 0.0
2018_01_14_S8 01/13/2018 16:15:00 0.0
2018_01_14_S8 01/13/2018 16:20:00 0.0
2018_01_14_S8 01/13/2018 16:25:00 0.0
2018_01_14_S8 01/13/2018 16:30:00 0.0
2018_01_14_S8 01/13/2018 16:35:00 0.0
2018_01_14_S8 01/13/2018 16:40:00 0.0
2018_01_14_S8 01/13/2018 16:45:00 0.0
2018_01_14_S8 01/13/2018 16:50:00 0.0
2018_01_14_S8 01/13/2018 16:55:00 0.0
2018_01_14_S8 01/13/2018 17:00:00 0.0
2018_01_14_S8 01/13/2018 17:05:00 0.0
2018_01_14_S8 01/13/2018 17:10:00 0.0
2018_01_14_S8 01/13/2018 17:15:00 0.0
2018_01_14_S8 01/13/2018 17:20:00 0.0
2018_01_14_S8 01/13/2018 17:25:00 0.0
2018_01_14_S8 01/13/2018 17:30:00 0.0
2018_01_14_S8 01/13/2018 17:35:00 0.0
2018_01_14_S8 01/13/2018 17:40:00 0.0
2018_01_14_S8 01/13/2018 17:45:00 0.0
2018_01_14_S8 01/13/2018 17:50:00 0.0
2018_01_14_S8 01/13/2018 17:55:00 0.0
2018_01_14_S8 01/13/2018 18:00:00 0.0
2018_01_14_S8 01/13/2018 18:05:00 0.0
2018_01_14_S8 01/13/2018 18:10:00 0.0
2018_01_14_S8 01/13/2018 18:15:00 0.0
2018_01_14_S8 01/13/2018 18:20:00 0.0
2018_01_14_S8 01/13/2018 18:25:00 0.0
2018_01_14_S8 01/13/2018 18:30:00 0.0
2018_01_14_S8 01/13/2018 18:35:00 0.0
2018_01_14_S8 01/13/2018 18:40:00 0.0
2018_01_14_S8 01/13/2018 18:45:00 0.0
2018_01_14_S8 01/13/2018 18:50:00 0.0
2018_01_14_S8 01/13/2018 18:55:00 0.0
2018_01_14_S8 01/13/2018 19:00:00 0.0
2018_01_14_S8 01/13/2018 19:05:00 0.0
2018_01_14_S8 01/13/2018 19:10:00 0.0
2018_01_14_S8 01/13/2018 19:15:00 0.0
2018_01_14_S8 01/13/2018 19:20:00 0.0
2018_01_14_S8 01/13/2018 19:25:00 0.0
2018_01_14_S8 01/13/2018 19:30:00 0.0
2018_01_14_S8 01/13/2018 19:35:00 0.0
2018_01_14_S8 01/13/2018 19:40:00 0.0
2018_01_14_S8 01/13/2018 19:45:00 0.0
2018_01_14_S8 01/13/2018 19:50:00 0.0
2018_01_14_S8 01/13/2018 19:55:00 0.0
2018_01_14_S8 01/13/2018 20:00:00 0.0
2018_01_14_S8 01/13/2018 20:05:00 0.0
2018_01_14_S8 01/13/2018 20:10:00 0.0
2018_01_14_S8 01/13/2018 20:15:00 0.0
2018_01_14_S8 01/13/2018 20:20:00 0.0
2018_01_14_S8 01/13/2018 20:25:00 0.0
2018_01_14_S8 01/13/2018 20:30:00 0.0
2018_01_14_S8 01/13/2018 20:35:00 0.0
2018_01_14_S8 01/13/2018 20:40:00 0.0
2018_01_14_S8 01/13/2018 20:45:00 0.0
2018_01_14_S8 01/13/2018 20:50:00 0.0
2018_01_14_S8 01/13/2018 20:55:00 0.0
2018_01_14_S8 01/13/2018 21:00:00 0.0
2018_01_14_S8 01/13/2018 21:05:00 0.0
2018_01_14_S8 01/13/2018 21:10:00 0.0
2018_01_14_S8 01/13/2018 21:15:00 0.0
2018_01_14_S8 01/13/2018 21:20:00 0.0
2018_01_14_S8 01/13/2018 21:25:00 0.0
2018_01_14_S8 01/13/2018 21:30:00 0.0
2018_01_14_S8 01/13/2018 21:35:00 0.0
2018_01_14_S8 01/13/2018 21:40:00 0.0
2018_01_14_S8 01/13/2018 21:45:00 0.0
2018_01_14_S8 01/13/2018 21:50:00 0.0
2018_01_14_S8 01/13/2018 21:55:00 0.0
2018_01_14_S8 01/13/2018 22:00:00 0.0
2018_01_14_S8 01/13/2018 22:05:00 0.0
2018_01_14_S8 01/13/2018 22:10:00 0.0
2018_01_14_S8 01/13/2018 22:15:00 0.0
2018_01_14_S8 01/13/2018 22:20:00 0.0
2018_01_14_S8 01/13/2018 22:25:00 0.0
2018_01_14_S8 01/13/2018 22:30:00 0.0
2018_01_14_S8 01/13/2018 22:35:00 0.0
2018_01_14_S8 01/13/2018 22:40:00 0.0
2018_01_14_S8 01/13/2018 22:45:00 0.0
2018_01_14_S8 01/13/2018 22:50:00 0.0
2018_01_14_S8 01/13/2018 22:55:00 0.0
2018_01_14_S8 01/13/2018 23:00:00 0.0
2018_01_14_S8 01/13/2018 23:05:00 0.0
2018_01_14_S8 01/13/2018 23:10:00 0.0
2018_01_14_S8 01/13/2018 23:15:00 0.0
2018_01_14_S8 01/13/2018 23:20:00 0.0
2018_01_14_S8 01/13/2018 23:25:00 0.0
2018_01_14_S8 01/13/2018 23:30:00 0.0
2018_01_14_S8 01/13/2018 23:35:00 0.0
2018_01_14_S8 01/13/2018 23:40:00 0.0
2018_01_14_S8 01/13/2018 23:45:00 0.0
2018_01_14_S8 01/13/2018 23:50:00 0.0
2018_01_14_S8 01/13/2018 23:55:00 0.0
2018_01_14_S8 01/14/2018 00:00:00 0.0
2018_01_14_S8 01/14/2018 00:05:00 0.0
2018_01_14_S8 01/14/2018 00:10:00 0.0
2018_01_14_S8 01/14/2018 00:15:00 0.0
2018_01_14_S8 01/14/2018 00:20:00 0.0
2018_01_14_S8 01/14/2018 00:25:00 0.0
2018_01_14_S8 01/14/2018 00:30:00 0.0
2018_01_14_S8 01/14/2018 00:35:00 0.0
2018_01_14_S8 01/14/2018 00:40:00 0.0
2018_01_14_S8 01/14/2018 00:45:00 0.0
2018_01_14_S8 01/14/2018 00:50:00 0.0
2018_01_14_S8 01/14/2018 00:55:00 0.0
2018_01_14_S8 01/14/2018 01:00:00 0.0
2018_01_14_S8 01/14/2018 01:05:00 0.0
2018_01_14_S8 01/14/2018 01:10:00 0.0
2018_01_14_S8 01/14/2018 01:15:00 0.0
2018_01_14_S8 01/14/2018 01:20:00 0.0
2018_01_14_S8 01/14/2018 01:25:00 0.0
2018_01_14_S8 01/14/2018 01:30:00 0.0
2018_01_14_S8 01/14/2018 01:35:00 0.0
2018_01_14_S8 01/14/2018 01:40:00 0.0
2018_01_14_S8 01/14/2018 01:45:00 0.0
2018_01_14_S8 01/14/2018 01:50:00 0.0
2018_01_14_S8 01/14/2018 01:55:00 0.0
2018_01_14_S8 01/14/2018 02:00:00 0.0
2018_01_14_S8 01/14/2018 02:05:00 0.0
2018_01_14_S8 01/14/2018 02:10:00 0.0
2018_01_14_S8 01/14/2018 02:15:00 0.0
2018_01_14_S8 01/14/2018 02:20:00 0.0
2018_01_14_S8 01/14/2018 02:25:00 0.0
2018_01_14_S8 01/14/2018 02:30:00 0.0
2018_01_14_S8 01/14/2018 02:35:00 0.0
2018_01_14_S8 01/14/2018 02:40:00 0.0
2018_01_14_S8 01/14/2018 02:45:00 0.0
2018_01_14_S8 01/14/2018 02:50:00 0.0
2018_01_14_S8 01/14/2018 02:55:00 0.0
2018_01_14_S8 01/14/2018 03:00:00 0.009
2018_01_14_S8 01/14/2018 03:05:00 0.0332
2018_01_14_S8 01/14/2018 03:10:00 0.011
2018_01_14_S8 01/14/2018 03:15:00 0.0
2018_01_14_S8 01/14/2018 03:20:00 0.0
2018_01_14_S8 01/14/2018 03:25:00 0.0
2018_01_14_S8 01/14/2018 03:30:00 0.0
2018_01_14_S8 01/14/2018 03:35:00 0.0
2018_01_14_S8 01/14/2018 03:40:00 0.0
2018_01_14_S8 01/14/2018 03:45:00 0.0
2018_01_14_S8 01/14/2018 03:50:00 0.0
2018_01_14_S8 01/14/2018 03:55:00 0.0
2018_01_14_S8 01/14/2018 04:00:00 0.0
2018_01_14_S8 01/14/2018 04:05:00 0.0
2018_01_14_S8 01/14/2018 04:10:00 0.0
2018_01_14_S8 01/14/2018 04:15:00 0.0
2018_01_14_S8 01/14/2018 04:20:00 0.0
2018_01_14_S8 01/14/2018 04:25:00 0.0
2018_01_14_S8 01/14/2018 04:30:00 0.0
2018_01_14_S8 01/14/2018 04:35:00 0.0
2018_01_14_S8 01/14/2018 04:40:00 0.0
2018_01_14_S8 01/14/2018 04:45:00 0.0
2018_01_14_S8 01/14/2018 04:50:00 0.0
2018_01_14_S8 01/14/2018 04:55:00 0.0
2018_01_14_S8 01/14/2018 05:00:00 0.0
2018_01_14_S8 01/14/2018 05:05:00 0.0033
2018_01_14_S8 01/14/2018 05:10:00 0.0
2018_01_14_S8 01/14/2018 05:15:00 0.0
2018_01_14_S8 01/14/2018 05:20:00 0.0
2018_01_14_S8 01/14/2018 05:25:00 0.0
2018_01_14_S8 01/14/2018 05:30:00 0.0
2018_01_14_S8 01/14/2018 05:35:00 0.0
2018_01_14_S8 01/14/2018 05:40:00 0.0
2018_01_14_S8 01/14/2018 05:45:00 0.0
2018_01_14_S8 01/14/2018 05:50:00 0.0
2018_01_14_S8 01/14/2018 05:55:00 0.0467
2018_01_14_S8 01/14/2018 06:00:00 0.3633
2018_01_14_S8 01/14/2018 06:05:00 3.6395
2018_01_14_S8 01/14/2018 06:10:00 0.0303
2018_01_14_S8 01/14/2018 06:15:00 0.0
2018_01_14_S8 01/14/2018 06:20:00 0.2396
2018_01_14_S8 01/14/2018 06:25:00 0.2111
2018_01_14_S8 01/14/2018 06:30:00 0.0
2018_01_14_S8 01/14/2018 06:35:00 0.0
2018_01_14_S8 01/14/2018 06:40:00 0.0
2018_01_14_S8 01/14/2018 06:45:00 0.0
2018_01_14_S8 01/14/2018 06:50:00 0.0
2018_01_14_S8 01/14/2018 06:55:00 0.0
2018_01_14_S8 01/14/2018 07:00:00 0.0
2018_01_14_S8 01/14/2018 07:05:00 0.0
2018_01_14_S8 01/14/2018 07:10:00 0.0
2018_01_14_S8 01/14/2018 07:15:00 0.0
2018_01_14_S8 01/14/2018 07:20:00 0.0
2018_01_14_S8 01/14/2018 07:25:00 0.0
2018_01_14_S8 01/14/2018 07:30:00 0.0
2018_01_14_S8 01/14/2018 07:35:00 0.0
2018_01_14_S8 01/14/2018 07:40:00 0.0
2018_01_14_S8 01/14/2018 07:45:00 0.0
2018_01_14_S8 01/14/2018 07:50:00 0.0379
2018_01_14_S8 01/14/2018 07:55:00 0.0016
2018_01_14_S8 01/14/2018 08:00:00 0.0
2018_01_14_S8 01/14/2018 08:05:00 0.0
2018_01_14_S8 01/14/2018 08:10:00 0.0
2018_01_14_S8 01/14/2018 08:15:00 0.0
2018_01_14_S8 01/14/2018 08:20:00 0.0
2018_01_14_S8 01/14/2018 08:25:00 0.0101
2018_01_14_S8 01/14/2018 08:30:00 0.0119
2018_01_14_S8 01/14/2018 08:35:00 0.2432
2018_01_14_S8 01/14/2018 08:40:00 0.0
2018_01_14_S8 01/14/2018 08:45:00 0.0
2018_01_14_S8 01/14/2018 08:50:00 0.0
2018_01_14_S8 01/14/2018 08:55:00 0.0
2018_01_14_S8 01/14/2018 09:00:00 0.0
2018_01_14_S8 01/14/2018 09:05:00 0.0
2018_01_14_S8 01/14/2018 09:10:00 0.0
2018_01_14_S8 01/14/2018 09:15:00 0.0
2018_01_14_S8 01/14/2018 09:20:00 0.0
2018_01_14_S8 01/14/2018 09:25:00 0.0
2018_01_14_S8 01/14/2018 09:30:00 0.0
2018_01_14_S8 01/14/2018 09:35:00 0.0
2018_01_14_S8 01/14/2018 09:40:00 0.0
2018_01_14_S8 01/14/2018 09:45:00 0.0
2018_01_14_S8 01/14/2018 09:50:00 0.0
2018_01_14_S8 01/14/2018 09:55:00 0.0
2018_01_14_S8 01/14/2018 10:00:00 0.0
2018_01_14_S8 01/14/2018 10:05:00 0.0
2018_01_14_S8 01/14/2018 10:10:00 0.0
2018_01_14_S8 01/14/2018 10:15:00 0.0
2018_01_14_S8 01/14/2018 10:20:00 0.0
2018_01_14_S8 01/14/2018 10:25:00 0.0
2018_01_14_S8 01/14/2018 10:30:00 0.0
2018_01_14_S8 01/14/2018 10:35:00 0.0
2018_01_14_S8 01/14/2018 10:40:00 0.0
2018_01_14_S8 01/14/2018 10:45:00 0.0
2018_01_14_S8 01/14/2018 10:50:00 0.0
2018_01_14_S8 01/14/2018 10:55:00 0.0
2018_01_14_S8 01/14/2018 11:00:00 0.0
2018_01_14_S8 01/14/2018 11:05:00 0.0
2018_01_14_S8 01/14/2018 11:10:00 0.0
2018_01_14_S8 01/14/2018 11:15:00 0.0
2018_01_14_S8 01/14/2018 11:20:00 0.0
2018_01_14_S8 01/14/2018 11:25:00 0.0
2018_01_14_S8 01/14/2018 11:30:00 0.0
2018_01_14_S8 01/14/2018 11:35:00 0.0
2018_01_14_S8 01/14/2018 11:40:00 0.0
2018_01_14_S8 01/14/2018 11:45:00 0.0
2018_01_14_S8 01/14/2018 11:50:00 0.0
2018_01_14_S8 01/14/2018 11:55:00 0.0
2018_01_14_S8 01/14/2018 12:00:00 0.0
2018_01_14_S8 01/14/2018 12:05:00 0.0
2018_01_14_S8 01/14/2018 12:10:00 0.0
2018_01_14_S8 01/14/2018 12:15:00 0.0
2018_01_14_S8 01/14/2018 12:20:00 0.0
2018_01_14_S8 01/14/2018 12:25:00 0.0
2018_01_14_S8 01/14/2018 12:30:00 0.0
2018_01_14_S8 01/14/2018 12:35:00 0.0
2018_01_14_S8 01/14/2018 12:40:00 0.0
2018_01_14_S8 01/14/2018 12:45:00 0.0
2018_01_14_S8 01/14/2018 12:50:00 0.0
2018_01_14_S8 01/14/2018 12:55:00 0.0
2018_01_14_S8 01/14/2018 13:00:00 0.0
2018_01_14_S8 01/14/2018 13:05:00 0.0
2018_01_14_S8 01/14/2018 13:10:00 0.0
2018_01_14_S8 01/14/2018 13:15:00 0.0
2018_01_14_S8 01/14/2018 13:20:00 0.0
2018_01_14_S8 01/14/2018 13:25:00 0.0
2018_01_14_S8 01/14/2018 13:30:00 0.0
2018_01_14_S8 01/14/2018 13:35:00 0.0
2018_01_14_S8 01/14/2018 13:40:00 0.0
2018_01_14_S8 01/14/2018 13:45:00 0.0
2018_01_14_S8 01/14/2018 13:50:00 0.0
2018_01_14_S8 01/14/2018 13:55:00 0.0
2018_01_14_S8 01/14/2018 14:00:00 0.0
2018_01_14_S8 01/14/2018 14:05:00 0.0
2018_01_14_S8 01/14/2018 14:10:00 0.0
2018_01_14_S8 01/14/2018 14:15:00 0.0
2018_01_14_S8 01/14/2018 14:20:00 0.0
2018_01_14_S8 01/14/2018 14:25:00 0.0
2018_01_14_S8 01/14/2018 14:30:00 0.0
2018_01_14_S8 01/14/2018 14:35:00 0.0
2018_01_14_S8 01/14/2018 14:40:00 0.0
2018_01_14_S8 01/14/2018 14:45:00 0.0
2018_01_14_S8 01/14/2018 14:50:00 0.0
2018_01_14_S8 01/14/2018 14:55:00 0.0
2018_01_14_S8 01/14/2018 15:00:00 0.0
2018_01_14_S8 01/14/2018 15:05:00 0.0
2018_01_14_S8 01/14/2018 15:10:00 0.0
2018_01_14_S8 01/14/2018 15:15:00 0.0
2018_01_14_S8 01/14/2018 15:20:00 0.0
2018_01_14_S8 01/14/2018 15:25:00 0.0
2018_01_14_S8 01/14/2018 15:30:00 0.0
2018_01_14_S8 01/14/2018 15:35:00 0.0
2018_01_14_S8 01/14/2018 15:40:00 0.0
2018_01_14_S8 01/14/2018 15:45:00 0.0
2018_01_14_S8 01/14/2018 15:50:00 0.0
2018_01_14_S8 01/14/2018 15:55:00 0.0
2018_01_14_S8 01/14/2018 16:00:00 0.0
2018_01_14_S8 01/14/2018 16:05:00 0.0
2018_01_14_S8 01/14/2018 16:10:00 0.0
2018_01_14_S8 01/14/2018 16:15:00 0.0
2018_01_14_S8 01/14/2018 16:20:00 0.0
2018_01_14_S8 01/14/2018 16:25:00 0.0
2018_01_14_S8 01/14/2018 16:30:00 0.0
2018_01_14_S8 01/14/2018 16:35:00 0.0
2018_01_14_S8 01/14/2018 16:40:00 0.0084
2018_01_14_S8 01/14/2018 16:45:00 0.0234
2018_01_14_S8 01/14/2018 16:50:00 0.0778
2018_01_14_S8 01/14/2018 16:55:00 0.1188
2018_01_14_S8 01/14/2018 17:00:00 0.0005
2018_01_14_S8 01/14/2018 17:05:00 0.0093
2018_01_14_S8 01/14/2018 17:10:00 0.3966
2018_01_14_S8 01/14/2018 17:15:00 0.0039
2018_01_14_S8 01/14/2018 17:20:00 0.0
2018_01_14_S8 01/14/2018 17:25:00 0.0
2018_01_14_S8 01/14/2018 17:30:00 0.0
2018_01_14_S8 01/14/2018 17:35:00 0.1996
2018_01_14_S8 01/14/2018 17:40:00 0.037
2018_01_14_S8 01/14/2018 17:45:00 0.5566
2018_01_14_S8 01/14/2018 17:50:00 0.225
2018_01_14_S8 01/14/2018 17:55:00 0.1678
2018_01_14_S8 01/14/2018 18:00:00 0.4306
2018_01_14_S8 01/14/2018 18:05:00 0.152
2018_01_14_S8 01/14/2018 18:10:00 0.5162
2018_01_14_S8 01/14/2018 18:15:00 0.4101
2018_01_14_S8 01/14/2018 18:20:00 2.6864
2018_01_14_S8 01/14/2018 18:25:00 1.5287
2018_01_14_S8 01/14/2018 18:30:00 0.0229
2018_01_14_S8 01/14/2018 18:35:00 0.0006
2018_01_14_S8 01/14/2018 18:40:00 0.0
2018_01_14_S8 01/14/2018 18:45:00 0.6951
2018_01_14_S8 01/14/2018 18:50:00 2.2237
2018_01_14_S8 01/14/2018 18:55:00 0.0754
2018_01_14_S8 01/14/2018 19:00:00 0.5733
2018_01_14_S8 01/14/2018 19:05:00 0.0
2018_01_14_S8 01/14/2018 19:10:00 0.0
2018_01_14_S8 01/14/2018 19:15:00 0.0
2018_01_14_S8 01/14/2018 19:20:00 0.0
2018_01_14_S8 01/14/2018 19:25:00 0.0
2018_01_14_S8 01/14/2018 19:30:00 0.0
2018_01_14_S8 01/14/2018 19:35:00 0.0
2018_01_14_S8 01/14/2018 19:40:00 0.0
2018_01_14_S8 01/14/2018 19:45:00 0.0
2018_01_14_S8 01/14/2018 19:50:00 0.0
2018_01_14_S8 01/14/2018 19:55:00 0.0
2018_01_14_S8 01/14/2018 20:00:00 0.0
2018_01_14_S8 01/14/2018 20:05:00 0.0
2018_01_14_S8 01/14/2018 20:10:00 0.0
2018_01_14_S8 01/14/2018 20:15:00 0.0
2018_01_14_S8 01/14/2018 20:20:00 0.0
2018_01_14_S8 01/14/2018 20:25:00 0.0
2018_01_14_S8 01/14/2018 20:30:00 0.0
2018_01_14_S8 01/14/2018 20:35:00 0.0
2018_01_14_S8 01/14/2018 20:40:00 0.0
2018_01_14_S8 01/14/2018 20:45:00 0.0
2018_01_14_S8 01/14/2018 20:50:00 0.0
2018_01_14_S8 01/14/2018 20:55:00 0.0
2018_01_14_S8 01/14/2018 21:00:00 0.0
2018_01_14_S8 01/14/2018 21:05:00 0.0
2018_01_14_S8 01/14/2018 21:10:00 0.0
2018_01_14_S8 01/14/2018 21:15:00 0.0
2018_01_14_S8 01/14/2018 21:20:00 0.0
2018_01_14_S8 01/14/2018 21:25:00 0.0
2018_01_14_S8 01/14/2018 21:30:00 0.0
2018_01_14_S8 01/14/2018 21:35:00 0.0
2018_01_14_S8 01/14/2018 21:40:00 0.0
2018_01_14_S8 01/14/2018 21:45:00 0.0
2018_01_14_S8 01/14/2018 21:50:00 0.0
2018_01_14_S8 01/14/2018 21:55:00 0.0
2018_01_14_S8 01/14/2018 22:00:00 0.0
2018_01_14_S8 01/14/2018 22:05:00 0.0
2018_01_14_S8 01/14/2018 22:10:00 0.0
2018_01_14_S8 01/14/2018 22:15:00 0.0
2018_01_14_S8 01/14/2018 22:20:00 0.0
2018_01_14_S8 01/14/2018 22:25:00 0.0
2018_01_14_S8 01/14/2018 22:30:00 0.0
2018_01_14_S8 01/14/2018 22:35:00 0.0
2018_01_14_S8 01/14/2018 22:40:00 0.0082
2018_01_14_S8 01/14/2018 22:45:00 0.0
2018_01_14_S8 01/14/2018 22:50:00 0.0
2018_01_14_S8 01/14/2018 22:55:00 0.0387
2018_01_14_S8 01/14/2018 23:00:00 0.0146
2018_01_14_S8 01/14/2018 23:05:00 0.0018
2018_01_14_S8 01/14/2018 23:10:00 0.0248
2018_01_14_S8 01/14/2018 23:15:00 0.0063
2018_01_14_S8 01/14/2018 23:20:00 0.0049
2018_01_14_S8 01/14/2018 23:25:00 0.0
2018_01_14_S8 01/14/2018 23:30:00 0.0
2018_01_14_S8 01/14/2018 23:35:00 0.0
2018_01_14_S8 01/14/2018 23:40:00 0.0
2018_01_14_S8 01/14/2018 23:45:00 0.0
2018_01_14_S8 01/14/2018 23:50:00 0.0
2018_01_14_S8 01/14/2018 23:55:00 0.0
2018_01_14_S8 01/15/2018 00:00:00 0.0
2018_01_14_S8 01/15/2018 00:05:00 0.0
2018_01_14_S8 01/15/2018 00:10:00 0.0
2018_01_14_S8 01/15/2018 00:15:00 0.0
2018_01_14_S8 01/15/2018 00:20:00 0.0
2018_01_14_S8 01/15/2018 00:25:00 0.0
2018_01_14_S8 01/15/2018 00:30:00 0.0
2018_01_14_S8 01/15/2018 00:35:00 0.0
2018_01_14_S8 01/15/2018 00:40:00 0.0
2018_01_14_S8 01/15/2018 00:45:00 0.0
2018_01_14_S8 01/15/2018 00:50:00 0.0
2018_01_14_S8 01/15/2018 00:55:00 0.0
2018_01_14_S8 01/15/2018 01:00:00 0.0
2018_01_14_S8 01/15/2018 01:05:00 0.0
2018_01_14_S8 01/15/2018 01:10:00 0.0
2018_01_14_S8 01/15/2018 01:15:00 0.0
2018_01_14_S8 01/15/2018 01:20:00 0.0
2018_01_14_S8 01/15/2018 01:25:00 0.0
2018_01_14_S8 01/15/2018 01:30:00 0.0
2018_01_14_S8 01/15/2018 01:35:00 0.0
2018_01_14_S8 01/15/2018 01:40:00 0.0
2018_01_14_S8 01/15/2018 01:45:00 0.0
2018_01_14_S8 01/15/2018 01:50:00 0.0
2018_01_14_S8 01/15/2018 01:55:00 0.0
2018_01_14_S8 01/15/2018 02:00:00 0.0
2018_01_14_S8 01/15/2018 02:05:00 0.0
2018_01_14_S8 01/15/2018 02:10:00 0.0
2018_01_14_S8 01/15/2018 02:15:00 0.0
2018_01_14_S8 01/15/2018 02:20:00 0.0
2018_01_14_S8 01/15/2018 02:25:00 0.0501
2018_01_14_S8 01/15/2018 02:30:00 0.0089
2018_01_14_S8 01/15/2018 02:35:00 0.0128
2018_01_14_S8 01/15/2018 02:40:00 0.1464
2018_01_14_S8 01/15/2018 02:45:00 0.3341
2018_01_14_S8 01/15/2018 02:50:00 0.0091
2018_01_14_S8 01/15/2018 02:55:00 0.0047
2018_01_14_S8 01/15/2018 03:00:00 0.0107
2018_01_14_S8 01/15/2018 03:05:00 0.0
2018_01_14_S8 01/15/2018 03:10:00 0.0
2018_01_14_S8 01/15/2018 03:15:00 0.0
2018_01_14_S8 01/15/2018 03:20:00 0.0
2018_01_14_S8 01/15/2018 03:25:00 0.0
2018_01_14_S8 01/15/2018 03:30:00 0.0
2018_01_14_S8 01/15/2018 03:35:00 0.0
2018_01_14_S8 01/15/2018 03:40:00 0.0
2018_01_14_S8 01/15/2018 03:45:00 0.0
2018_01_14_S8 01/15/2018 03:50:00 0.0
2018_01_14_S8 01/15/2018 03:55:00 0.0
2018_01_14_S8 01/15/2018 04:00:00 0.0
2018_01_14_S8 01/15/2018 04:05:00 0.0
2018_01_14_S8 01/15/2018 04:10:00 0.0
2018_01_14_S8 01/15/2018 04:15:00 0.0
2018_01_14_S8 01/15/2018 04:20:00 0.0
2018_01_14_S8 01/15/2018 04:25:00 0.0
2018_01_14_S8 01/15/2018 04:30:00 0.0
2018_01_14_S8 01/15/2018 04:35:00 0.0
2018_01_14_S8 01/15/2018 04:40:00 0.0
2018_01_14_S8 01/15/2018 04:45:00 0.0
2018_01_14_S8 01/15/2018 04:50:00 0.0
2018_01_14_S8 01/15/2018 04:55:00 0.0
2018_01_14_S8 01/15/2018 05:00:00 0.0
2018_01_14_S8 01/15/2018 05:05:00 0.0
2018_01_14_S8 01/15/2018 05:10:00 0.0
2018_01_14_S8 01/15/2018 05:15:00 0.0
2018_01_14_S8 01/15/2018 05:20:00 0.0
2018_01_14_S8 01/15/2018 05:25:00 0.0
2018_01_14_S8 01/15/2018 05:30:00 0.0
2018_01_14_S8 01/15/2018 05:35:00 0.0
2018_01_14_S8 01/15/2018 05:40:00 0.0
2018_01_14_S8 01/15/2018 05:45:00 0.0
2018_01_14_S8 01/15/2018 05:50:00 0.0
2018_01_14_S8 01/15/2018 05:55:00 0.0
2018_01_14_S8 01/15/2018 06:00:00 0.0
2018_01_14_S8 01/15/2018 06:05:00 0.0
2018_01_14_S8 01/15/2018 06:10:00 0.0
2018_01_14_S8 01/15/2018 06:15:00 0.0
2018_01_14_S8 01/15/2018 06:20:00 0.0315
2018_01_14_S8 01/15/2018 06:25:00 0.0392
2018_01_14_S8 01/15/2018 06:30:00 0.0
2018_01_14_S8 01/15/2018 06:35:00 0.0
2018_01_14_S8 01/15/2018 06:40:00 0.0
2018_01_14_S8 01/15/2018 06:45:00 0.0
2018_01_14_S8 01/15/2018 06:50:00 0.0
2018_01_14_S8 01/15/2018 06:55:00 0.0
2018_01_14_S8 01/15/2018 07:00:00 0.0
2018_01_14_S8 01/15/2018 07:05:00 0.0
2018_01_14_S8 01/15/2018 07:10:00 0.0
2018_01_14_S8 01/15/2018 07:15:00 0.0
2018_01_14_S8 01/15/2018 07:20:00 0.0
2018_01_14_S8 01/15/2018 07:25:00 0.0072
2018_01_14_S8 01/15/2018 07:30:00 0.0
2018_01_14_S8 01/15/2018 07:35:00 0.0
2018_01_14_S8 01/15/2018 07:40:00 0.0
2018_01_14_S8 01/15/2018 07:45:00 0.0
2018_01_14_S8 01/15/2018 07:50:00 0.0
2018_01_14_S8 01/15/2018 07:55:00 0.0
2018_01_14_S8 01/15/2018 08:00:00 0.0

2018_01_14_S9 01/13/2018 08:00:00 0.0
2018_01_14_S9 01/13/2018 08:05:00 0.0
2018_01_14_S9 01/13/2018 08:10:00 0.0
2018_01_14_S9 01/13/2018 08:15:00 0.0
2018_01_14_S9 01/13/2018 08:20:00 0.0
2018_01_14_S9 01/13/2018 08:25:00 0.0
2018_01_14_S9 01/13/2018 08:30:00 0.0
2018_01_14_S9 01/13/2018 08:35:00 0.0
2018_01_14_S9 01/13/2018 08:40:00 0.0
2018_01_14_S9 01/13/2018 08:45:00 0.0
2018_01_14_S9 01/13/2018 08:50:00 0.0
2018_01_14_S9 01/13/2018 08:55:00 0.0
2018_01_14_S9 01/13/2018 09:00:00 0.0
2018_01_14_S9 01/13/2018 09:05:00 0.0
2018_01_14_S9 01/13/2018 09:10:00 0.0
2018_01_14_S9 01/13/2018 09:15:00 0.0
2018_01_14_S9 01/13/2018 09:20:00 0.0
2018_01_14_S9 01/13/2018 09:25:00 0.0
2018_01_14_S9 01/13/2018 09:30:00 0.0
2018_01_14_S9 01/13/2018 09:35:00 0.0
2018_01_14_S9 01/13/2018 09:40:00 0.0
2018_01_14_S9 01/13/2018 09:45:00 0.0
2018_01_14_S9 01/13/2018 09:50:00 0.0
2018_01_14_S9 01/13/2018 09:55:00 0.0
2018_01_14_S9 01/13/2018 10:00:00 0.0
2018_01_14_S9 01/13/2018 10:05:00 0.0
2018_01_14_S9 01/13/2018 10:10:00 0.0
2018_01_14_S9 01/13/2018 10:15:00 0.0
2018_01_14_S9 01/13/2018 10:20:00 0.0
2018_01_14_S9 01/13/2018 10:25:00 0.0
2018_01_14_S9 01/13/2018 10:30:00 0.0
2018_01_14_S9 01/13/2018 10:35:00 0.0
2018_01_14_S9 01/13/2018 10:40:00 0.0
2018_01_14_S9 01/13/2018 10:45:00 0.0
2018_01_14_S9 01/13/2018 10:50:00 0.0
2018_01_14_S9 01/13/2018 10:55:00 0.0
2018_01_14_S9 01/13/2018 11:00:00 0.0
2018_01_14_S9 01/13/2018 11:05:00 0.0
2018_01_14_S9 01/13/2018 11:10:00 0.0
2018_01_14_S9 01/13/2018 11:15:00 0.0
2018_01_14_S9 01/13/2018 11:20:00 0.0
2018_01_14_S9 01/13/2018 11:25:00 0.0
2018_01_14_S9 01/13/2018 11:30:00 0.0
2018_01_14_S9 01/13/2018 11:35:00 0.0
2018_01_14_S9 01/13/2018 11:40:00 0.0
2018_01_14_S9 01/13/2018 11:45:00 0.0
2018_01_14_S9 01/13/2018 11:50:00 0.0
2018_01_14_S9 01/13/2018 11:55:00 0.0
2018_01_14_S9 01/13/2018 12:00:00 0.0
2018_01_14_S9 01/13/2018 12:05:00 0.0
2018_01_14_S9 01/13/2018 12:10:00 0.0
2018_01_14_S9 01/13/2018 12:15:00 0.0
2018_01_14_S9 01/13/2018 12:20:00 0.0
2018_01_14_S9 01/13/2018 12:25:00 0.0
2018_01_14_S9 01/13/2018 12:30:00 0.0
2018_01_14_S9 01/13/2018 12:35:00 0.0
2018_01_14_S9 01/13/2018 12:40:00 0.0
2018_01_14_S9 01/13/2018 12:45:00 0.0
2018_01_14_S9 01/13/2018 12:50:00 0.0
2018_01_14_S9 01/13/2018 12:55:00 0.0
2018_01_14_S9 01/13/2018 13:00:00 0.0
2018_01_14_S9 01/13/2018 13:05:00 0.0
2018_01_14_S9 01/13/2018 13:10:00 0.0
2018_01_14_S9 01/13/2018 13:15:00 0.0
2018_01_14_S9 01/13/2018 13:20:00 0.0
2018_01_14_S9 01/13/2018 13:25:00 0.0
2018_01_14_S9 01/13/2018 13:30:00 0.0
2018_01_14_S9 01/13/2018 13:35:00 0.0
2018_01_14_S9 01/13/2018 13:40:00 0.0
2018_01_14_S9 01/13/2018 13:45:00 0.0
2018_01_14_S9 01/13/2018 13:50:00 0.0
2018_01_14_S9 01/13/2018 13:55:00 0.0
2018_01_14_S9 01/13/2018 14:00:00 0.0
2018_01_14_S9 01/13/2018 14:05:00 0.0
2018_01_14_S9 01/13/2018 14:10:00 0.0
2018_01_14_S9 01/13/2018 14:15:00 0.0
2018_01_14_S9 01/13/2018 14:20:00 0.0
2018_01_14_S9 01/13/2018 14:25:00 0.0
2018_01_14_S9 01/13/2018 14:30:00 0.0
2018_01_14_S9 01/13/2018 14:35:00 0.0
2018_01_14_S9 01/13/2018 14:40:00 0.0
2018_01_14_S9 01/13/2018 14:45:00 0.0
2018_01_14_S9 01/13/2018 14:50:00 0.0
2018_01_14_S9 01/13/2018 14:55:00 0.0
2018_01_14_S9 01/13/2018 15:00:00 0.0
2018_01_14_S9 01/13/2018 15:05:00 0.0
2018_01_14_S9 01/13/2018 15:10:00 0.0
2018_01_14_S9 01/13/2018 15:15:00 0.0
2018_01_14_S9 01/13/2018 15:20:00 0.0
2018_01_14_S9 01/13/2018 15:25:00 0.0
2018_01_14_S9 01/13/2018 15:30:00 0.0
2018_01_14_S9 01/13/2018 15:35:00 0.0
2018_01_14_S9 01/13/2018 15:40:00 0.0
2018_01_14_S9 01/13/2018 15:45:00 0.0
2018_01_14_S9 01/13/2018 15:50:00 0.0
2018_01_14_S9 01/13/2018 15:55:00 0.0
2018_01_14_S9 01/13/2018 16:00:00 0.0
2018_01_14_S9 01/13/2018 16:05:00 0.0
2018_01_14_S9 01/13/2018 16:10:00 0.0
2018_01_14_S9 01/13/2018 16:15:00 0.0
2018_01_14_S9 01/13/2018 16:20:00 0.0
2018_01_14_S9 01/13/2018 16:25:00 0.0
2018_01_14_S9 01/13/2018 16:30:00 0.0
2018_01_14_S9 01/13/2018 16:35:00 0.0
2018_01_14_S9 01/13/2018 16:40:00 0.0
2018_01_14_S9 01/13/2018 16:45:00 0.0
2018_01_14_S9 01/13/2018 16:50:00 0.0
2018_01_14_S9 01/13/2018 16:55:00 0.0
2018_01_14_S9 01/13/2018 17:00:00 0.0
2018_01_14_S9 01/13/2018 17:05:00 0.0
2018_01_14_S9 01/13/2018 17:10:00 0.0
2018_01_14_S9 01/13/2018 17:15:00 0.0
2018_01_14_S9 01/13/2018 17:20:00 0.0
2018_01_14_S9 01/13/2018 17:25:00 0.0
2018_01_14_S9 01/13/2018 17:30:00 0.0
2018_01_14_S9 01/13/2018 17:35:00 0.0
2018_01_14_S9 01/13/2018 17:40:00 0.0
2018_01_14_S9 01/13/2018 17:45:00 0.0
2018_01_14_S9 01/13/2018 17:50:00 0.0
2018_01_14_S9 01/13/2018 17:55:00 0.0
2018_01_14_S9 01/13/2018 18:00:00 0.0
2018_01_14_S9 01/13/2018 18:05:00 0.0
2018_01_14_S9 01/13/2018 18:10:00 0.0
2018_01_14_S9 01/13/2018 18:15:00 0.0
2018_01_14_S9 01/13/2018 18:20:00 0.0
2018_01_14_S9 01/13/2018 18:25:00 0.0
2018_01_14_S9 01/13/2018 18:30:00 0.0
2018_01_14_S9 01/13/2018 18:35:00 0.0
2018_01_14_S9 01/13/2018 18:40:00 0.0
2018_01_14_S9 01/13/2018 18:45:00 0.0
2018_01_14_S9 01/13/2018 18:50:00 0.0
2018_01_14_S9 01/13/2018 18:55:00 0.0
2018_01_14_S9 01/13/2018 19:00:00 0.0
2018_01_14_S9 01/13/2018 19:05:00 0.0
2018_01_14_S9 01/13/2018 19:10:00 0.0
2018_01_14_S9 01/13/2018 19:15:00 0.0
2018_01_14_S9 01/13/2018 19:20:00 0.0
2018_01_14_S9 01/13/2018 19:25:00 0.0
2018_01_14_S9 01/13/2018 19:30:00 0.0
2018_01_14_S9 01/13/2018 19:35:00 0.0
2018_01_14_S9 01/13/2018 19:40:00 0.0
2018_01_14_S9 01/13/2018 19:45:00 0.0
2018_01_14_S9 01/13/2018 19:50:00 0.0
2018_01_14_S9 01/13/2018 19:55:00 0.0
2018_01_14_S9 01/13/2018 20:00:00 0.0
2018_01_14_S9 01/13/2018 20:05:00 0.0
2018_01_14_S9 01/13/2018 20:10:00 0.0
2018_01_14_S9 01/13/2018 20:15:00 0.0
2018_01_14_S9 01/13/2018 20:20:00 0.0
2018_01_14_S9 01/13/2018 20:25:00 0.0
2018_01_14_S9 01/13/2018 20:30:00 0.0
2018_01_14_S9 01/13/2018 20:35:00 0.0
2018_01_14_S9 01/13/2018 20:40:00 0.0
2018_01_14_S9 01/13/2018 20:45:00 0.0
2018_01_14_S9 01/13/2018 20:50:00 0.0
2018_01_14_S9 01/13/2018 20:55:00 0.0
2018_01_14_S9 01/13/2018 21:00:00 0.0
2018_01_14_S9 01/13/2018 21:05:00 0.0
2018_01_14_S9 01/13/2018 21:10:00 0.0
2018_01_14_S9 01/13/2018 21:15:00 0.0
2018_01_14_S9 01/13/2018 21:20:00 0.0
2018_01_14_S9 01/13/2018 21:25:00 0.0
2018_01_14_S9 01/13/2018 21:30:00 0.0
2018_01_14_S9 01/13/2018 21:35:00 0.0
2018_01_14_S9 01/13/2018 21:40:00 0.0
2018_01_14_S9 01/13/2018 21:45:00 0.0
2018_01_14_S9 01/13/2018 21:50:00 0.0
2018_01_14_S9 01/13/2018 21:55:00 0.0
2018_01_14_S9 01/13/2018 22:00:00 0.0
2018_01_14_S9 01/13/2018 22:05:00 0.0
2018_01_14_S9 01/13/2018 22:10:00 0.0
2018_01_14_S9 01/13/2018 22:15:00 0.0
2018_01_14_S9 01/13/2018 22:20:00 0.0
2018_01_14_S9 01/13/2018 22:25:00 0.0
2018_01_14_S9 01/13/2018 22:30:00 0.0
2018_01_14_S9 01/13/2018 22:35:00 0.0
2018_01_14_S9 01/13/2018 22:40:00 0.0
2018_01_14_S9 01/13/2018 22:45:00 0.0
2018_01_14_S9 01/13/2018 22:50:00 0.0
2018_01_14_S9 01/13/2018 22:55:00 0.0
2018_01_14_S9 01/13/2018 23:00:00 0.0
2018_01_14_S9 01/13/2018 23:05:00 0.0
2018_01_14_S9 01/13/2018 23:10:00 0.0
2018_01_14_S9 01/13/2018 23:15:00 0.0
2018_01_14_S9 01/13/2018 23:20:00 0.0
2018_01_14_S9 01/13/2018 23:25:00 0.0
2018_01_14_S9 01/13/2018 23:30:00 0.0
2018_01_14_S9 01/13/2018 23:35:00 0.0
2018_01_14_S9 01/13/2018 23:40:00 0.0
2018_01_14_S9 01/13/2018 23:45:00 0.0
2018_01_14_S9 01/13/2018 23:50:00 0.0
2018_01_14_S9 01/13/2018 23:55:00 0.0
2018_01_14_S9 01/14/2018 00:00:00 0.0
2018_01_14_S9 01/14/2018 00:05:00 0.0
2018_01_14_S9 01/14/2018 00:10:00 0.0
2018_01_14_S9 01/14/2018 00:15:00 0.0
2018_01_14_S9 01/14/2018 00:20:00 0.0
2018_01_14_S9 01/14/2018 00:25:00 0.0
2018_01_14_S9 01/14/2018 00:30:00 0.0
2018_01_14_S9 01/14/2018 00:35:00 0.0
2018_01_14_S9 01/14/2018 00:40:00 0.0
2018_01_14_S9 01/14/2018 00:45:00 0.0
2018_01_14_S9 01/14/2018 00:50:00 0.0
2018_01_14_S9 01/14/2018 00:55:00 0.0
2018_01_14_S9 01/14/2018 01:00:00 0.0
2018_01_14_S9 01/14/2018 01:05:00 0.0
2018_01_14_S9 01/14/2018 01:10:00 0.0
2018_01_14_S9 01/14/2018 01:15:00 0.0
2018_01_14_S9 01/14/2018 01:20:00 0.0
2018_01_14_S9 01/14/2018 01:25:00 0.0
2018_01_14_S9 01/14/2018 01:30:00 0.0
2018_01_14_S9 01/14/2018 01:35:00 0.0
2018_01_14_S9 01/14/2018 01:40:00 0.0
2018_01_14_S9 01/14/2018 01:45:00 0.0
2018_01_14_S9 01/14/2018 01:50:00 0.0
2018_01_14_S9 01/14/2018 01:55:00 0.0
2018_01_14_S9 01/14/2018 02:00:00 0.0
2018_01_14_S9 01/14/2018 02:05:00 0.0
2018_01_14_S9 01/14/2018 02:10:00 0.0
2018_01_14_S9 01/14/2018 02:15:00 0.0
2018_01_14_S9 01/14/2018 02:20:00 0.0
2018_01_14_S9 01/14/2018 02:25:00 0.0
2018_01_14_S9 01/14/2018 02:30:00 0.0
2018_01_14_S9 01/14/2018 02:35:00 0.0
2018_01_14_S9 01/14/2018 02:40:00 0.0
2018_01_14_S9 01/14/2018 02:45:00 0.0
2018_01_14_S9 01/14/2018 02:50:00 0.0
2018_01_14_S9 01/14/2018 02:55:00 0.0
2018_01_14_S9 01/14/2018 03:00:00 0.0141
2018_01_14_S9 01/14/2018 03:05:00 0.0649
2018_01_14_S9 01/14/2018 03:10:00 0.006
2018_01_14_S9 01/14/2018 03:15:00 0.0
2018_01_14_S9 01/14/2018 03:20:00 0.0
2018_01_14_S9 01/14/2018 03:25:00 0.0
2018_01_14_S9 01/14/2018 03:30:00 0.0
2018_01_14_S9 01/14/2018 03:35:00 0.0
2018_01_14_S9 01/14/2018 03:40:00 0.0
2018_01_14_S9 01/14/2018 03:45:00 0.0
2018_01_14_S9 01/14/2018 03:50:00 0.0
2018_01_14_S9 01/14/2018 03:55:00 0.0
2018_01_14_S9 01/14/2018 04:00:00 0.0
2018_01_14_S9 01/14/2018 04:05:00 0.0
2018_01_14_S9 01/14/2018 04:10:00 0.0
2018_01_14_S9 01/14/2018 04:15:00 0.0
2018_01_14_S9 01/14/2018 04:20:00 0.0
2018_01_14_S9 01/14/2018 04:25:00 0.0
2018_01_14_S9 01/14/2018 04:30:00 0.0
2018_01_14_S9 01/14/2018 04:35:00 0.0
2018_01_14_S9 01/14/2018 04:40:00 0.0
2018_01_14_S9 01/14/2018 04:45:00 0.0
2018_01_14_S9 01/14/2018 04:50:00 0.0
2018_01_14_S9 01/14/2018 04:55:00 0.0
2018_01_14_S9 01/14/2018 05:00:00 0.0
2018_01_14_S9 01/14/2018 05:05:00 0.0006
2018_01_14_S9 01/14/2018 05:10:00 0.0
2018_01_14_S9 01/14/2018 05:15:00 0.0
2018_01_14_S9 01/14/2018 05:20:00 0.0
2018_01_14_S9 01/14/2018 05:25:00 0.0
2018_01_14_S9 01/14/2018 05:30:00 0.0
2018_01_14_S9 01/14/2018 05:35:00 0.0
2018_01_14_S9 01/14/2018 05:40:00 0.0
2018_01_14_S9 01/14/2018 05:45:00 0.0
2018_01_14_S9 01/14/2018 05:50:00 0.0
2018_01_14_S9 01/14/2018 05:55:00 0.0272
2018_01_14_S9 01/14/2018 06:00:00 0.4288
2018_01_14_S9 01/14/2018 06:05:00 3.6547
2018_01_14_S9 01/14/2018 06:10:00 0.0104
2018_01_14_S9 01/14/2018 06:15:00 0.0001
2018_01_14_S9 01/14/2018 06:20:00 0.749
2018_01_14_S9 01/14/2018 06:25:00 0.0867
2018_01_14_S9 01/14/2018 06:30:00 0.0002
2018_01_14_S9 01/14/2018 06:35:00 0.0
2018_01_14_S9 01/14/2018 06:40:00 0.0
2018_01_14_S9 01/14/2018 06:45:00 0.0
2018_01_14_S9 01/14/2018 06:50:00 0.0
2018_01_14_S9 01/14/2018 06:55:00 0.0
2018_01_14_S9 01/14/2018 07:00:00 0.0
2018_01_14_S9 01/14/2018 07:05:00 0.0
2018_01_14_S9 01/14/2018 07:10:00 0.0
2018_01_14_S9 01/14/2018 07:15:00 0.0
2018_01_14_S9 01/14/2018 07:20:00 0.0
2018_01_14_S9 01/14/2018 07:25:00 0.0
2018_01_14_S9 01/14/2018 07:30:00 0.0
2018_01_14_S9 01/14/2018 07:35:00 0.0
2018_01_14_S9 01/14/2018 07:40:00 0.0
2018_01_14_S9 01/14/2018 07:45:00 0.0
2018_01_14_S9 01/14/2018 07:50:00 0.0289
2018_01_14_S9 01/14/2018 07:55:00 0.0
2018_01_14_S9 01/14/2018 08:00:00 0.0
2018_01_14_S9 01/14/2018 08:05:00 0.0
2018_01_14_S9 01/14/2018 08:10:00 0.0
2018_01_14_S9 01/14/2018 08:15:00 0.0
2018_01_14_S9 01/14/2018 08:20:00 0.0
2018_01_14_S9 01/14/2018 08:25:00 0.0184
2018_01_14_S9 01/14/2018 08:30:00 0.0298
2018_01_14_S9 01/14/2018 08:35:00 0.3513
2018_01_14_S9 01/14/2018 08:40:00 0.0
2018_01_14_S9 01/14/2018 08:45:00 0.0
2018_01_14_S9 01/14/2018 08:50:00 0.0
2018_01_14_S9 01/14/2018 08:55:00 0.0
2018_01_14_S9 01/14/2018 09:00:00 0.0
2018_01_14_S9 01/14/2018 09:05:00 0.0
2018_01_14_S9 01/14/2018 09:10:00 0.0
2018_01_14_S9 01/14/2018 09:15:00 0.0
2018_01_14_S9 01/14/2018 09:20:00 0.0
2018_01_14_S9 01/14/2018 09:25:00 0.0
2018_01_14_S9 01/14/2018 09:30:00 0.0
2018_01_14_S9 01/14/2018 09:35:00 0.0
2018_01_14_S9 01/14/2018 09:40:00 0.0
2018_01_14_S9 01/14/2018 09:45:00 0.0
2018_01_14_S9 01/14/2018 09:50:00 0.0
2018_01_14_S9 01/14/2018 09:55:00 0.0
2018_01_14_S9 01/14/2018 10:00:00 0.0
2018_01_14_S9 01/14/2018 10:05:00 0.0
2018_01_14_S9 01/14/2018 10:10:00 0.0
2018_01_14_S9 01/14/2018 10:15:00 0.0
2018_01_14_S9 01/14/2018 10:20:00 0.0
2018_01_14_S9 01/14/2018 10:25:00 0.0
2018_01_14_S9 01/14/2018 10:30:00 0.0
2018_01_14_S9 01/14/2018 10:35:00 0.0
2018_01_14_S9 01/14/2018 10:40:00 0.0
2018_01_14_S9 01/14/2018 10:45:00 0.0
2018_01_14_S9 01/14/2018 10:50:00 0.0
2018_01_14_S9 01/14/2018 10:55:00 0.0
2018_01_14_S9 01/14/2018 11:00:00 0.0
2018_01_14_S9 01/14/2018 11:05:00 0.0
2018_01_14_S9 01/14/2018 11:10:00 0.0
2018_01_14_S9 01/14/2018 11:15:00 0.0
2018_01_14_S9 01/14/2018 11:20:00 0.0
2018_01_14_S9 01/14/2018 11:25:00 0.0
2018_01_14_S9 01/14/2018 11:30:00 0.0
2018_01_14_S9 01/14/2018 11:35:00 0.0
2018_01_14_S9 01/14/2018 11:40:00 0.0
2018_01_14_S9 01/14/2018 11:45:00 0.0
2018_01_14_S9 01/14/2018 11:50:00 0.0
2018_01_14_S9 01/14/2018 11:55:00 0.0
2018_01_14_S9 01/14/2018 12:00:00 0.0
2018_01_14_S9 01/14/2018 12:05:00 0.0
2018_01_14_S9 01/14/2018 12:10:00 0.0
2018_01_14_S9 01/14/2018 12:15:00 0.0
2018_01_14_S9 01/14/2018 12:20:00 0.0
2018_01_14_S9 01/14/2018 12:25:00 0.0
2018_01_14_S9 01/14/2018 12:30:00 0.0
2018_01_14_S9 01/14/2018 12:35:00 0.0
2018_01_14_S9 01/14/2018 12:40:00 0.0
2018_01_14_S9 01/14/2018 12:45:00 0.0
2018_01_14_S9 01/14/2018 12:50:00 0.0
2018_01_14_S9 01/14/2018 12:55:00 0.0
2018_01_14_S9 01/14/2018 13:00:00 0.0
2018_01_14_S9 01/14/2018 13:05:00 0.0
2018_01_14_S9 01/14/2018 13:10:00 0.0
2018_01_14_S9 01/14/2018 13:15:00 0.0
2018_01_14_S9 01/14/2018 13:20:00 0.0
2018_01_14_S9 01/14/2018 13:25:00 0.0
2018_01_14_S9 01/14/2018 13:30:00 0.0
2018_01_14_S9 01/14/2018 13:35:00 0.0
2018_01_14_S9 01/14/2018 13:40:00 0.0
2018_01_14_S9 01/14/2018 13:45:00 0.0
2018_01_14_S9 01/14/2018 13:50:00 0.0
2018_01_14_S9 01/14/2018 13:55:00 0.0
2018_01_14_S9 01/14/2018 14:00:00 0.0
2018_01_14_S9 01/14/2018 14:05:00 0.0
2018_01_14_S9 01/14/2018 14:10:00 0.0
2018_01_14_S9 01/14/2018 14:15:00 0.0
2018_01_14_S9 01/14/2018 14:20:00 0.0
2018_01_14_S9 01/14/2018 14:25:00 0.0
2018_01_14_S9 01/14/2018 14:30:00 0.0
2018_01_14_S9 01/14/2018 14:35:00 0.0
2018_01_14_S9 01/14/2018 14:40:00 0.0
2018_01_14_S9 01/14/2018 14:45:00 0.0
2018_01_14_S9 01/14/2018 14:50:00 0.0
2018_01_14_S9 01/14/2018 14:55:00 0.0
2018_01_14_S9 01/14/2018 15:00:00 0.0
2018_01_14_S9 01/14/2018 15:05:00 0.0
2018_01_14_S9 01/14/2018 15:10:00 0.0
2018_01_14_S9 01/14/2018 15:15:00 0.0
2018_01_14_S9 01/14/2018 15:20:00 0.0
2018_01_14_S9 01/14/2018 15:25:00 0.0
2018_01_14_S9 01/14/2018 15:30:00 0.0
2018_01_14_S9 01/14/2018 15:35:00 0.0
2018_01_14_S9 01/14/2018 15:40:00 0.0
2018_01_14_S9 01/14/2018 15:45:00 0.0
2018_01_14_S9 01/14/2018 15:50:00 0.0
2018_01_14_S9 01/14/2018 15:55:00 0.0
2018_01_14_S9 01/14/2018 16:00:00 0.0
2018_01_14_S9 01/14/2018 16:05:00 0.0
2018_01_14_S9 01/14/2018 16:10:00 0.0
2018_01_14_S9 01/14/2018 16:15:00 0.0
2018_01_14_S9 01/14/2018 16:20:00 0.0
2018_01_14_S9 01/14/2018 16:25:00 0.0
2018_01_14_S9 01/14/2018 16:30:00 0.0
2018_01_14_S9 01/14/2018 16:35:00 0.0
2018_01_14_S9 01/14/2018 16:40:00 0.0072
2018_01_14_S9 01/14/2018 16:45:00 0.038
2018_01_14_S9 01/14/2018 16:50:00 0.0468
2018_01_14_S9 01/14/2018 16:55:00 0.0756
2018_01_14_S9 01/14/2018 17:00:00 0.0025
2018_01_14_S9 01/14/2018 17:05:00 0.0159
2018_01_14_S9 01/14/2018 17:10:00 0.4592
2018_01_14_S9 01/14/2018 17:15:00 0.0
2018_01_14_S9 01/14/2018 17:20:00 0.0
2018_01_14_S9 01/14/2018 17:25:00 0.0
2018_01_14_S9 01/14/2018 17:30:00 0.0001
2018_01_14_S9 01/14/2018 17:35:00 0.2023
2018_01_14_S9 01/14/2018 17:40:00 0.0448
2018_01_14_S9 01/14/2018 17:45:00 0.4952
2018_01_14_S9 01/14/2018 17:50:00 0.2195
2018_01_14_S9 01/14/2018 17:55:00 0.1758
2018_01_14_S9 01/14/2018 18:00:00 0.5433
2018_01_14_S9 01/14/2018 18:05:00 0.1529
2018_01_14_S9 01/14/2018 18:10:00 0.3296
2018_01_14_S9 01/14/2018 18:15:00 0.4665
2018_01_14_S9 01/14/2018 18:20:00 3.1817
2018_01_14_S9 01/14/2018 18:25:00 1.4671
2018_01_14_S9 01/14/2018 18:30:00 0.0053
2018_01_14_S9 01/14/2018 18:35:00 0.0
2018_01_14_S9 01/14/2018 18:40:00 0.0025
2018_01_14_S9 01/14/2018 18:45:00 0.9562
2018_01_14_S9 01/14/2018 18:50:00 1.9327
2018_01_14_S9 01/14/2018 18:55:00 0.1489
2018_01_14_S9 01/14/2018 19:00:00 0.5536
2018_01_14_S9 01/14/2018 19:05:00 0.0
2018_01_14_S9 01/14/2018 19:10:00 0.0
2018_01_14_S9 01/14/2018 19:15:00 0.0
2018_01_14_S9 01/14/2018 19:20:00 0.0
2018_01_14_S9 01/14/2018 19:25:00 0.0
2018_01_14_S9 01/14/2018 19:30:00 0.0
2018_01_14_S9 01/14/2018 19:35:00 0.0
2018_01_14_S9 01/14/2018 19:40:00 0.0
2018_01_14_S9 01/14/2018 19:45:00 0.0
2018_01_14_S9 01/14/2018 19:50:00 0.0
2018_01_14_S9 01/14/2018 19:55:00 0.0
2018_01_14_S9 01/14/2018 20:00:00 0.0
2018_01_14_S9 01/14/2018 20:05:00 0.0
2018_01_14_S9 01/14/2018 20:10:00 0.0
2018_01_14_S9 01/14/2018 20:15:00 0.0
2018_01_14_S9 01/14/2018 20:20:00 0.0
2018_01_14_S9 01/14/2018 20:25:00 0.0
2018_01_14_S9 01/14/2018 20:30:00 0.0
2018_01_14_S9 01/14/2018 20:35:00 0.0
2018_01_14_S9 01/14/2018 20:40:00 0.0
2018_01_14_S9 01/14/2018 20:45:00 0.0
2018_01_14_S9 01/14/2018 20:50:00 0.0
2018_01_14_S9 01/14/2018 20:55:00 0.0
2018_01_14_S9 01/14/2018 21:00:00 0.0
2018_01_14_S9 01/14/2018 21:05:00 0.0
2018_01_14_S9 01/14/2018 21:10:00 0.0
2018_01_14_S9 01/14/2018 21:15:00 0.0
2018_01_14_S9 01/14/2018 21:20:00 0.0
2018_01_14_S9 01/14/2018 21:25:00 0.0
2018_01_14_S9 01/14/2018 21:30:00 0.0
2018_01_14_S9 01/14/2018 21:35:00 0.0
2018_01_14_S9 01/14/2018 21:40:00 0.0
2018_01_14_S9 01/14/2018 21:45:00 0.0
2018_01_14_S9 01/14/2018 21:50:00 0.0
2018_01_14_S9 01/14/2018 21:55:00 0.0
2018_01_14_S9 01/14/2018 22:00:00 0.0
2018_01_14_S9 01/14/2018 22:05:00 0.0
2018_01_14_S9 01/14/2018 22:10:00 0.0
2018_01_14_S9 01/14/2018 22:15:00 0.0
2018_01_14_S9 01/14/2018 22:20:00 0.0
2018_01_14_S9 01/14/2018 22:25:00 0.0
2018_01_14_S9 01/14/2018 22:30:00 0.0
2018_01_14_S9 01/14/2018 22:35:00 0.0
2018_01_14_S9 01/14/2018 22:40:00 0.0097
2018_01_14_S9 01/14/2018 22:45:00 0.0005
2018_01_14_S9 01/14/2018 22:50:00 0.0
2018_01_14_S9 01/14/2018 22:55:00 0.0318
2018_01_14_S9 01/14/2018 23:00:00 0.0248
2018_01_14_S9 01/14/2018 23:05:00 0.0118
2018_01_14_S9 01/14/2018 23:10:00 0.0297
2018_01_14_S9 01/14/2018 23:15:00 0.0073
2018_01_14_S9 01/14/2018 23:20:00 0.0043
2018_01_14_S9 01/14/2018 23:25:00 0.0
2018_01_14_S9 01/14/2018 23:30:00 0.0
2018_01_14_S9 01/14/2018 23:35:00 0.0
2018_01_14_S9 01/14/2018 23:40:00 0.0
2018_01_14_S9 01/14/2018 23:45:00 0.0
2018_01_14_S9 01/14/2018 23:50:00 0.0
2018_01_14_S9 01/14/2018 23:55:00 0.0
2018_01_14_S9 01/15/2018 00:00:00 0.0
2018_01_14_S9 01/15/2018 00:05:00 0.0
2018_01_14_S9 01/15/2018 00:10:00 0.0
2018_01_14_S9 01/15/2018 00:15:00 0.0
2018_01_14_S9 01/15/2018 00:20:00 0.0
2018_01_14_S9 01/15/2018 00:25:00 0.0
2018_01_14_S9 01/15/2018 00:30:00 0.0
2018_01_14_S9 01/15/2018 00:35:00 0.0
2018_01_14_S9 01/15/2018 00:40:00 0.0
2018_01_14_S9 01/15/2018 00:45:00 0.0
2018_01_14_S9 01/15/2018 00:50:00 0.0
2018_01_14_S9 01/15/2018 00:55:00 0.0
2018_01_14_S9 01/15/2018 01:00:00 0.0
2018_01_14_S9 01/15/2018 01:05:00 0.0
2018_01_14_S9 01/15/2018 01:10:00 0.0
2018_01_14_S9 01/15/2018 01:15:00 0.0
2018_01_14_S9 01/15/2018 01:20:00 0.0
2018_01_14_S9 01/15/2018 01:25:00 0.0
2018_01_14_S9 01/15/2018 01:30:00 0.0
2018_01_14_S9 01/15/2018 01:35:00 0.0
2018_01_14_S9 01/15/2018 01:40:00 0.0
2018_01_14_S9 01/15/2018 01:45:00 0.0
2018_01_14_S9 01/15/2018 01:50:00 0.0
2018_01_14_S9 01/15/2018 01:55:00 0.0
2018_01_14_S9 01/15/2018 02:00:00 0.0
2018_01_14_S9 01/15/2018 02:05:00 0.0
2018_01_14_S9 01/15/2018 02:10:00 0.0
2018_01_14_S9 01/15/2018 02:15:00 0.0
2018_01_14_S9 01/15/2018 02:20:00 0.0
2018_01_14_S9 01/15/2018 02:25:00 0.0386
2018_01_14_S9 01/15/2018 02:30:00 0.0055
2018_01_14_S9 01/15/2018 02:35:00 0.0223
2018_01_14_S9 01/15/2018 02:40:00 0.1484
2018_01_14_S9 01/15/2018 02:45:00 0.1747
2018_01_14_S9 01/15/2018 02:50:00 0.0007
2018_01_14_S9 01/15/2018 02:55:00 0.0067
2018_01_14_S9 01/15/2018 03:00:00 0.0151
2018_01_14_S9 01/15/2018 03:05:00 0.0
2018_01_14_S9 01/15/2018 03:10:00 0.0
2018_01_14_S9 01/15/2018 03:15:00 0.0
2018_01_14_S9 01/15/2018 03:20:00 0.0
2018_01_14_S9 01/15/2018 03:25:00 0.0
2018_01_14_S9 01/15/2018 03:30:00 0.0
2018_01_14_S9 01/15/2018 03:35:00 0.0
2018_01_14_S9 01/15/2018 03:40:00 0.0
2018_01_14_S9 01/15/2018 03:45:00 0.0
2018_01_14_S9 01/15/2018 03:50:00 0.0
2018_01_14_S9 01/15/2018 03:55:00 0.0
2018_01_14_S9 01/15/2018 04:00:00 0.0
2018_01_14_S9 01/15/2018 04:05:00 0.0
2018_01_14_S9 01/15/2018 04:10:00 0.0
2018_01_14_S9 01/15/2018 04:15:00 0.0
2018_01_14_S9 01/15/2018 04:20:00 0.0
2018_01_14_S9 01/15/2018 04:25:00 0.0
2018_01_14_S9 01/15/2018 04:30:00 0.0
2018_01_14_S9 01/15/2018 04:35:00 0.0
2018_01_14_S9 01/15/2018 04:40:00 0.0
2018_01_14_S9 01/15/2018 04:45:00 0.0
2018_01_14_S9 01/15/2018 04:50:00 0.0
2018_01_14_S9 01/15/2018 04:55:00 0.0
2018_01_14_S9 01/15/2018 05:00:00 0.0
2018_01_14_S9 01/15/2018 05:05:00 0.0
2018_01_14_S9 01/15/2018 05:10:00 0.0
2018_01_14_S9 01/15/2018 05:15:00 0.0
2018_01_14_S9 01/15/2018 05:20:00 0.0
2018_01_14_S9 01/15/2018 05:25:00 0.0
2018_01_14_S9 01/15/2018 05:30:00 0.0
2018_01_14_S9 01/15/2018 05:35:00 0.0
2018_01_14_S9 01/15/2018 05:40:00 0.0
2018_01_14_S9 01/15/2018 05:45:00 0.0
2018_01_14_S9 01/15/2018 05:50:00 0.0
2018_01_14_S9 01/15/2018 05:55:00 0.0
2018_01_14_S9 01/15/2018 06:00:00 0.0
2018_01_14_S9 01/15/2018 06:05:00 0.0
2018_01_14_S9 01/15/2018 06:10:00 0.0
2018_01_14_S9 01/15/2018 06:15:00 0.002
2018_01_14_S9 01/15/2018 06:20:00 0.0177
2018_01_14_S9 01/15/2018 06:25:00 0.097
2018_01_14_S9 01/15/2018 06:30:00 0.0011
2018_01_14_S9 01/15/2018 06:35:00 0.0
2018_01_14_S9 01/15/2018 06:40:00 0.0
2018_01_14_S9 01/15/2018 06:45:00 0.0
2018_01_14_S9 01/15/2018 06:50:00 0.0
2018_01_14_S9 01/15/2018 06:55:00 0.0
2018_01_14_S9 01/15/2018 07:00:00 0.0
2018_01_14_S9 01/15/2018 07:05:00 0.0
2018_01_14_S9 01/15/2018 07:10:00 0.0
2018_01_14_S9 01/15/2018 07:15:00 0.0
2018_01_14_S9 01/15/2018 07:20:00 0.0
2018_01_14_S9 01/15/2018 07:25:00 0.0002
2018_01_14_S9 01/15/2018 07:30:00 0.0
2018_01_14_S9 01/15/2018 07:35:00 0.0
2018_01_14_S9 01/15/2018 07:40:00 0.0
2018_01_14_S9 01/15/2018 07:45:00 0.0
2018_01_14_S9 01/15/2018 07:50:00 0.0
2018_01_14_S9 01/15/2018 07:55:00 0.0
2018_01_14_S9 01/15/2018 08:00:00 0.0

2018_01_14_S10 01/13/2018 08:00:00 0.0
2018_01_14_S10 01/13/2018 08:05:00 0.0
2018_01_14_S10 01/13/2018 08:10:00 0.0
2018_01_14_S10 01/13/2018 08:15:00 0.0
2018_01_14_S10 01/13/2018 08:20:00 0.0
2018_01_14_S10 01/13/2018 08:25:00 0.0
2018_01_14_S10 01/13/2018 08:30:00 0.0
2018_01_14_S10 01/13/2018 08:35:00 0.0
2018_01_14_S10 01/13/2018 08:40:00 0.0
2018_01_14_S10 01/13/2018 08:45:00 0.0
2018_01_14_S10 01/13/2018 08:50:00 0.0
2018_01_14_S10 01/13/2018 08:55:00 0.0
2018_01_14_S10 01/13/2018 09:00:00 0.0
2018_01_14_S10 01/13/2018 09:05:00 0.0
2018_01_14_S10 01/13/2018 09:10:00 0.0
2018_01_14_S10 01/13/2018 09:15:00 0.0
2018_01_14_S10 01/13/2018 09:20:00 0.0
2018_01_14_S10 01/13/2018 09:25:00 0.0
2018_01_14_S10 01/13/2018 09:30:00 0.0
2018_01_14_S10 01/13/2018 09:35:00 0.0
2018_01_14_S10 01/13/2018 09:40:00 0.0
2018_01_14_S10 01/13/2018 09:45:00 0.0
2018_01_14_S10 01/13/2018 09:50:00 0.0
2018_01_14_S10 01/13/2018 09:55:00 0.0
2018_01_14_S10 01/13/2018 10:00:00 0.0
2018_01_14_S10 01/13/2018 10:05:00 0.0
2018_01_14_S10 01/13/2018 10:10:00 0.0
2018_01_14_S10 01/13/2018 10:15:00 0.0
2018_01_14_S10 01/13/2018 10:20:00 0.0
2018_01_14_S10 01/13/2018 10:25:00 0.0
2018_01_14_S10 01/13/2018 10:30:00 0.0
2018_01_14_S10 01/13/2018 10:35:00 0.0
2018_01_14_S10 01/13/2018 10:40:00 0.0
2018_01_14_S10 01/13/2018 10:45:00 0.0
2018_01_14_S10 01/13/2018 10:50:00 0.0
2018_01_14_S10 01/13/2018 10:55:00 0.0
2018_01_14_S10 01/13/2018 11:00:00 0.0
2018_01_14_S10 01/13/2018 11:05:00 0.0
2018_01_14_S10 01/13/2018 11:10:00 0.0
2018_01_14_S10 01/13/2018 11:15:00 0.0
2018_01_14_S10 01/13/2018 11:20:00 0.0
2018_01_14_S10 01/13/2018 11:25:00 0.0
2018_01_14_S10 01/13/2018 11:30:00 0.0
2018_01_14_S10 01/13/2018 11:35:00 0.0
2018_01_14_S10 01/13/2018 11:40:00 0.0
2018_01_14_S10 01/13/2018 11:45:00 0.0
2018_01_14_S10 01/13/2018 11:50:00 0.0
2018_01_14_S10 01/13/2018 11:55:00 0.0
2018_01_14_S10 01/13/2018 12:00:00 0.0
2018_01_14_S10 01/13/2018 12:05:00 0.0
2018_01_14_S10 01/13/2018 12:10:00 0.0
2018_01_14_S10 01/13/2018 12:15:00 0.0
2018_01_14_S10 01/13/2018 12:20:00 0.0
2018_01_14_S10 01/13/2018 12:25:00 0.0
2018_01_14_S10 01/13/2018 12:30:00 0.0
2018_01_14_S10 01/13/2018 12:35:00 0.0
2018_01_14_S10 01/13/2018 12:40:00 0.0
2018_01_14_S10 01/13/2018 12:45:00 0.0
2018_01_14_S10 01/13/2018 12:50:00 0.0
2018_01_14_S10 01/13/2018 12:55:00 0.0
2018_01_14_S10 01/13/2018 13:00:00 0.0
2018_01_14_S10 01/13/2018 13:05:00 0.0
2018_01_14_S10 01/13/2018 13:10:00 0.0
2018_01_14_S10 01/13/2018 13:15:00 0.0
2018_01_14_S10 01/13/2018 13:20:00 0.0
2018_01_14_S10 01/13/2018 13:25:00 0.0
2018_01_14_S10 01/13/2018 13:30:00 0.0
2018_01_14_S10 01/13/2018 13:35:00 0.0
2018_01_14_S10 01/13/2018 13:40:00 0.0
2018_01_14_S10 01/13/2018 13:45:00 0.0
2018_01_14_S10 01/13/2018 13:50:00 0.0
2018_01_14_S10 01/13/2018 13:55:00 0.0
2018_01_14_S10 01/13/2018 14:00:00 0.0
2018_01_14_S10 01/13/2018 14:05:00 0.0
2018_01_14_S10 01/13/2018 14:10:00 0.0
2018_01_14_S10 01/13/2018 14:15:00 0.0
2018_01_14_S10 01/13/2018 14:20:00 0.0
2018_01_14_S10 01/13/2018 14:25:00 0.0
2018_01_14_S10 01/13/2018 14:30:00 0.0
2018_01_14_S10 01/13/2018 14:35:00 0.0
2018_01_14_S10 01/13/2018 14:40:00 0.0
2018_01_14_S10 01/13/2018 14:45:00 0.0
2018_01_14_S10 01/13/2018 14:50:00 0.0
2018_01_14_S10 01/13/2018 14:55:00 0.0
2018_01_14_S10 01/13/2018 15:00:00 0.0
2018_01_14_S10 01/13/2018 15:05:00 0.0
2018_01_14_S10 01/13/2018 15:10:00 0.0
2018_01_14_S10 01/13/2018 15:15:00 0.0
2018_01_14_S10 01/13/2018 15:20:00 0.0
2018_01_14_S10 01/13/2018 15:25:00 0.0
2018_01_14_S10 01/13/2018 15:30:00 0.0
2018_01_14_S10 01/13/2018 15:35:00 0.0
2018_01_14_S10 01/13/2018 15:40:00 0.0
2018_01_14_S10 01/13/2018 15:45:00 0.0
2018_01_14_S10 01/13/2018 15:50:00 0.0
2018_01_14_S10 01/13/2018 15:55:00 0.0
2018_01_14_S10 01/13/2018 16:00:00 0.0
2018_01_14_S10 01/13/2018 16:05:00 0.0
2018_01_14_S10 01/13/2018 16:10:00 0.0
2018_01_14_S10 01/13/2018 16:15:00 0.0
2018_01_14_S10 01/13/2018 16:20:00 0.0
2018_01_14_S10 01/13/2018 16:25:00 0.0
2018_01_14_S10 01/13/2018 16:30:00 0.0
2018_01_14_S10 01/13/2018 16:35:00 0.0
2018_01_14_S10 01/13/2018 16:40:00 0.0
2018_01_14_S10 01/13/2018 16:45:00 0.0
2018_01_14_S10 01/13/2018 16:50:00 0.0
2018_01_14_S10 01/13/2018 16:55:00 0.0
2018_01_14_S10 01/13/2018 17:00:00 0.0
2018_01_14_S10 01/13/2018 17:05:00 0.0
2018_01_14_S10 01/13/2018 17:10:00 0.0
2018_01_14_S10 01/13/2018 17:15:00 0.0
2018_01_14_S10 01/13/2018 17:20:00 0.0
2018_01_14_S10 01/13/2018 17:25:00 0.0
2018_01_14_S10 01/13/2018 17:30:00 0.0
2018_01_14_S10 01/13/2018 17:35:00 0.0
2018_01_14_S10 01/13/2018 17:40:00 0.0
2018_01_14_S10 01/13/2018 17:45:00 0.0
2018_01_14_S10 01/13/2018 17:50:00 0.0
2018_01_14_S10 01/13/2018 17:55:00 0.0
2018_01_14_S10 01/13/2018 18:00:00 0.0
2018_01_14_S10 01/13/2018 18:05:00 0.0
2018_01_14_S10 01/13/2018 18:10:00 0.0
2018_01_14_S10 01/13/2018 18:15:00 0.0
2018_01_14_S10 01/13/2018 18:20:00 0.0
2018_01_14_S10 01/13/2018 18:25:00 0.0
2018_01_14_S10 01/13/2018 18:30:00 0.0
2018_01_14_S10 01/13/2018 18:35:00 0.0
2018_01_14_S10 01/13/2018 18:40:00 0.0
2018_01_14_S10 01/13/2018 18:45:00 0.0
2018_01_14_S10 01/13/2018 18:50:00 0.0
2018_01_14_S10 01/13/2018 18:55:00 0.0
2018_01_14_S10 01/13/2018 19:00:00 0.0
2018_01_14_S10 01/13/2018 19:05:00 0.0
2018_01_14_S10 01/13/2018 19:10:00 0.0
2018_01_14_S10 01/13/2018 19:15:00 0.0
2018_01_14_S10 01/13/2018 19:20:00 0.0
2018_01_14_S10 01/13/2018 19:25:00 0.0
2018_01_14_S10 01/13/2018 19:30:00 0.0
2018_01_14_S10 01/13/2018 19:35:00 0.0
2018_01_14_S10 01/13/2018 19:40:00 0.0
2018_01_14_S10 01/13/2018 19:45:00 0.0
2018_01_14_S10 01/13/2018 19:50:00 0.0
2018_01_14_S10 01/13/2018 19:55:00 0.0
2018_01_14_S10 01/13/2018 20:00:00 0.0
2018_01_14_S10 01/13/2018 20:05:00 0.0
2018_01_14_S10 01/13/2018 20:10:00 0.0
2018_01_14_S10 01/13/2018 20:15:00 0.0
2018_01_14_S10 01/13/2018 20:20:00 0.0
2018_01_14_S10 01/13/2018 20:25:00 0.0
2018_01_14_S10 01/13/2018 20:30:00 0.0
2018_01_14_S10 01/13/2018 20:35:00 0.0
2018_01_14_S10 01/13/2018 20:40:00 0.0
2018_01_14_S10 01/13/2018 20:45:00 0.0
2018_01_14_S10 01/13/2018 20:50:00 0.0
2018_01_14_S10 01/13/2018 20:55:00 0.0
2018_01_14_S10 01/13/2018 21:00:00 0.0
2018_01_14_S10 01/13/2018 21:05:00 0.0
2018_01_14_S10 01/13/2018 21:10:00 0.0
2018_01_14_S10 01/13/2018 21:15:00 0.0
2018_01_14_S10 01/13/2018 21:20:00 0.0
2018_01_14_S10 01/13/2018 21:25:00 0.0
2018_01_14_S10 01/13/2018 21:30:00 0.0
2018_01_14_S10 01/13/2018 21:35:00 0.0
2018_01_14_S10 01/13/2018 21:40:00 0.0
2018_01_14_S10 01/13/2018 21:45:00 0.0
2018_01_14_S10 01/13/2018 21:50:00 0.0
2018_01_14_S10 01/13/2018 21:55:00 0.0
2018_01_14_S10 01/13/2018 22:00:00 0.0
2018_01_14_S10 01/13/2018 22:05:00 0.0
2018_01_14_S10 01/13/2018 22:10:00 0.0
2018_01_14_S10 01/13/2018 22:15:00 0.0
2018_01_14_S10 01/13/2018 22:20:00 0.0
2018_01_14_S10 01/13/2018 22:25:00 0.0
2018_01_14_S10 01/13/2018 22:30:00 0.0
2018_01_14_S10 01/13/2018 22:35:00 0.0
2018_01_14_S10 01/13/2018 22:40:00 0.0
2018_01_14_S10 01/13/2018 22:45:00 0.0
2018_01_14_S10 01/13/2018 22:50:00 0.0
2018_01_14_S10 01/13/2018 22:55:00 0.0
2018_01_14_S10 01/13/2018 23:00:00 0.0
2018_01_14_S10 01/13/2018 23:05:00 0.0
2018_01_14_S10 01/13/2018 23:10:00 0.0
2018_01_14_S10 01/13/2018 23:15:00 0.0
2018_01_14_S10 01/13/2018 23:20:00 0.0
2018_01_14_S10 01/13/2018 23:25:00 0.0
2018_01_14_S10 01/13/2018 23:30:00 0.0
2018_01_14_S10 01/13/2018 23:35:00 0.0
2018_01_14_S10 01/13/2018 23:40:00 0.0
2018_01_14_S10 01/13/2018 23:45:00 0.0
2018_01_14_S10 01/13/2018 23:50:00 0.0
2018_01_14_S10 01/13/2018 23:55:00 0.0
2018_01_14_S10 01/14/2018 00:00:00 0.0
2018_01_14_S10 01/14/2018 00:05:00 0.0
2018_01_14_S10 01/14/2018 00:10:00 0.0
2018_01_14_S10 01/14/2018 00:15:00 0.0
2018_01_14_S10 01/14/2018 00:20:00 0.0
2018_01_14_S10 01/14/2018 00:25:00 0.0
2018_01_14_S10 01/14/2018 00:30:00 0.0
2018_01_14_S10 01/14/2018 00:35:00 0.0
2018_01_14_S10 01/14/2018 00:40:00 0.0
2018_01_14_S10 01/14/2018 00:45:00 0.0
2018_01_14_S10 01/14/2018 00:50:00 0.0
2018_01_14_S10 01/14/2018 00:55:00 0.0
2018_01_14_S10 01/14/2018 01:00:00 0.0
2018_01_14_S10 01/14/2018 01:05:00 0.0
2018_01_14_S10 01/14/2018 01:10:00 0.0
2018_01_14_S10 01/14/2018 01:15:00 0.0
2018_01_14_S10 01/14/2018 01:20:00 0.0
2018_01_14_S10 01/14/2018 01:25:00 0.0
2018_01_14_S10 01/14/2018 01:30:00 0.0
2018_01_14_S10 01/14/2018 01:35:00 0.0
2018_01_14_S10 01/14/2018 01:40:00 0.0
2018_01_14_S10 01/14/2018 01:45:00 0.0
2018_01_14_S10 01/14/2018 01:50:00 0.0
2018_01_14_S10 01/14/2018 01:55:00 0.0
2018_01_14_S10 01/14/2018 02:00:00 0.0
2018_01_14_S10 01/14/2018 02:05:00 0.0
2018_01_14_S10 01/14/2018 02:10:00 0.0
2018_01_14_S10 01/14/2018 02:15:00 0.0
2018_01_14_S10 01/14/2018 02:20:00 0.0
2018_01_14_S10 01/14/2018 02:25:00 0.0
2018_01_14_S10 01/14/2018 02:30:00 0.0
2018_01_14_S10 01/14/2018 02:35:00 0.0
2018_01_14_S10 01/14/2018 02:40:00 0.0
2018_01_14_S10 01/14/2018 02:45:00 0.0
2018_01_14_S10 01/14/2018 02:50:00 0.0
2018_01_14_S10 01/14/2018 02:55:00 0.0
2018_01_14_S10 01/14/2018 03:00:00 0.0109
2018_01_14_S10 01/14/2018 03:05:00 0.0914
2018_01_14_S10 01/14/2018 03:10:00 0.0003
2018_01_14_S10 01/14/2018 03:15:00 0.0
2018_01_14_S10 01/14/2018 03:20:00 0.0
2018_01_14_S10 01/14/2018 03:25:00 0.0
2018_01_14_S10 01/14/2018 03:30:00 0.0
2018_01_14_S10 01/14/2018 03:35:00 0.0
2018_01_14_S10 01/14/2018 03:40:00 0.0
2018_01_14_S10 01/14/2018 03:45:00 0.0
2018_01_14_S10 01/14/2018 03:50:00 0.0
2018_01_14_S10 01/14/2018 03:55:00 0.0
2018_01_14_S10 01/14/2018 04:00:00 0.0
2018_01_14_S10 01/14/2018 04:05:00 0.0
2018_01_14_S10 01/14/2018 04:10:00 0.0
2018_01_14_S10 01/14/2018 04:15:00 0.0
2018_01_14_S10 01/14/2018 04:20:00 0.0
2018_01_14_S10 01/14/2018 04:25:00 0.0
2018_01_14_S10 01/14/2018 04:30:00 0.0
2018_01_14_S10 01/14/2018 04:35:00 0.0
2018_01_14_S10 01/14/2018 04:40:00 0.0
2018_01_14_S10 01/14/2018 04:45:00 0.0
2018_01_14_S10 01/14/2018 04:50:00 0.0
2018_01_14_S10 01/14/2018 04:55:00 0.0
2018_01_14_S10 01/14/2018 05:00:00 0.0
2018_01_14_S10 01/14/2018 05:05:00 0.0
2018_01_14_S10 01/14/2018 05:10:00 0.0
2018_01_14_S10 01/14/2018 05:15:00 0.0
2018_01_14_S10 01/14/2018 05:20:00 0.0
2018_01_14_S10 01/14/2018 05:25:00 0.0
2018_01_14_S10 01/14/2018 05:30:00 0.0
2018_01_14_S10 01/14/2018 05:35:00 0.0
2018_01_14_S10 01/14/2018 05:40:00 0.0
2018_01_14_S10 01/14/2018 05:45:00 0.0
2018_01_14_S10 01/14/2018 05:50:00 0.0
2018_01_14_S10 01/14/2018 05:55:00 0.0084
2018_01_14_S10 01/14/2018 06:00:00 0.5373
2018_01_14_S10 01/14/2018 06:05:00 2.1595
2018_01_14_S10 01/14/2018 06:10:00 0.0296
2018_01_14_S10 01/14/2018 06:15:00 0.0065
2018_01_14_S10 01/14/2018 06:20:00 1.8572
2018_01_14_S10 01/14/2018 06:25:00 0.0222
2018_01_14_S10 01/14/2018 06:30:00 0.0001
2018_01_14_S10 01/14/2018 06:35:00 0.0
2018_01_14_S10 01/14/2018 06:40:00 0.0
2018_01_14_S10 01/14/2018 06:45:00 0.0
2018_01_14_S10 01/14/2018 06:50:00 0.0
2018_01_14_S10 01/14/2018 06:55:00 0.0
2018_01_14_S10 01/14/2018 07:00:00 0.0
2018_01_14_S10 01/14/2018 07:05:00 0.0
2018_01_14_S10 01/14/2018 07:10:00 0.0
2018_01_14_S10 01/14/2018 07:15:00 0.0
2018_01_14_S10 01/14/2018 07:20:00 0.0
2018_01_14_S10 01/14/2018 07:25:00 0.0
2018_01_14_S10 01/14/2018 07:30:00 0.0
2018_01_14_S10 01/14/2018 07:35:00 0.0
2018_01_14_S10 01/14/2018 07:40:00 0.0
2018_01_14_S10 01/14/2018 07:45:00 0.0
2018_01_14_S10 01/14/2018 07:50:00 0.0294
2018_01_14_S10 01/14/2018 07:55:00 0.0
2018_01_14_S10 01/14/2018 08:00:00 0.0
2018_01_14_S10 01/14/2018 08:05:00 0.0
2018_01_14_S10 01/14/2018 08:10:00 0.0
2018_01_14_S10 01/14/2018 08:15:00 0.0
2018_01_14_S10 01/14/2018 08:20:00 0.0
2018_01_14_S10 01/14/2018 08:25:00 0.0226
2018_01_14_S10 01/14/2018 08:30:00 0.07
2018_01_14_S10 01/14/2018 08:35:00 0.1776
2018_01_14_S10 01/14/2018 08:40:00 0.0
2018_01_14_S10 01/14/2018 08:45:00 0.0
2018_01_14_S10 01/14/2018 08:50:00 0.0
2018_01_14_S10 01/14/2018 08:55:00 0.0
2018_01_14_S10 01/14/2018 09:00:00 0.0
2018_01_14_S10 01/14/2018 09:05:00 0.0
2018_01_14_S10 01/14/2018 09:10:00 0.0
2018_01_14_S10 01/14/2018 09:15:00 0.0
2018_01_14_S10 01/14/2018 09:20:00 0.0
2018_01_14_S10 01/14/2018 09:25:00 0.0
2018_01_14_S10 01/14/2018 09:30:00 0.0
2018_01_14_S10 01/14/2018 09:35:00 0.0
2018_01_14_S10 01/14/2018 09:40:00 0.0
2018_01_14_S10 01/14/2018 09:45:00 0.0
2018_01_14_S10 01/14/2018 09:50:00 0.0
2018_01_14_S10 01/14/2018 09:55:00 0.0
2018_01_14_S10 01/14/2018 10:00:00 0.0
2018_01_14_S10 01/14/2018 10:05:00 0.0
2018_01_14_S10 01/14/2018 10:10:00 0.0
2018_01_14_S10 01/14/2018 10:15:00 0.0
2018_01_14_S10 01/14/2018 10:20:00 0.0
2018_01_14_S10 01/14/2018 10:25:00 0.0
2018_01_14_S10 01/14/2018 10:30:00 0.0
2018_01_14_S10 01/14/2018 10:35:00 0.0
2018_01_14_S10 01/14/2018 10:40:00 0.0
2018_01_14_S10 01/14/2018 10:45:00 0.0
2018_01_14_S10 01/14/2018 10:50:00 0.0
2018_01_14_S10 01/14/2018 10:55:00 0.0
2018_01_14_S10 01/14/2018 11:00:00 0.0
2018_01_14_S10 01/14/2018 11:05:00 0.0
2018_01_14_S10 01/14/2018 11:10:00 0.0
2018_01_14_S10 01/14/2018 11:15:00 0.0
2018_01_14_S10 01/14/2018 11:20:00 0.0
2018_01_14_S10 01/14/2018 11:25:00 0.0
2018_01_14_S10 01/14/2018 11:30:00 0.0
2018_01_14_S10 01/14/2018 11:35:00 0.0
2018_01_14_S10 01/14/2018 11:40:00 0.0
2018_01_14_S10 01/14/2018 11:45:00 0.0
2018_01_14_S10 01/14/2018 11:50:00 0.0
2018_01_14_S10 01/14/2018 11:55:00 0.0
2018_01_14_S10 01/14/2018 12:00:00 0.0
2018_01_14_S10 01/14/2018 12:05:00 0.0
2018_01_14_S10 01/14/2018 12:10:00 0.0
2018_01_14_S10 01/14/2018 12:15:00 0.0
2018_01_14_S10 01/14/2018 12:20:00 0.0
2018_01_14_S10 01/14/2018 12:25:00 0.0
2018_01_14_S10 01/14/2018 12:30:00 0.0
2018_01_14_S10 01/14/2018 12:35:00 0.0
2018_01_14_S10 01/14/2018 12:40:00 0.0
2018_01_14_S10 01/14/2018 12:45:00 0.0
2018_01_14_S10 01/14/2018 12:50:00 0.0
2018_01_14_S10 01/14/2018 12:55:00 0.0
2018_01_14_S10 01/14/2018 13:00:00 0.0
2018_01_14_S10 01/14/2018 13:05:00 0.0
2018_01_14_S10 01/14/2018 13:10:00 0.0
2018_01_14_S10 01/14/2018 13:15:00 0.0
2018_01_14_S10 01/14/2018 13:20:00 0.0
2018_01_14_S10 01/14/2018 13:25:00 0.0
2018_01_14_S10 01/14/2018 13:30:00 0.0
2018_01_14_S10 01/14/2018 13:35:00 0.0
2018_01_14_S10 01/14/2018 13:40:00 0.0
2018_01_14_S10 01/14/2018 13:45:00 0.0
2018_01_14_S10 01/14/2018 13:50:00 0.0
2018_01_14_S10 01/14/2018 13:55:00 0.0
2018_01_14_S10 01/14/2018 14:00:00 0.0
2018_01_14_S10 01/14/2018 14:05:00 0.0
2018_01_14_S10 01/14/2018 14:10:00 0.0
2018_01_14_S10 01/14/2018 14:15:00 0.0
2018_01_14_S10 01/14/2018 14:20:00 0.0
2018_01_14_S10 01/14/2018 14:25:00 0.0
2018_01_14_S10 01/14/2018 14:30:00 0.0
2018_01_14_S10 01/14/2018 14:35:00 0.0
2018_01_14_S10 01/14/2018 14:40:00 0.0
2018_01_14_S10 01/14/2018 14:45:00 0.0
2018_01_14_S10 01/14/2018 14:50:00 0.0
2018_01_14_S10 01/14/2018 14:55:00 0.0
2018_01_14_S10 01/14/2018 15:00:00 0.0
2018_01_14_S10 01/14/2018 15:05:00 0.0
2018_01_14_S10 01/14/2018 15:10:00 0.0
2018_01_14_S10 01/14/2018 15:15:00 0.0
2018_01_14_S10 01/14/2018 15:20:00 0.0
2018_01_14_S10 01/14/2018 15:25:00 0.0
2018_01_14_S10 01/14/2018 15:30:00 0.0
2018_01_14_S10 01/14/2018 15:35:00 0.0
2018_01_14_S10 01/14/2018 15:40:00 0.0
2018_01_14_S10 01/14/2018 15:45:00 0.0
2018_01_14_S10 01/14/2018 15:50:00 0.0
2018_01_14_S10 01/14/2018 15:55:00 0.0
2018_01_14_S10 01/14/2018 16:00:00 0.0
2018_01_14_S10 01/14/2018 16:05:00 0.0
2018_01_14_S10 01/14/2018 16:10:00 0.0
2018_01_14_S10 01/14/2018 16:15:00 0.0
2018_01_14_S10 01/14/2018 16:20:00 0.0
2018_01_14_S10 01/14/2018 16:25:00 0.0
2018_01_14_S10 01/14/2018 16:30:00 0.0
2018_01_14_S10 01/14/2018 16:35:00 0.0
2018_01_14_S10 01/14/2018 16:40:00 0.0067
2018_01_14_S10 01/14/2018 16:45:00 0.0556
2018_01_14_S10 01/14/2018 16:50:00 0.0229
2018_01_14_S10 01/14/2018 16:55:00 0.0164
2018_01_14_S10 01/14/2018 17:00:00 0.0009
2018_01_14_S10 01/14/2018 17:05:00 0.0197
2018_01_14_S10 01/14/2018 17:10:00 0.1672
2018_01_14_S10 01/14/2018 17:15:00 0.0
2018_01_14_S10 01/14/2018 17:20:00 0.0
2018_01_14_S10 01/14/2018 17:25:00 0.0
2018_01_14_S10 01/14/2018 17:30:00 0.0027
2018_01_14_S10 01/14/2018 17:35:00 0.1383
2018_01_14_S10 01/14/2018 17:40:00 0.1061
2018_01_14_S10 01/14/2018 17:45:00 0.4131
2018_01_14_S10 01/14/2018 17:50:00 0.1889
2018_01_14_S10 01/14/2018 17:55:00 0.3536
2018_01_14_S10 01/14/2018 18:00:00 0.6513
2018_01_14_S10 01/14/2018 18:05:00 0.1034
2018_01_14_S10 01/14/2018 18:10:00 0.1372
2018_01_14_S10 01/14/2018 18:15:00 0.5259
2018_01_14_S10 01/14/2018 18:20:00 3.0808
2018_01_14_S10 01/14/2018 18:25:00 2.4295
2018_01_14_S10 01/14/2018 18:30:00 0.0003
2018_01_14_S10 01/14/2018 18:35:00 0.0
2018_01_14_S10 01/14/2018 18:40:00 0.0109
2018_01_14_S10 01/14/2018 18:45:00 0.3072
2018_01_14_S10 01/14/2018 18:50:00 1.2415
2018_01_14_S10 01/14/2018 18:55:00 0.1125
2018_01_14_S10 01/14/2018 19:00:00 0.1602
2018_01_14_S10 01/14/2018 19:05:00 0.0
2018_01_14_S10 01/14/2018 19:10:00 0.0
2018_01_14_S10 01/14/2018 19:15:00 0.0
2018_01_14_S10 01/14/2018 19:20:00 0.0
2018_01_14_S10 01/14/2018 19:25:00 0.0
2018_01_14_S10 01/14/2018 19:30:00 0.0
2018_01_14_S10 01/14/2018 19:35:00 0.0
2018_01_14_S10 01/14/2018 19:40:00 0.0
2018_01_14_S10 01/14/2018 19:45:00 0.0
2018_01_14_S10 01/14/2018 19:50:00 0.0
2018_01_14_S10 01/14/2018 19:55:00 0.0
2018_01_14_S10 01/14/2018 20:00:00 0.0
2018_01_14_S10 01/14/2018 20:05:00 0.0
2018_01_14_S10 01/14/2018 20:10:00 0.0
2018_01_14_S10 01/14/2018 20:15:00 0.0
2018_01_14_S10 01/14/2018 20:20:00 0.0
2018_01_14_S10 01/14/2018 20:25:00 0.0
2018_01_14_S10 01/14/2018 20:30:00 0.0
2018_01_14_S10 01/14/2018 20:35:00 0.0
2018_01_14_S10 01/14/2018 20:40:00 0.0
2018_01_14_S10 01/14/2018 20:45:00 0.0
2018_01_14_S10 01/14/2018 20:50:00 0.0
2018_01_14_S10 01/14/2018 20:55:00 0.0
2018_01_14_S10 01/14/2018 21:00:00 0.0
2018_01_14_S10 01/14/2018 21:05:00 0.0
2018_01_14_S10 01/14/2018 21:10:00 0.0
2018_01_14_S10 01/14/2018 21:15:00 0.0
2018_01_14_S10 01/14/2018 21:20:00 0.0
2018_01_14_S10 01/14/2018 21:25:00 0.0
2018_01_14_S10 01/14/2018 21:30:00 0.0
2018_01_14_S10 01/14/2018 21:35:00 0.0
2018_01_14_S10 01/14/2018 21:40:00 0.0
2018_01_14_S10 01/14/2018 21:45:00 0.0
2018_01_14_S10 01/14/2018 21:50:00 0.0
2018_01_14_S10 01/14/2018 21:55:00 0.0
2018_01_14_S10 01/14/2018 22:00:00 0.0
2018_01_14_S10 01/14/2018 22:05:00 0.0
2018_01_14_S10 01/14/2018 22:10:00 0.0
2018_01_14_S10 01/14/2018 22:15:00 0.0
2018_01_14_S10 01/14/2018 22:20:00 0.0
2018_01_14_S10 01/14/2018 22:25:00 0.0
2018_01_14_S10 01/14/2018 22:30:00 0.0
2018_01_14_S10 01/14/2018 22:35:00 0.0
2018_01_14_S10 01/14/2018 22:40:00 0.0105
2018_01_14_S10 01/14/2018 22:45:00 0.0072
2018_01_14_S10 01/14/2018 22:50:00 0.0
2018_01_14_S10 01/14/2018 22:55:00 0.0108
2018_01_14_S10 01/14/2018 23:00:00 0.0648
2018_01_14_S10 01/14/2018 23:05:00 0.0579
2018_01_14_S10 01/14/2018 23:10:00 0.028
2018_01_14_S10 01/14/2018 23:15:00 0.0124
2018_01_14_S10 01/14/2018 23:20:00 0.0037
2018_01_14_S10 01/14/2018 23:25:00 0.0
2018_01_14_S10 01/14/2018 23:30:00 0.0
2018_01_14_S10 01/14/2018 23:35:00 0.0
2018_01_14_S10 01/14/2018 23:40:00 0.0
2018_01_14_S10 01/14/2018 23:45:00 0.0
2018_01_14_S10 01/14/2018 23:50:00 0.0
2018_01_14_S10 01/14/2018 23:55:00 0.0
2018_01_14_S10 01/15/2018 00:00:00 0.0
2018_01_14_S10 01/15/2018 00:05:00 0.0
2018_01_14_S10 01/15/2018 00:10:00 0.0
2018_01_14_S10 01/15/2018 00:15:00 0.0
2018_01_14_S10 01/15/2018 00:20:00 0.0
2018_01_14_S10 01/15/2018 00:25:00 0.0
2018_01_14_S10 01/15/2018 00:30:00 0.0
2018_01_14_S10 01/15/2018 00:35:00 0.0
2018_01_14_S10 01/15/2018 00:40:00 0.0
2018_01_14_S10 01/15/2018 00:45:00 0.0
2018_01_14_S10 01/15/2018 00:50:00 0.0
2018_01_14_S10 01/15/2018 00:55:00 0.0
2018_01_14_S10 01/15/2018 01:00:00 0.0
2018_01_14_S10 01/15/2018 01:05:00 0.0
2018_01_14_S10 01/15/2018 01:10:00 0.0
2018_01_14_S10 01/15/2018 01:15:00 0.0
2018_01_14_S10 01/15/2018 01:20:00 0.0
2018_01_14_S10 01/15/2018 01:25:00 0.0
2018_01_14_S10 01/15/2018 01:30:00 0.0
2018_01_14_S10 01/15/2018 01:35:00 0.0
2018_01_14_S10 01/15/2018 01:40:00 0.0
2018_01_14_S10 01/15/2018 01:45:00 0.0
2018_01_14_S10 01/15/2018 01:50:00 0.0
2018_01_14_S10 01/15/2018 01:55:00 0.0
2018_01_14_S10 01/15/2018 02:00:00 0.0
2018_01_14_S10 01/15/2018 02:05:00 0.0
2018_01_14_S10 01/15/2018 02:10:00 0.0
2018_01_14_S10 01/15/2018 02:15:00 0.0
2018_01_14_S10 01/15/2018 02:20:00 0.0014
2018_01_14_S10 01/15/2018 02:25:00 0.0269
2018_01_14_S10 01/15/2018 02:30:00 0.0004
2018_01_14_S10 01/15/2018 02:35:00 0.0387
2018_01_14_S10 01/15/2018 02:40:00 0.1158
2018_01_14_S10 01/15/2018 02:45:00 0.1118
2018_01_14_S10 01/15/2018 02:50:00 0.006
2018_01_14_S10 01/15/2018 02:55:00 0.0062
2018_01_14_S10 01/15/2018 03:00:00 0.0174
2018_01_14_S10 01/15/2018 03:05:00 0.0
2018_01_14_S10 01/15/2018 03:10:00 0.0
2018_01_14_S10 01/15/2018 03:15:00 0.0
2018_01_14_S10 01/15/2018 03:20:00 0.0
2018_01_14_S10 01/15/2018 03:25:00 0.0
2018_01_14_S10 01/15/2018 03:30:00 0.0
2018_01_14_S10 01/15/2018 03:35:00 0.0
2018_01_14_S10 01/15/2018 03:40:00 0.0
2018_01_14_S10 01/15/2018 03:45:00 0.0
2018_01_14_S10 01/15/2018 03:50:00 0.0
2018_01_14_S10 01/15/2018 03:55:00 0.0
2018_01_14_S10 01/15/2018 04:00:00 0.0
2018_01_14_S10 01/15/2018 04:05:00 0.0
2018_01_14_S10 01/15/2018 04:10:00 0.0
2018_01_14_S10 01/15/2018 04:15:00 0.0
2018_01_14_S10 01/15/2018 04:20:00 0.0
2018_01_14_S10 01/15/2018 04:25:00 0.0
2018_01_14_S10 01/15/2018 04:30:00 0.0
2018_01_14_S10 01/15/2018 04:35:00 0.0
2018_01_14_S10 01/15/2018 04:40:00 0.0
2018_01_14_S10 01/15/2018 04:45:00 0.0
2018_01_14_S10 01/15/2018 04:50:00 0.0
2018_01_14_S10 01/15/2018 04:55:00 0.0
2018_01_14_S10 01/15/2018 05:00:00 0.0
2018_01_14_S10 01/15/2018 05:05:00 0.0
2018_01_14_S10 01/15/2018 05:10:00 0.0
2018_01_14_S10 01/15/2018 05:15:00 0.0
2018_01_14_S10 01/15/2018 05:20:00 0.0
2018_01_14_S10 01/15/2018 05:25:00 0.0
2018_01_14_S10 01/15/2018 05:30:00 0.0
2018_01_14_S10 01/15/2018 05:35:00 0.0
2018_01_14_S10 01/15/2018 05:40:00 0.0
2018_01_14_S10 01/15/2018 05:45:00 0.0
2018_01_14_S10 01/15/2018 05:50:00 0.0
2018_01_14_S10 01/15/2018 05:55:00 0.0
2018_01_14_S10 01/15/2018 06:00:00 0.0
2018_01_14_S10 01/15/2018 06:05:00 0.0
2018_01_14_S10 01/15/2018 06:10:00 0.0
2018_01_14_S10 01/15/2018 06:15:00 0.001
2018_01_14_S10 01/15/2018 06:20:00 0.0233
2018_01_14_S10 01/15/2018 06:25:00 0.2172
2018_01_14_S10 01/15/2018 06:30:00 0.0238
2018_01_14_S10 01/15/2018 06:35:00 0.0
2018_01_14_S10 01/15/2018 06:40:00 0.0
2018_01_14_S10 01/15/2018 06:45:00 0.0
2018_01_14_S10 01/15/2018 06:50:00 0.0
2018_01_14_S10 01/15/2018 06:55:00 0.0
2018_01_14_S10 01/15/2018 07:00:00 0.0
2018_01_14_S10 01/15/2018 07:05:00 0.0
2018_01_14_S10 01/15/2018 07:10:00 0.0
2018_01_14_S10 01/15/2018 07:15:00 0.0
2018_01_14_S10 01/15/2018 07:20:00 0.0
2018_01_14_S10 01/15/2018 07:25:00 0.0
2018_01_14_S10 01/15/2018 07:30:00 0.0
2018_01_14_S10 01/15/2018 07:35:00 0.0
2018_01_14_S10 01/15/2018 07:40:00 0.0
2018_01_14_S10 01/15/2018 07:45:00 0.0
2018_01_14_S10 01/15/2018 07:50:00 0.0
2018_01_14_S10 01/15/2018 07:55:00 0.0
2018_01_14_S10 01/15/2018 08:00:00 0.0

2018_01_14_S11 01/13/2018 08:00:00 0.0
2018_01_14_S11 01/13/2018 08:05:00 0.0
2018_01_14_S11 01/13/2018 08:10:00 0.0
2018_01_14_S11 01/13/2018 08:15:00 0.0
2018_01_14_S11 01/13/2018 08:20:00 0.0
2018_01_14_S11 01/13/2018 08:25:00 0.0
2018_01_14_S11 01/13/2018 08:30:00 0.0
2018_01_14_S11 01/13/2018 08:35:00 0.0
2018_01_14_S11 01/13/2018 08:40:00 0.0
2018_01_14_S11 01/13/2018 08:45:00 0.0
2018_01_14_S11 01/13/2018 08:50:00 0.0
2018_01_14_S11 01/13/2018 08:55:00 0.0
2018_01_14_S11 01/13/2018 09:00:00 0.0
2018_01_14_S11 01/13/2018 09:05:00 0.0
2018_01_14_S11 01/13/2018 09:10:00 0.0
2018_01_14_S11 01/13/2018 09:15:00 0.0
2018_01_14_S11 01/13/2018 09:20:00 0.0
2018_01_14_S11 01/13/2018 09:25:00 0.0
2018_01_14_S11 01/13/2018 09:30:00 0.0
2018_01_14_S11 01/13/2018 09:35:00 0.0
2018_01_14_S11 01/13/2018 09:40:00 0.0
2018_01_14_S11 01/13/2018 09:45:00 0.0
2018_01_14_S11 01/13/2018 09:50:00 0.0
2018_01_14_S11 01/13/2018 09:55:00 0.0
2018_01_14_S11 01/13/2018 10:00:00 0.0
2018_01_14_S11 01/13/2018 10:05:00 0.0
2018_01_14_S11 01/13/2018 10:10:00 0.0
2018_01_14_S11 01/13/2018 10:15:00 0.0
2018_01_14_S11 01/13/2018 10:20:00 0.0
2018_01_14_S11 01/13/2018 10:25:00 0.0
2018_01_14_S11 01/13/2018 10:30:00 0.0
2018_01_14_S11 01/13/2018 10:35:00 0.0
2018_01_14_S11 01/13/2018 10:40:00 0.0
2018_01_14_S11 01/13/2018 10:45:00 0.0
2018_01_14_S11 01/13/2018 10:50:00 0.0
2018_01_14_S11 01/13/2018 10:55:00 0.0
2018_01_14_S11 01/13/2018 11:00:00 0.0
2018_01_14_S11 01/13/2018 11:05:00 0.0
2018_01_14_S11 01/13/2018 11:10:00 0.0
2018_01_14_S11 01/13/2018 11:15:00 0.0
2018_01_14_S11 01/13/2018 11:20:00 0.0
2018_01_14_S11 01/13/2018 11:25:00 0.0
2018_01_14_S11 01/13/2018 11:30:00 0.0
2018_01_14_S11 01/13/2018 11:35:00 0.0
2018_01_14_S11 01/13/2018 11:40:00 0.0
2018_01_14_S11 01/13/2018 11:45:00 0.0
2018_01_14_S11 01/13/2018 11:50:00 0.0
2018_01_14_S11 01/13/2018 11:55:00 0.0
2018_01_14_S11 01/13/2018 12:00:00 0.0
2018_01_14_S11 01/13/2018 12:05:00 0.0
2018_01_14_S11 01/13/2018 12:10:00 0.0
2018_01_14_S11 01/13/2018 12:15:00 0.0
2018_01_14_S11 01/13/2018 12:20:00 0.0
2018_01_14_S11 01/13/2018 12:25:00 0.0
2018_01_14_S11 01/13/2018 12:30:00 0.0
2018_01_14_S11 01/13/2018 12:35:00 0.0
2018_01_14_S11 01/13/2018 12:40:00 0.0
2018_01_14_S11 01/13/2018 12:45:00 0.0
2018_01_14_S11 01/13/2018 12:50:00 0.0
2018_01_14_S11 01/13/2018 12:55:00 0.0
2018_01_14_S11 01/13/2018 13:00:00 0.0
2018_01_14_S11 01/13/2018 13:05:00 0.0
2018_01_14_S11 01/13/2018 13:10:00 0.0
2018_01_14_S11 01/13/2018 13:15:00 0.0
2018_01_14_S11 01/13/2018 13:20:00 0.0
2018_01_14_S11 01/13/2018 13:25:00 0.0
2018_01_14_S11 01/13/2018 13:30:00 0.0
2018_01_14_S11 01/13/2018 13:35:00 0.0
2018_01_14_S11 01/13/2018 13:40:00 0.0
2018_01_14_S11 01/13/2018 13:45:00 0.0
2018_01_14_S11 01/13/2018 13:50:00 0.0
2018_01_14_S11 01/13/2018 13:55:00 0.0
2018_01_14_S11 01/13/2018 14:00:00 0.0
2018_01_14_S11 01/13/2018 14:05:00 0.0
2018_01_14_S11 01/13/2018 14:10:00 0.0
2018_01_14_S11 01/13/2018 14:15:00 0.0
2018_01_14_S11 01/13/2018 14:20:00 0.0
2018_01_14_S11 01/13/2018 14:25:00 0.0
2018_01_14_S11 01/13/2018 14:30:00 0.0
2018_01_14_S11 01/13/2018 14:35:00 0.0
2018_01_14_S11 01/13/2018 14:40:00 0.0
2018_01_14_S11 01/13/2018 14:45:00 0.0
2018_01_14_S11 01/13/2018 14:50:00 0.0
2018_01_14_S11 01/13/2018 14:55:00 0.0
2018_01_14_S11 01/13/2018 15:00:00 0.0
2018_01_14_S11 01/13/2018 15:05:00 0.0
2018_01_14_S11 01/13/2018 15:10:00 0.0
2018_01_14_S11 01/13/2018 15:15:00 0.0
2018_01_14_S11 01/13/2018 15:20:00 0.0
2018_01_14_S11 01/13/2018 15:25:00 0.0
2018_01_14_S11 01/13/2018 15:30:00 0.0
2018_01_14_S11 01/13/2018 15:35:00 0.0
2018_01_14_S11 01/13/2018 15:40:00 0.0
2018_01_14_S11 01/13/2018 15:45:00 0.0
2018_01_14_S11 01/13/2018 15:50:00 0.0
2018_01_14_S11 01/13/2018 15:55:00 0.0
2018_01_14_S11 01/13/2018 16:00:00 0.0
2018_01_14_S11 01/13/2018 16:05:00 0.0
2018_01_14_S11 01/13/2018 16:10:00 0.0
2018_01_14_S11 01/13/2018 16:15:00 0.0
2018_01_14_S11 01/13/2018 16:20:00 0.0
2018_01_14_S11 01/13/2018 16:25:00 0.0
2018_01_14_S11 01/13/2018 16:30:00 0.0
2018_01_14_S11 01/13/2018 16:35:00 0.0
2018_01_14_S11 01/13/2018 16:40:00 0.0
2018_01_14_S11 01/13/2018 16:45:00 0.0
2018_01_14_S11 01/13/2018 16:50:00 0.0
2018_01_14_S11 01/13/2018 16:55:00 0.0
2018_01_14_S11 01/13/2018 17:00:00 0.0
2018_01_14_S11 01/13/2018 17:05:00 0.0
2018_01_14_S11 01/13/2018 17:10:00 0.0
2018_01_14_S11 01/13/2018 17:15:00 0.0
2018_01_14_S11 01/13/2018 17:20:00 0.0
2018_01_14_S11 01/13/2018 17:25:00 0.0
2018_01_14_S11 01/13/2018 17:30:00 0.0
2018_01_14_S11 01/13/2018 17:35:00 0.0
2018_01_14_S11 01/13/2018 17:40:00 0.0
2018_01_14_S11 01/13/2018 17:45:00 0.0
2018_01_14_S11 01/13/2018 17:50:00 0.0
2018_01_14_S11 01/13/2018 17:55:00 0.0
2018_01_14_S11 01/13/2018 18:00:00 0.0
2018_01_14_S11 01/13/2018 18:05:00 0.0
2018_01_14_S11 01/13/2018 18:10:00 0.0
2018_01_14_S11 01/13/2018 18:15:00 0.0
2018_01_14_S11 01/13/2018 18:20:00 0.0
2018_01_14_S11 01/13/2018 18:25:00 0.0
2018_01_14_S11 01/13/2018 18:30:00 0.0
2018_01_14_S11 01/13/2018 18:35:00 0.0
2018_01_14_S11 01/13/2018 18:40:00 0.0
2018_01_14_S11 01/13/2018 18:45:00 0.0
2018_01_14_S11 01/13/2018 18:50:00 0.0
2018_01_14_S11 01/13/2018 18:55:00 0.0
2018_01_14_S11 01/13/2018 19:00:00 0.0
2018_01_14_S11 01/13/2018 19:05:00 0.0
2018_01_14_S11 01/13/2018 19:10:00 0.0
2018_01_14_S11 01/13/2018 19:15:00 0.0
2018_01_14_S11 01/13/2018 19:20:00 0.0
2018_01_14_S11 01/13/2018 19:25:00 0.0
2018_01_14_S11 01/13/2018 19:30:00 0.0
2018_01_14_S11 01/13/2018 19:35:00 0.0
2018_01_14_S11 01/13/2018 19:40:00 0.0
2018_01_14_S11 01/13/2018 19:45:00 0.0
2018_01_14_S11 01/13/2018 19:50:00 0.0
2018_01_14_S11 01/13/2018 19:55:00 0.0
2018_01_14_S11 01/13/2018 20:00:00 0.0
2018_01_14_S11 01/13/2018 20:05:00 0.0
2018_01_14_S11 01/13/2018 20:10:00 0.0
2018_01_14_S11 01/13/2018 20:15:00 0.0
2018_01_14_S11 01/13/2018 20:20:00 0.0
2018_01_14_S11 01/13/2018 20:25:00 0.0
2018_01_14_S11 01/13/2018 20:30:00 0.0
2018_01_14_S11 01/13/2018 20:35:00 0.0
2018_01_14_S11 01/13/2018 20:40:00 0.0
2018_01_14_S11 01/13/2018 20:45:00 0.0
2018_01_14_S11 01/13/2018 20:50:00 0.0
2018_01_14_S11 01/13/2018 20:55:00 0.0
2018_01_14_S11 01/13/2018 21:00:00 0.0
2018_01_14_S11 01/13/2018 21:05:00 0.0
2018_01_14_S11 01/13/2018 21:10:00 0.0
2018_01_14_S11 01/13/2018 21:15:00 0.0
2018_01_14_S11 01/13/2018 21:20:00 0.0
2018_01_14_S11 01/13/2018 21:25:00 0.0
2018_01_14_S11 01/13/2018 21:30:00 0.0
2018_01_14_S11 01/13/2018 21:35:00 0.0
2018_01_14_S11 01/13/2018 21:40:00 0.0
2018_01_14_S11 01/13/2018 21:45:00 0.0
2018_01_14_S11 01/13/2018 21:50:00 0.0
2018_01_14_S11 01/13/2018 21:55:00 0.0
2018_01_14_S11 01/13/2018 22:00:00 0.0
2018_01_14_S11 01/13/2018 22:05:00 0.0
2018_01_14_S11 01/13/2018 22:10:00 0.0
2018_01_14_S11 01/13/2018 22:15:00 0.0
2018_01_14_S11 01/13/2018 22:20:00 0.0
2018_01_14_S11 01/13/2018 22:25:00 0.0
2018_01_14_S11 01/13/2018 22:30:00 0.0
2018_01_14_S11 01/13/2018 22:35:00 0.0
2018_01_14_S11 01/13/2018 22:40:00 0.0
2018_01_14_S11 01/13/2018 22:45:00 0.0
2018_01_14_S11 01/13/2018 22:50:00 0.0
2018_01_14_S11 01/13/2018 22:55:00 0.0
2018_01_14_S11 01/13/2018 23:00:00 0.0
2018_01_14_S11 01/13/2018 23:05:00 0.0
2018_01_14_S11 01/13/2018 23:10:00 0.0
2018_01_14_S11 01/13/2018 23:15:00 0.0
2018_01_14_S11 01/13/2018 23:20:00 0.0
2018_01_14_S11 01/13/2018 23:25:00 0.0
2018_01_14_S11 01/13/2018 23:30:00 0.0
2018_01_14_S11 01/13/2018 23:35:00 0.0
2018_01_14_S11 01/13/2018 23:40:00 0.0
2018_01_14_S11 01/13/2018 23:45:00 0.0
2018_01_14_S11 01/13/2018 23:50:00 0.0
2018_01_14_S11 01/13/2018 23:55:00 0.0
2018_01_14_S11 01/14/2018 00:00:00 0.0
2018_01_14_S11 01/14/2018 00:05:00 0.0
2018_01_14_S11 01/14/2018 00:10:00 0.0
2018_01_14_S11 01/14/2018 00:15:00 0.0
2018_01_14_S11 01/14/2018 00:20:00 0.0
2018_01_14_S11 01/14/2018 00:25:00 0.0
2018_01_14_S11 01/14/2018 00:30:00 0.0
2018_01_14_S11 01/14/2018 00:35:00 0.0
2018_01_14_S11 01/14/2018 00:40:00 0.0
2018_01_14_S11 01/14/2018 00:45:00 0.0
2018_01_14_S11 01/14/2018 00:50:00 0.0
2018_01_14_S11 01/14/2018 00:55:00 0.0
2018_01_14_S11 01/14/2018 01:00:00 0.0
2018_01_14_S11 01/14/2018 01:05:00 0.0
2018_01_14_S11 01/14/2018 01:10:00 0.0
2018_01_14_S11 01/14/2018 01:15:00 0.0
2018_01_14_S11 01/14/2018 01:20:00 0.0
2018_01_14_S11 01/14/2018 01:25:00 0.0
2018_01_14_S11 01/14/2018 01:30:00 0.0
2018_01_14_S11 01/14/2018 01:35:00 0.0
2018_01_14_S11 01/14/2018 01:40:00 0.0
2018_01_14_S11 01/14/2018 01:45:00 0.0
2018_01_14_S11 01/14/2018 01:50:00 0.0
2018_01_14_S11 01/14/2018 01:55:00 0.0
2018_01_14_S11 01/14/2018 02:00:00 0.0
2018_01_14_S11 01/14/2018 02:05:00 0.0
2018_01_14_S11 01/14/2018 02:10:00 0.0
2018_01_14_S11 01/14/2018 02:15:00 0.0
2018_01_14_S11 01/14/2018 02:20:00 0.0
2018_01_14_S11 01/14/2018 02:25:00 0.0
2018_01_14_S11 01/14/2018 02:30:00 0.0
2018_01_14_S11 01/14/2018 02:35:00 0.0
2018_01_14_S11 01/14/2018 02:40:00 0.0
2018_01_14_S11 01/14/2018 02:45:00 0.0
2018_01_14_S11 01/14/2018 02:50:00 0.0
2018_01_14_S11 01/14/2018 02:55:00 0.0
2018_01_14_S11 01/14/2018 03:00:00 0.0009
2018_01_14_S11 01/14/2018 03:05:00 0.1283
2018_01_14_S11 01/14/2018 03:10:00 0.001
2018_01_14_S11 01/14/2018 03:15:00 0.0
2018_01_14_S11 01/14/2018 03:20:00 0.0
2018_01_14_S11 01/14/2018 03:25:00 0.0
2018_01_14_S11 01/14/2018 03:30:00 0.0
2018_01_14_S11 01/14/2018 03:35:00 0.0
2018_01_14_S11 01/14/2018 03:40:00 0.0
2018_01_14_S11 01/14/2018 03:45:00 0.0
2018_01_14_S11 01/14/2018 03:50:00 0.0
2018_01_14_S11 01/14/2018 03:55:00 0.0
2018_01_14_S11 01/14/2018 04:00:00 0.0
2018_01_14_S11 01/14/2018 04:05:00 0.0
2018_01_14_S11 01/14/2018 04:10:00 0.0
2018_01_14_S11 01/14/2018 04:15:00 0.0
2018_01_14_S11 01/14/2018 04:20:00 0.0
2018_01_14_S11 01/14/2018 04:25:00 0.0
2018_01_14_S11 01/14/2018 04:30:00 0.0
2018_01_14_S11 01/14/2018 04:35:00 0.0
2018_01_14_S11 01/14/2018 04:40:00 0.0
2018_01_14_S11 01/14/2018 04:45:00 0.0
2018_01_14_S11 01/14/2018 04:50:00 0.0
2018_01_14_S11 01/14/2018 04:55:00 0.0
2018_01_14_S11 01/14/2018 05:00:00 0.0
2018_01_14_S11 01/14/2018 05:05:00 0.0
2018_01_14_S11 01/14/2018 05:10:00 0.0
2018_01_14_S11 01/14/2018 05:15:00 0.0
2018_01_14_S11 01/14/2018 05:20:00 0.0
2018_01_14_S11 01/14/2018 05:25:00 0.0
2018_01_14_S11 01/14/2018 05:30:00 0.0
2018_01_14_S11 01/14/2018 05:35:00 0.0
2018_01_14_S11 01/14/2018 05:40:00 0.0
2018_01_14_S11 01/14/2018 05:45:00 0.0
2018_01_14_S11 01/14/2018 05:50:00 0.0
2018_01_14_S11 01/14/2018 05:55:00 0.0013
2018_01_14_S11 01/14/2018 06:00:00 0.4195
2018_01_14_S11 01/14/2018 06:05:00 1.9053
2018_01_14_S11 01/14/2018 06:10:00 0.5472
2018_01_14_S11 01/14/2018 06:15:00 0.0098
2018_01_14_S11 01/14/2018 06:20:00 0.1808
2018_01_14_S11 01/14/2018 06:25:00 0.0229
2018_01_14_S11 01/14/2018 06:30:00 0.001
2018_01_14_S11 01/14/2018 06:35:00 0.0
2018_01_14_S11 01/14/2018 06:40:00 0.0
2018_01_14_S11 01/14/2018 06:45:00 0.0
2018_01_14_S11 01/14/2018 06:50:00 0.0
2018_01_14_S11 01/14/2018 06:55:00 0.0
2018_01_14_S11 01/14/2018 07:00:00 0.0
2018_01_14_S11 01/14/2018 07:05:00 0.0
2018_01_14_S11 01/14/2018 07:10:00 0.0
2018_01_14_S11 01/14/2018 07:15:00 0.0
2018_01_14_S11 01/14/2018 07:20:00 0.0
2018_01_14_S11 01/14/2018 07:25:00 0.0
2018_01_14_S11 01/14/2018 07:30:00 0.0
2018_01_14_S11 01/14/2018 07:35:00 0.0
2018_01_14_S11 01/14/2018 07:40:00 0.0
2018_01_14_S11 01/14/2018 07:45:00 0.0
2018_01_14_S11 01/14/2018 07:50:00 0.0476
2018_01_14_S11 01/14/2018 07:55:00 0.0
2018_01_14_S11 01/14/2018 08:00:00 0.0
2018_01_14_S11 01/14/2018 08:05:00 0.0
2018_01_14_S11 01/14/2018 08:10:00 0.0
2018_01_14_S11 01/14/2018 08:15:00 0.0008
2018_01_14_S11 01/14/2018 08:20:00 0.0
2018_01_14_S11 01/14/2018 08:25:00 0.0352
2018_01_14_S11 01/14/2018 08:30:00 0.0298
2018_01_14_S11 01/14/2018 08:35:00 0.3386
2018_01_14_S11 01/14/2018 08:40:00 0.0
2018_01_14_S11 01/14/2018 08:45:00 0.0
2018_01_14_S11 01/14/2018 08:50:00 0.0
2018_01_14_S11 01/14/2018 08:55:00 0.0
2018_01_14_S11 01/14/2018 09:00:00 0.0
2018_01_14_S11 01/14/2018 09:05:00 0.0
2018_01_14_S11 01/14/2018 09:10:00 0.0
2018_01_14_S11 01/14/2018 09:15:00 0.0
2018_01_14_S11 01/14/2018 09:20:00 0.0
2018_01_14_S11 01/14/2018 09:25:00 0.0
2018_01_14_S11 01/14/2018 09:30:00 0.0
2018_01_14_S11 01/14/2018 09:35:00 0.0
2018_01_14_S11 01/14/2018 09:40:00 0.0
2018_01_14_S11 01/14/2018 09:45:00 0.0
2018_01_14_S11 01/14/2018 09:50:00 0.0
2018_01_14_S11 01/14/2018 09:55:00 0.0
2018_01_14_S11 01/14/2018 10:00:00 0.0
2018_01_14_S11 01/14/2018 10:05:00 0.0
2018_01_14_S11 01/14/2018 10:10:00 0.0
2018_01_14_S11 01/14/2018 10:15:00 0.0
2018_01_14_S11 01/14/2018 10:20:00 0.0
2018_01_14_S11 01/14/2018 10:25:00 0.0
2018_01_14_S11 01/14/2018 10:30:00 0.0
2018_01_14_S11 01/14/2018 10:35:00 0.0
2018_01_14_S11 01/14/2018 10:40:00 0.0
2018_01_14_S11 01/14/2018 10:45:00 0.0
2018_01_14_S11 01/14/2018 10:50:00 0.0
2018_01_14_S11 01/14/2018 10:55:00 0.0
2018_01_14_S11 01/14/2018 11:00:00 0.0
2018_01_14_S11 01/14/2018 11:05:00 0.0
2018_01_14_S11 01/14/2018 11:10:00 0.0
2018_01_14_S11 01/14/2018 11:15:00 0.0
2018_01_14_S11 01/14/2018 11:20:00 0.0
2018_01_14_S11 01/14/2018 11:25:00 0.0
2018_01_14_S11 01/14/2018 11:30:00 0.0
2018_01_14_S11 01/14/2018 11:35:00 0.0
2018_01_14_S11 01/14/2018 11:40:00 0.0
2018_01_14_S11 01/14/2018 11:45:00 0.0
2018_01_14_S11 01/14/2018 11:50:00 0.0
2018_01_14_S11 01/14/2018 11:55:00 0.0
2018_01_14_S11 01/14/2018 12:00:00 0.0
2018_01_14_S11 01/14/2018 12:05:00 0.0
2018_01_14_S11 01/14/2018 12:10:00 0.0
2018_01_14_S11 01/14/2018 12:15:00 0.0
2018_01_14_S11 01/14/2018 12:20:00 0.0
2018_01_14_S11 01/14/2018 12:25:00 0.0
2018_01_14_S11 01/14/2018 12:30:00 0.0
2018_01_14_S11 01/14/2018 12:35:00 0.0
2018_01_14_S11 01/14/2018 12:40:00 0.0
2018_01_14_S11 01/14/2018 12:45:00 0.0
2018_01_14_S11 01/14/2018 12:50:00 0.0
2018_01_14_S11 01/14/2018 12:55:00 0.0
2018_01_14_S11 01/14/2018 13:00:00 0.0
2018_01_14_S11 01/14/2018 13:05:00 0.0
2018_01_14_S11 01/14/2018 13:10:00 0.0
2018_01_14_S11 01/14/2018 13:15:00 0.0
2018_01_14_S11 01/14/2018 13:20:00 0.0
2018_01_14_S11 01/14/2018 13:25:00 0.0
2018_01_14_S11 01/14/2018 13:30:00 0.0
2018_01_14_S11 01/14/2018 13:35:00 0.0
2018_01_14_S11 01/14/2018 13:40:00 0.0
2018_01_14_S11 01/14/2018 13:45:00 0.0
2018_01_14_S11 01/14/2018 13:50:00 0.0
2018_01_14_S11 01/14/2018 13:55:00 0.0
2018_01_14_S11 01/14/2018 14:00:00 0.0
2018_01_14_S11 01/14/2018 14:05:00 0.0
2018_01_14_S11 01/14/2018 14:10:00 0.0
2018_01_14_S11 01/14/2018 14:15:00 0.0
2018_01_14_S11 01/14/2018 14:20:00 0.0
2018_01_14_S11 01/14/2018 14:25:00 0.0
2018_01_14_S11 01/14/2018 14:30:00 0.0
2018_01_14_S11 01/14/2018 14:35:00 0.0
2018_01_14_S11 01/14/2018 14:40:00 0.0
2018_01_14_S11 01/14/2018 14:45:00 0.0
2018_01_14_S11 01/14/2018 14:50:00 0.0
2018_01_14_S11 01/14/2018 14:55:00 0.0017
2018_01_14_S11 01/14/2018 15:00:00 0.0
2018_01_14_S11 01/14/2018 15:05:00 0.0
2018_01_14_S11 01/14/2018 15:10:00 0.0
2018_01_14_S11 01/14/2018 15:15:00 0.0
2018_01_14_S11 01/14/2018 15:20:00 0.0
2018_01_14_S11 01/14/2018 15:25:00 0.0
2018_01_14_S11 01/14/2018 15:30:00 0.0
2018_01_14_S11 01/14/2018 15:35:00 0.0
2018_01_14_S11 01/14/2018 15:40:00 0.0
2018_01_14_S11 01/14/2018 15:45:00 0.0
2018_01_14_S11 01/14/2018 15:50:00 0.0
2018_01_14_S11 01/14/2018 15:55:00 0.0
2018_01_14_S11 01/14/2018 16:00:00 0.0
2018_01_14_S11 01/14/2018 16:05:00 0.0
2018_01_14_S11 01/14/2018 16:10:00 0.0
2018_01_14_S11 01/14/2018 16:15:00 0.0
2018_01_14_S11 01/14/2018 16:20:00 0.0
2018_01_14_S11 01/14/2018 16:25:00 0.0
2018_01_14_S11 01/14/2018 16:30:00 0.0
2018_01_14_S11 01/14/2018 16:35:00 0.0
2018_01_14_S11 01/14/2018 16:40:00 0.0102
2018_01_14_S11 01/14/2018 16:45:00 0.0497
2018_01_14_S11 01/14/2018 16:50:00 0.0478
2018_01_14_S11 01/14/2018 16:55:00 0.0175
2018_01_14_S11 01/14/2018 17:00:00 0.0046
2018_01_14_S11 01/14/2018 17:05:00 0.0422
2018_01_14_S11 01/14/2018 17:10:00 0.1722
2018_01_14_S11 01/14/2018 17:15:00 0.0
2018_01_14_S11 01/14/2018 17:20:00 0.0
2018_01_14_S11 01/14/2018 17:25:00 0.0
2018_01_14_S11 01/14/2018 17:30:00 0.0012
2018_01_14_S11 01/14/2018 17:35:00 0.1564
2018_01_14_S11 01/14/2018 17:40:00 0.1211
2018_01_14_S11 01/14/2018 17:45:00 0.3157
2018_01_14_S11 01/14/2018 17:50:00 0.1843
2018_01_14_S11 01/14/2018 17:55:00 0.2483
2018_01_14_S11 01/14/2018 18:00:00 0.5998
2018_01_14_S11 01/14/2018 18:05:00 0.0852
2018_01_14_S11 01/14/2018 18:10:00 0.0942
2018_01_14_S11 01/14/2018 18:15:00 0.4133
2018_01_14_S11 01/14/2018 18:20:00 1.7711
2018_01_14_S11 01/14/2018 18:25:00 3.5389
2018_01_14_S11 01/14/2018 18:30:00 0.0007
2018_01_14_S11 01/14/2018 18:35:00 0.0
2018_01_14_S11 01/14/2018 18:40:00 0.0087
2018_01_14_S11 01/14/2018 18:45:00 0.1831
2018_01_14_S11 01/14/2018 18:50:00 1.0227
2018_01_14_S11 01/14/2018 18:55:00 0.7943
2018_01_14_S11 01/14/2018 19:00:00 0.1543
2018_01_14_S11 01/14/2018 19:05:00 0.0
2018_01_14_S11 01/14/2018 19:10:00 0.0
2018_01_14_S11 01/14/2018 19:15:00 0.0
2018_01_14_S11 01/14/2018 19:20:00 0.0
2018_01_14_S11 01/14/2018 19:25:00 0.0
2018_01_14_S11 01/14/2018 19:30:00 0.0
2018_01_14_S11 01/14/2018 19:35:00 0.0
2018_01_14_S11 01/14/2018 19:40:00 0.0
2018_01_14_S11 01/14/2018 19:45:00 0.0
2018_01_14_S11 01/14/2018 19:50:00 0.0007
2018_01_14_S11 01/14/2018 19:55:00 0.0
2018_01_14_S11 01/14/2018 20:00:00 0.0
2018_01_14_S11 01/14/2018 20:05:00 0.0
2018_01_14_S11 01/14/2018 20:10:00 0.0
2018_01_14_S11 01/14/2018 20:15:00 0.0
2018_01_14_S11 01/14/2018 20:20:00 0.0
2018_01_14_S11 01/14/2018 20:25:00 0.0
2018_01_14_S11 01/14/2018 20:30:00 0.0
2018_01_14_S11 01/14/2018 20:35:00 0.0
2018_01_14_S11 01/14/2018 20:40:00 0.0
2018_01_14_S11 01/14/2018 20:45:00 0.0
2018_01_14_S11 01/14/2018 20:50:00 0.0
2018_01_14_S11 01/14/2018 20:55:00 0.0
2018_01_14_S11 01/14/2018 21:00:00 0.0
2018_01_14_S11 01/14/2018 21:05:00 0.0
2018_01_14_S11 01/14/2018 21:10:00 0.0
2018_01_14_S11 01/14/2018 21:15:00 0.0
2018_01_14_S11 01/14/2018 21:20:00 0.0
2018_01_14_S11 01/14/2018 21:25:00 0.0
2018_01_14_S11 01/14/2018 21:30:00 0.0
2018_01_14_S11 01/14/2018 21:35:00 0.0
2018_01_14_S11 01/14/2018 21:40:00 0.0
2018_01_14_S11 01/14/2018 21:45:00 0.0
2018_01_14_S11 01/14/2018 21:50:00 0.0
2018_01_14_S11 01/14/2018 21:55:00 0.0
2018_01_14_S11 01/14/2018 22:00:00 0.0
2018_01_14_S11 01/14/2018 22:05:00 0.0
2018_01_14_S11 01/14/2018 22:10:00 0.0
2018_01_14_S11 01/14/2018 22:15:00 0.0
2018_01_14_S11 01/14/2018 22:20:00 0.0
2018_01_14_S11 01/14/2018 22:25:00 0.0
2018_01_14_S11 01/14/2018 22:30:00 0.0
2018_01_14_S11 01/14/2018 22:35:00 0.0
2018_01_14_S11 01/14/2018 22:40:00 0.0057
2018_01_14_S11 01/14/2018 22:45:00 0.0311
2018_01_14_S11 01/14/2018 22:50:00 0.0
2018_01_14_S11 01/14/2018 22:55:00 0.0021
2018_01_14_S11 01/14/2018 23:00:00 0.0583
2018_01_14_S11 01/14/2018 23:05:00 0.0932
2018_01_14_S11 01/14/2018 23:10:00 0.0281
2018_01_14_S11 01/14/2018 23:15:00 0.025
2018_01_14_S11 01/14/2018 23:20:00 0.0024
2018_01_14_S11 01/14/2018 23:25:00 0.0
2018_01_14_S11 01/14/2018 23:30:00 0.0
2018_01_14_S11 01/14/2018 23:35:00 0.0
2018_01_14_S11 01/14/2018 23:40:00 0.0
2018_01_14_S11 01/14/2018 23:45:00 0.0
2018_01_14_S11 01/14/2018 23:50:00 0.0
2018_01_14_S11 01/14/2018 23:55:00 0.0
2018_01_14_S11 01/15/2018 00:00:00 0.0
2018_01_14_S11 01/15/2018 00:05:00 0.0
2018_01_14_S11 01/15/2018 00:10:00 0.0
2018_01_14_S11 01/15/2018 00:15:00 0.0
2018_01_14_S11 01/15/2018 00:20:00 0.0
2018_01_14_S11 01/15/2018 00:25:00 0.0
2018_01_14_S11 01/15/2018 00:30:00 0.0
2018_01_14_S11 01/15/2018 00:35:00 0.0
2018_01_14_S11 01/15/2018 00:40:00 0.0
2018_01_14_S11 01/15/2018 00:45:00 0.0
2018_01_14_S11 01/15/2018 00:50:00 0.0
2018_01_14_S11 01/15/2018 00:55:00 0.0
2018_01_14_S11 01/15/2018 01:00:00 0.0
2018_01_14_S11 01/15/2018 01:05:00 0.0
2018_01_14_S11 01/15/2018 01:10:00 0.0
2018_01_14_S11 01/15/2018 01:15:00 0.0
2018_01_14_S11 01/15/2018 01:20:00 0.0
2018_01_14_S11 01/15/2018 01:25:00 0.0
2018_01_14_S11 01/15/2018 01:30:00 0.0
2018_01_14_S11 01/15/2018 01:35:00 0.0
2018_01_14_S11 01/15/2018 01:40:00 0.0
2018_01_14_S11 01/15/2018 01:45:00 0.0
2018_01_14_S11 01/15/2018 01:50:00 0.0
2018_01_14_S11 01/15/2018 01:55:00 0.0
2018_01_14_S11 01/15/2018 02:00:00 0.0
2018_01_14_S11 01/15/2018 02:05:00 0.0
2018_01_14_S11 01/15/2018 02:10:00 0.0
2018_01_14_S11 01/15/2018 02:15:00 0.0
2018_01_14_S11 01/15/2018 02:20:00 0.0077
2018_01_14_S11 01/15/2018 02:25:00 0.0375
2018_01_14_S11 01/15/2018 02:30:00 0.0
2018_01_14_S11 01/15/2018 02:35:00 0.0389
2018_01_14_S11 01/15/2018 02:40:00 0.065
2018_01_14_S11 01/15/2018 02:45:00 0.1166
2018_01_14_S11 01/15/2018 02:50:00 0.0351
2018_01_14_S11 01/15/2018 02:55:00 0.0001
2018_01_14_S11 01/15/2018 03:00:00 0.0166
2018_01_14_S11 01/15/2018 03:05:00 0.0013
2018_01_14_S11 01/15/2018 03:10:00 0.0025
2018_01_14_S11 01/15/2018 03:15:00 0.0
2018_01_14_S11 01/15/2018 03:20:00 0.0
2018_01_14_S11 01/15/2018 03:25:00 0.0
2018_01_14_S11 01/15/2018 03:30:00 0.0
2018_01_14_S11 01/15/2018 03:35:00 0.0
2018_01_14_S11 01/15/2018 03:40:00 0.0
2018_01_14_S11 01/15/2018 03:45:00 0.0
2018_01_14_S11 01/15/2018 03:50:00 0.0
2018_01_14_S11 01/15/2018 03:55:00 0.0
2018_01_14_S11 01/15/2018 04:00:00 0.0
2018_01_14_S11 01/15/2018 04:05:00 0.0
2018_01_14_S11 01/15/2018 04:10:00 0.0
2018_01_14_S11 01/15/2018 04:15:00 0.0
2018_01_14_S11 01/15/2018 04:20:00 0.0
2018_01_14_S11 01/15/2018 04:25:00 0.0
2018_01_14_S11 01/15/2018 04:30:00 0.0
2018_01_14_S11 01/15/2018 04:35:00 0.0
2018_01_14_S11 01/15/2018 04:40:00 0.0
2018_01_14_S11 01/15/2018 04:45:00 0.0
2018_01_14_S11 01/15/2018 04:50:00 0.0
2018_01_14_S11 01/15/2018 04:55:00 0.0
2018_01_14_S11 01/15/2018 05:00:00 0.0
2018_01_14_S11 01/15/2018 05:05:00 0.0
2018_01_14_S11 01/15/2018 05:10:00 0.0
2018_01_14_S11 01/15/2018 05:15:00 0.0
2018_01_14_S11 01/15/2018 05:20:00 0.0
2018_01_14_S11 01/15/2018 05:25:00 0.0
2018_01_14_S11 01/15/2018 05:30:00 0.0
2018_01_14_S11 01/15/2018 05:35:00 0.0
2018_01_14_S11 01/15/2018 05:40:00 0.0
2018_01_14_S11 01/15/2018 05:45:00 0.0
2018_01_14_S11 01/15/2018 05:50:00 0.0
2018_01_14_S11 01/15/2018 05:55:00 0.0
2018_01_14_S11 01/15/2018 06:00:00 0.0
2018_01_14_S11 01/15/2018 06:05:00 0.0
2018_01_14_S11 01/15/2018 06:10:00 0.0
2018_01_14_S11 01/15/2018 06:15:00 0.0
2018_01_14_S11 01/15/2018 06:20:00 0.0207
2018_01_14_S11 01/15/2018 06:25:00 0.2263
2018_01_14_S11 01/15/2018 06:30:00 0.124
2018_01_14_S11 01/15/2018 06:35:00 0.0251
2018_01_14_S11 01/15/2018 06:40:00 0.0
2018_01_14_S11 01/15/2018 06:45:00 0.0
2018_01_14_S11 01/15/2018 06:50:00 0.0
2018_01_14_S11 01/15/2018 06:55:00 0.0
2018_01_14_S11 01/15/2018 07:00:00 0.0
2018_01_14_S11 01/15/2018 07:05:00 0.0
2018_01_14_S11 01/15/2018 07:10:00 0.0
2018_01_14_S11 01/15/2018 07:15:00 0.0
2018_01_14_S11 01/15/2018 07:20:00 0.0
2018_01_14_S11 01/15/2018 07:25:00 0.0
2018_01_14_S11 01/15/2018 07:30:00 0.0
2018_01_14_S11 01/15/2018 07:35:00 0.0
2018_01_14_S11 01/15/2018 07:40:00 0.0
2018_01_14_S11 01/15/2018 07:45:00 0.0
2018_01_14_S11 01/15/2018 07:50:00 0.0
2018_01_14_S11 01/15/2018 07:55:00 0.0
2018_01_14_S11 01/15/2018 08:00:00 0.0

2018_01_14_S12 01/13/2018 08:00:00 0.0
2018_01_14_S12 01/13/2018 08:05:00 0.0
2018_01_14_S12 01/13/2018 08:10:00 0.0
2018_01_14_S12 01/13/2018 08:15:00 0.0
2018_01_14_S12 01/13/2018 08:20:00 0.0
2018_01_14_S12 01/13/2018 08:25:00 0.0
2018_01_14_S12 01/13/2018 08:30:00 0.0
2018_01_14_S12 01/13/2018 08:35:00 0.0
2018_01_14_S12 01/13/2018 08:40:00 0.0
2018_01_14_S12 01/13/2018 08:45:00 0.0
2018_01_14_S12 01/13/2018 08:50:00 0.0
2018_01_14_S12 01/13/2018 08:55:00 0.0
2018_01_14_S12 01/13/2018 09:00:00 0.0
2018_01_14_S12 01/13/2018 09:05:00 0.0
2018_01_14_S12 01/13/2018 09:10:00 0.0
2018_01_14_S12 01/13/2018 09:15:00 0.0
2018_01_14_S12 01/13/2018 09:20:00 0.0
2018_01_14_S12 01/13/2018 09:25:00 0.0
2018_01_14_S12 01/13/2018 09:30:00 0.0
2018_01_14_S12 01/13/2018 09:35:00 0.0
2018_01_14_S12 01/13/2018 09:40:00 0.0
2018_01_14_S12 01/13/2018 09:45:00 0.0
2018_01_14_S12 01/13/2018 09:50:00 0.0
2018_01_14_S12 01/13/2018 09:55:00 0.0
2018_01_14_S12 01/13/2018 10:00:00 0.0
2018_01_14_S12 01/13/2018 10:05:00 0.0
2018_01_14_S12 01/13/2018 10:10:00 0.0
2018_01_14_S12 01/13/2018 10:15:00 0.0
2018_01_14_S12 01/13/2018 10:20:00 0.0
2018_01_14_S12 01/13/2018 10:25:00 0.0
2018_01_14_S12 01/13/2018 10:30:00 0.0
2018_01_14_S12 01/13/2018 10:35:00 0.0
2018_01_14_S12 01/13/2018 10:40:00 0.0
2018_01_14_S12 01/13/2018 10:45:00 0.0
2018_01_14_S12 01/13/2018 10:50:00 0.0
2018_01_14_S12 01/13/2018 10:55:00 0.0
2018_01_14_S12 01/13/2018 11:00:00 0.0
2018_01_14_S12 01/13/2018 11:05:00 0.0
2018_01_14_S12 01/13/2018 11:10:00 0.0
2018_01_14_S12 01/13/2018 11:15:00 0.0
2018_01_14_S12 01/13/2018 11:20:00 0.0
2018_01_14_S12 01/13/2018 11:25:00 0.0
2018_01_14_S12 01/13/2018 11:30:00 0.0
2018_01_14_S12 01/13/2018 11:35:00 0.0
2018_01_14_S12 01/13/2018 11:40:00 0.0
2018_01_14_S12 01/13/2018 11:45:00 0.0
2018_01_14_S12 01/13/2018 11:50:00 0.0
2018_01_14_S12 01/13/2018 11:55:00 0.0
2018_01_14_S12 01/13/2018 12:00:00 0.0
2018_01_14_S12 01/13/2018 12:05:00 0.0
2018_01_14_S12 01/13/2018 12:10:00 0.0
2018_01_14_S12 01/13/2018 12:15:00 0.0
2018_01_14_S12 01/13/2018 12:20:00 0.0
2018_01_14_S12 01/13/2018 12:25:00 0.0
2018_01_14_S12 01/13/2018 12:30:00 0.0
2018_01_14_S12 01/13/2018 12:35:00 0.0
2018_01_14_S12 01/13/2018 12:40:00 0.0
2018_01_14_S12 01/13/2018 12:45:00 0.0
2018_01_14_S12 01/13/2018 12:50:00 0.0
2018_01_14_S12 01/13/2018 12:55:00 0.0
2018_01_14_S12 01/13/2018 13:00:00 0.0
2018_01_14_S12 01/13/2018 13:05:00 0.0
2018_01_14_S12 01/13/2018 13:10:00 0.0
2018_01_14_S12 01/13/2018 13:15:00 0.0
2018_01_14_S12 01/13/2018 13:20:00 0.0
2018_01_14_S12 01/13/2018 13:25:00 0.0
2018_01_14_S12 01/13/2018 13:30:00 0.0
2018_01_14_S12 01/13/2018 13:35:00 0.0
2018_01_14_S12 01/13/2018 13:40:00 0.0
2018_01_14_S12 01/13/2018 13:45:00 0.0
2018_01_14_S12 01/13/2018 13:50:00 0.0
2018_01_14_S12 01/13/2018 13:55:00 0.0
2018_01_14_S12 01/13/2018 14:00:00 0.0
2018_01_14_S12 01/13/2018 14:05:00 0.0
2018_01_14_S12 01/13/2018 14:10:00 0.0
2018_01_14_S12 01/13/2018 14:15:00 0.0
2018_01_14_S12 01/13/2018 14:20:00 0.0
2018_01_14_S12 01/13/2018 14:25:00 0.0
2018_01_14_S12 01/13/2018 14:30:00 0.0
2018_01_14_S12 01/13/2018 14:35:00 0.0
2018_01_14_S12 01/13/2018 14:40:00 0.0
2018_01_14_S12 01/13/2018 14:45:00 0.0
2018_01_14_S12 01/13/2018 14:50:00 0.0
2018_01_14_S12 01/13/2018 14:55:00 0.0
2018_01_14_S12 01/13/2018 15:00:00 0.0
2018_01_14_S12 01/13/2018 15:05:00 0.0
2018_01_14_S12 01/13/2018 15:10:00 0.0
2018_01_14_S12 01/13/2018 15:15:00 0.0
2018_01_14_S12 01/13/2018 15:20:00 0.0
2018_01_14_S12 01/13/2018 15:25:00 0.0
2018_01_14_S12 01/13/2018 15:30:00 0.0
2018_01_14_S12 01/13/2018 15:35:00 0.0
2018_01_14_S12 01/13/2018 15:40:00 0.0
2018_01_14_S12 01/13/2018 15:45:00 0.0
2018_01_14_S12 01/13/2018 15:50:00 0.0
2018_01_14_S12 01/13/2018 15:55:00 0.0
2018_01_14_S12 01/13/2018 16:00:00 0.0
2018_01_14_S12 01/13/2018 16:05:00 0.0
2018_01_14_S12 01/13/2018 16:10:00 0.0
2018_01_14_S12 01/13/2018 16:15:00 0.0
2018_01_14_S12 01/13/2018 16:20:00 0.0
2018_01_14_S12 01/13/2018 16:25:00 0.0
2018_01_14_S12 01/13/2018 16:30:00 0.0
2018_01_14_S12 01/13/2018 16:35:00 0.0
2018_01_14_S12 01/13/2018 16:40:00 0.0
2018_01_14_S12 01/13/2018 16:45:00 0.0
2018_01_14_S12 01/13/2018 16:50:00 0.0
2018_01_14_S12 01/13/2018 16:55:00 0.0
2018_01_14_S12 01/13/2018 17:00:00 0.0
2018_01_14_S12 01/13/2018 17:05:00 0.0
2018_01_14_S12 01/13/2018 17:10:00 0.0
2018_01_14_S12 01/13/2018 17:15:00 0.0
2018_01_14_S12 01/13/2018 17:20:00 0.0
2018_01_14_S12 01/13/2018 17:25:00 0.0
2018_01_14_S12 01/13/2018 17:30:00 0.0
2018_01_14_S12 01/13/2018 17:35:00 0.0
2018_01_14_S12 01/13/2018 17:40:00 0.0
2018_01_14_S12 01/13/2018 17:45:00 0.0
2018_01_14_S12 01/13/2018 17:50:00 0.0
2018_01_14_S12 01/13/2018 17:55:00 0.0
2018_01_14_S12 01/13/2018 18:00:00 0.0
2018_01_14_S12 01/13/2018 18:05:00 0.0
2018_01_14_S12 01/13/2018 18:10:00 0.0
2018_01_14_S12 01/13/2018 18:15:00 0.0
2018_01_14_S12 01/13/2018 18:20:00 0.0
2018_01_14_S12 01/13/2018 18:25:00 0.0
2018_01_14_S12 01/13/2018 18:30:00 0.0
2018_01_14_S12 01/13/2018 18:35:00 0.0
2018_01_14_S12 01/13/2018 18:40:00 0.0
2018_01_14_S12 01/13/2018 18:45:00 0.0
2018_01_14_S12 01/13/2018 18:50:00 0.0
2018_01_14_S12 01/13/2018 18:55:00 0.0
2018_01_14_S12 01/13/2018 19:00:00 0.0
2018_01_14_S12 01/13/2018 19:05:00 0.0
2018_01_14_S12 01/13/2018 19:10:00 0.0
2018_01_14_S12 01/13/2018 19:15:00 0.0
2018_01_14_S12 01/13/2018 19:20:00 0.0
2018_01_14_S12 01/13/2018 19:25:00 0.0
2018_01_14_S12 01/13/2018 19:30:00 0.0
2018_01_14_S12 01/13/2018 19:35:00 0.0
2018_01_14_S12 01/13/2018 19:40:00 0.0
2018_01_14_S12 01/13/2018 19:45:00 0.0
2018_01_14_S12 01/13/2018 19:50:00 0.0
2018_01_14_S12 01/13/2018 19:55:00 0.0
2018_01_14_S12 01/13/2018 20:00:00 0.0
2018_01_14_S12 01/13/2018 20:05:00 0.0
2018_01_14_S12 01/13/2018 20:10:00 0.0
2018_01_14_S12 01/13/2018 20:15:00 0.0
2018_01_14_S12 01/13/2018 20:20:00 0.0
2018_01_14_S12 01/13/2018 20:25:00 0.0
2018_01_14_S12 01/13/2018 20:30:00 0.0
2018_01_14_S12 01/13/2018 20:35:00 0.0
2018_01_14_S12 01/13/2018 20:40:00 0.0
2018_01_14_S12 01/13/2018 20:45:00 0.0
2018_01_14_S12 01/13/2018 20:50:00 0.0
2018_01_14_S12 01/13/2018 20:55:00 0.0
2018_01_14_S12 01/13/2018 21:00:00 0.0
2018_01_14_S12 01/13/2018 21:05:00 0.0
2018_01_14_S12 01/13/2018 21:10:00 0.0
2018_01_14_S12 01/13/2018 21:15:00 0.0
2018_01_14_S12 01/13/2018 21:20:00 0.0
2018_01_14_S12 01/13/2018 21:25:00 0.0
2018_01_14_S12 01/13/2018 21:30:00 0.0
2018_01_14_S12 01/13/2018 21:35:00 0.0
2018_01_14_S12 01/13/2018 21:40:00 0.0
2018_01_14_S12 01/13/2018 21:45:00 0.0
2018_01_14_S12 01/13/2018 21:50:00 0.0
2018_01_14_S12 01/13/2018 21:55:00 0.0
2018_01_14_S12 01/13/2018 22:00:00 0.0
2018_01_14_S12 01/13/2018 22:05:00 0.0
2018_01_14_S12 01/13/2018 22:10:00 0.0
2018_01_14_S12 01/13/2018 22:15:00 0.0
2018_01_14_S12 01/13/2018 22:20:00 0.0
2018_01_14_S12 01/13/2018 22:25:00 0.0
2018_01_14_S12 01/13/2018 22:30:00 0.0
2018_01_14_S12 01/13/2018 22:35:00 0.0
2018_01_14_S12 01/13/2018 22:40:00 0.0
2018_01_14_S12 01/13/2018 22:45:00 0.0
2018_01_14_S12 01/13/2018 22:50:00 0.0
2018_01_14_S12 01/13/2018 22:55:00 0.0
2018_01_14_S12 01/13/2018 23:00:00 0.0
2018_01_14_S12 01/13/2018 23:05:00 0.0
2018_01_14_S12 01/13/2018 23:10:00 0.0
2018_01_14_S12 01/13/2018 23:15:00 0.0
2018_01_14_S12 01/13/2018 23:20:00 0.0
2018_01_14_S12 01/13/2018 23:25:00 0.0
2018_01_14_S12 01/13/2018 23:30:00 0.0
2018_01_14_S12 01/13/2018 23:35:00 0.0
2018_01_14_S12 01/13/2018 23:40:00 0.0
2018_01_14_S12 01/13/2018 23:45:00 0.0
2018_01_14_S12 01/13/2018 23:50:00 0.0
2018_01_14_S12 01/13/2018 23:55:00 0.0
2018_01_14_S12 01/14/2018 00:00:00 0.0
2018_01_14_S12 01/14/2018 00:05:00 0.0
2018_01_14_S12 01/14/2018 00:10:00 0.0
2018_01_14_S12 01/14/2018 00:15:00 0.0
2018_01_14_S12 01/14/2018 00:20:00 0.0
2018_01_14_S12 01/14/2018 00:25:00 0.0
2018_01_14_S12 01/14/2018 00:30:00 0.0
2018_01_14_S12 01/14/2018 00:35:00 0.0
2018_01_14_S12 01/14/2018 00:40:00 0.0
2018_01_14_S12 01/14/2018 00:45:00 0.0
2018_01_14_S12 01/14/2018 00:50:00 0.0
2018_01_14_S12 01/14/2018 00:55:00 0.0
2018_01_14_S12 01/14/2018 01:00:00 0.0
2018_01_14_S12 01/14/2018 01:05:00 0.0
2018_01_14_S12 01/14/2018 01:10:00 0.0
2018_01_14_S12 01/14/2018 01:15:00 0.0
2018_01_14_S12 01/14/2018 01:20:00 0.0
2018_01_14_S12 01/14/2018 01:25:00 0.0
2018_01_14_S12 01/14/2018 01:30:00 0.0
2018_01_14_S12 01/14/2018 01:35:00 0.0
2018_01_14_S12 01/14/2018 01:40:00 0.0
2018_01_14_S12 01/14/2018 01:45:00 0.0
2018_01_14_S12 01/14/2018 01:50:00 0.0
2018_01_14_S12 01/14/2018 01:55:00 0.0
2018_01_14_S12 01/14/2018 02:00:00 0.0
2018_01_14_S12 01/14/2018 02:05:00 0.0
2018_01_14_S12 01/14/2018 02:10:00 0.0
2018_01_14_S12 01/14/2018 02:15:00 0.0
2018_01_14_S12 01/14/2018 02:20:00 0.0
2018_01_14_S12 01/14/2018 02:25:00 0.0
2018_01_14_S12 01/14/2018 02:30:00 0.0
2018_01_14_S12 01/14/2018 02:35:00 0.0
2018_01_14_S12 01/14/2018 02:40:00 0.0
2018_01_14_S12 01/14/2018 02:45:00 0.0
2018_01_14_S12 01/14/2018 02:50:00 0.0
2018_01_14_S12 01/14/2018 02:55:00 0.0
2018_01_14_S12 01/14/2018 03:00:00 0.0017
2018_01_14_S12 01/14/2018 03:05:00 0.0909
2018_01_14_S12 01/14/2018 03:10:00 0.0032
2018_01_14_S12 01/14/2018 03:15:00 0.0
2018_01_14_S12 01/14/2018 03:20:00 0.0
2018_01_14_S12 01/14/2018 03:25:00 0.0
2018_01_14_S12 01/14/2018 03:30:00 0.0
2018_01_14_S12 01/14/2018 03:35:00 0.0
2018_01_14_S12 01/14/2018 03:40:00 0.0
2018_01_14_S12 01/14/2018 03:45:00 0.0
2018_01_14_S12 01/14/2018 03:50:00 0.0
2018_01_14_S12 01/14/2018 03:55:00 0.0
2018_01_14_S12 01/14/2018 04:00:00 0.0
2018_01_14_S12 01/14/2018 04:05:00 0.0
2018_01_14_S12 01/14/2018 04:10:00 0.0
2018_01_14_S12 01/14/2018 04:15:00 0.0
2018_01_14_S12 01/14/2018 04:20:00 0.0
2018_01_14_S12 01/14/2018 04:25:00 0.0
2018_01_14_S12 01/14/2018 04:30:00 0.0
2018_01_14_S12 01/14/2018 04:35:00 0.0
2018_01_14_S12 01/14/2018 04:40:00 0.0
2018_01_14_S12 01/14/2018 04:45:00 0.0
2018_01_14_S12 01/14/2018 04:50:00 0.0
2018_01_14_S12 01/14/2018 04:55:00 0.0
2018_01_14_S12 01/14/2018 05:00:00 0.0
2018_01_14_S12 01/14/2018 05:05:00 0.0
2018_01_14_S12 01/14/2018 05:10:00 0.0
2018_01_14_S12 01/14/2018 05:15:00 0.0
2018_01_14_S12 01/14/2018 05:20:00 0.0
2018_01_14_S12 01/14/2018 05:25:00 0.0
2018_01_14_S12 01/14/2018 05:30:00 0.0
2018_01_14_S12 01/14/2018 05:35:00 0.0
2018_01_14_S12 01/14/2018 05:40:00 0.0
2018_01_14_S12 01/14/2018 05:45:00 0.0
2018_01_14_S12 01/14/2018 05:50:00 0.0
2018_01_14_S12 01/14/2018 05:55:00 0.0
2018_01_14_S12 01/14/2018 06:00:00 0.2414
2018_01_14_S12 01/14/2018 06:05:00 0.1466
2018_01_14_S12 01/14/2018 06:10:00 1.5545
2018_01_14_S12 01/14/2018 06:15:00 0.011
2018_01_14_S12 01/14/2018 06:20:00 0.002
2018_01_14_S12 01/14/2018 06:25:00 0.0097
2018_01_14_S12 01/14/2018 06:30:00 0.0
2018_01_14_S12 01/14/2018 06:35:00 0.0
2018_01_14_S12 01/14/2018 06:40:00 0.0
2018_01_14_S12 01/14/2018 06:45:00 0.0
2018_01_14_S12 01/14/2018 06:50:00 0.0
2018_01_14_S12 01/14/2018 06:55:00 0.0
2018_01_14_S12 01/14/2018 07:00:00 0.0
2018_01_14_S12 01/14/2018 07:05:00 0.0
2018_01_14_S12 01/14/2018 07:10:00 0.0
2018_01_14_S12 01/14/2018 07:15:00 0.0
2018_01_14_S12 01/14/2018 07:20:00 0.0
2018_01_14_S12 01/14/2018 07:25:00 0.0
2018_01_14_S12 01/14/2018 07:30:00 0.0
2018_01_14_S12 01/14/2018 07:35:00 0.0
2018_01_14_S12 01/14/2018 07:40:00 0.0
2018_01_14_S12 01/14/2018 07:45:00 0.004
2018_01_14_S12 01/14/2018 07:50:00 0.0418
2018_01_14_S12 01/14/2018 07:55:00 0.0
2018_01_14_S12 01/14/2018 08:00:00 0.0
2018_01_14_S12 01/14/2018 08:05:00 0.0
2018_01_14_S12 01/14/2018 08:10:00 0.0
2018_01_14_S12 01/14/2018 08:15:00 0.0
2018_01_14_S12 01/14/2018 08:20:00 0.0016
2018_01_14_S12 01/14/2018 08:25:00 0.0351
2018_01_14_S12 01/14/2018 08:30:00 0.0178
2018_01_14_S12 01/14/2018 08:35:00 0.2035
2018_01_14_S12 01/14/2018 08:40:00 0.0
2018_01_14_S12 01/14/2018 08:45:00 0.0
2018_01_14_S12 01/14/2018 08:50:00 0.0
2018_01_14_S12 01/14/2018 08:55:00 0.0
2018_01_14_S12 01/14/2018 09:00:00 0.0
2018_01_14_S12 01/14/2018 09:05:00 0.0
2018_01_14_S12 01/14/2018 09:10:00 0.0
2018_01_14_S12 01/14/2018 09:15:00 0.0
2018_01_14_S12 01/14/2018 09:20:00 0.0
2018_01_14_S12 01/14/2018 09:25:00 0.0
2018_01_14_S12 01/14/2018 09:30:00 0.0
2018_01_14_S12 01/14/2018 09:35:00 0.0
2018_01_14_S12 01/14/2018 09:40:00 0.0
2018_01_14_S12 01/14/2018 09:45:00 0.0
2018_01_14_S12 01/14/2018 09:50:00 0.0
2018_01_14_S12 01/14/2018 09:55:00 0.0
2018_01_14_S12 01/14/2018 10:00:00 0.0
2018_01_14_S12 01/14/2018 10:05:00 0.0
2018_01_14_S12 01/14/2018 10:10:00 0.0
2018_01_14_S12 01/14/2018 10:15:00 0.0
2018_01_14_S12 01/14/2018 10:20:00 0.0
2018_01_14_S12 01/14/2018 10:25:00 0.0
2018_01_14_S12 01/14/2018 10:30:00 0.0
2018_01_14_S12 01/14/2018 10:35:00 0.0
2018_01_14_S12 01/14/2018 10:40:00 0.0
2018_01_14_S12 01/14/2018 10:45:00 0.0
2018_01_14_S12 01/14/2018 10:50:00 0.0
2018_01_14_S12 01/14/2018 10:55:00 0.0
2018_01_14_S12 01/14/2018 11:00:00 0.0
2018_01_14_S12 01/14/2018 11:05:00 0.0
2018_01_14_S12 01/14/2018 11:10:00 0.0
2018_01_14_S12 01/14/2018 11:15:00 0.0
2018_01_14_S12 01/14/2018 11:20:00 0.0
2018_01_14_S12 01/14/2018 11:25:00 0.0
2018_01_14_S12 01/14/2018 11:30:00 0.0
2018_01_14_S12 01/14/2018 11:35:00 0.0
2018_01_14_S12 01/14/2018 11:40:00 0.0
2018_01_14_S12 01/14/2018 11:45:00 0.0
2018_01_14_S12 01/14/2018 11:50:00 0.0
2018_01_14_S12 01/14/2018 11:55:00 0.0
2018_01_14_S12 01/14/2018 12:00:00 0.0
2018_01_14_S12 01/14/2018 12:05:00 0.0
2018_01_14_S12 01/14/2018 12:10:00 0.0
2018_01_14_S12 01/14/2018 12:15:00 0.0
2018_01_14_S12 01/14/2018 12:20:00 0.0
2018_01_14_S12 01/14/2018 12:25:00 0.0
2018_01_14_S12 01/14/2018 12:30:00 0.0
2018_01_14_S12 01/14/2018 12:35:00 0.0
2018_01_14_S12 01/14/2018 12:40:00 0.0
2018_01_14_S12 01/14/2018 12:45:00 0.0
2018_01_14_S12 01/14/2018 12:50:00 0.0
2018_01_14_S12 01/14/2018 12:55:00 0.0
2018_01_14_S12 01/14/2018 13:00:00 0.0
2018_01_14_S12 01/14/2018 13:05:00 0.0
2018_01_14_S12 01/14/2018 13:10:00 0.0
2018_01_14_S12 01/14/2018 13:15:00 0.0
2018_01_14_S12 01/14/2018 13:20:00 0.0
2018_01_14_S12 01/14/2018 13:25:00 0.0
2018_01_14_S12 01/14/2018 13:30:00 0.0
2018_01_14_S12 01/14/2018 13:35:00 0.0
2018_01_14_S12 01/14/2018 13:40:00 0.0
2018_01_14_S12 01/14/2018 13:45:00 0.0
2018_01_14_S12 01/14/2018 13:50:00 0.0
2018_01_14_S12 01/14/2018 13:55:00 0.0
2018_01_14_S12 01/14/2018 14:00:00 0.0
2018_01_14_S12 01/14/2018 14:05:00 0.0
2018_01_14_S12 01/14/2018 14:10:00 0.0
2018_01_14_S12 01/14/2018 14:15:00 0.0
2018_01_14_S12 01/14/2018 14:20:00 0.0
2018_01_14_S12 01/14/2018 14:25:00 0.0
2018_01_14_S12 01/14/2018 14:30:00 0.0
2018_01_14_S12 01/14/2018 14:35:00 0.0
2018_01_14_S12 01/14/2018 14:40:00 0.0
2018_01_14_S12 01/14/2018 14:45:00 0.0
2018_01_14_S12 01/14/2018 14:50:00 0.0
2018_01_14_S12 01/14/2018 14:55:00 0.0043
2018_01_14_S12 01/14/2018 15:00:00 0.0
2018_01_14_S12 01/14/2018 15:05:00 0.0
2018_01_14_S12 01/14/2018 15:10:00 0.0
2018_01_14_S12 01/14/2018 15:15:00 0.0
2018_01_14_S12 01/14/2018 15:20:00 0.0
2018_01_14_S12 01/14/2018 15:25:00 0.0
2018_01_14_S12 01/14/2018 15:30:00 0.0
2018_01_14_S12 01/14/2018 15:35:00 0.0
2018_01_14_S12 01/14/2018 15:40:00 0.0
2018_01_14_S12 01/14/2018 15:45:00 0.0
2018_01_14_S12 01/14/2018 15:50:00 0.0
2018_01_14_S12 01/14/2018 15:55:00 0.0
2018_01_14_S12 01/14/2018 16:00:00 0.0
2018_01_14_S12 01/14/2018 16:05:00 0.0
2018_01_14_S12 01/14/2018 16:10:00 0.0
2018_01_14_S12 01/14/2018 16:15:00 0.0
2018_01_14_S12 01/14/2018 16:20:00 0.0
2018_01_14_S12 01/14/2018 16:25:00 0.0
2018_01_14_S12 01/14/2018 16:30:00 0.0
2018_01_14_S12 01/14/2018 16:35:00 0.0
2018_01_14_S12 01/14/2018 16:40:00 0.0238
2018_01_14_S12 01/14/2018 16:45:00 0.0488
2018_01_14_S12 01/14/2018 16:50:00 0.0689
2018_01_14_S12 01/14/2018 16:55:00 0.0061
2018_01_14_S12 01/14/2018 17:00:00 0.0182
2018_01_14_S12 01/14/2018 17:05:00 0.0657
2018_01_14_S12 01/14/2018 17:10:00 0.2008
2018_01_14_S12 01/14/2018 17:15:00 0.0
2018_01_14_S12 01/14/2018 17:20:00 0.0
2018_01_14_S12 01/14/2018 17:25:00 0.0
2018_01_14_S12 01/14/2018 17:30:00 0.0009
2018_01_14_S12 01/14/2018 17:35:00 0.1266
2018_01_14_S12 01/14/2018 17:40:00 0.3474
2018_01_14_S12 01/14/2018 17:45:00 0.2209
2018_01_14_S12 01/14/2018 17:50:00 0.1956
2018_01_14_S12 01/14/2018 17:55:00 0.1545
2018_01_14_S12 01/14/2018 18:00:00 0.555
2018_01_14_S12 01/14/2018 18:05:00 0.072
2018_01_14_S12 01/14/2018 18:10:00 0.0448
2018_01_14_S12 01/14/2018 18:15:00 0.3165
2018_01_14_S12 01/14/2018 18:20:00 0.7778
2018_01_14_S12 01/14/2018 18:25:00 5.6152
2018_01_14_S12 01/14/2018 18:30:00 0.0
2018_01_14_S12 01/14/2018 18:35:00 0.0
2018_01_14_S12 01/14/2018 18:40:00 0.0111
2018_01_14_S12 01/14/2018 18:45:00 0.0353
2018_01_14_S12 01/14/2018 18:50:00 0.6166
2018_01_14_S12 01/14/2018 18:55:00 0.0735
2018_01_14_S12 01/14/2018 19:00:00 0.031
2018_01_14_S12 01/14/2018 19:05:00 0.0
2018_01_14_S12 01/14/2018 19:10:00 0.0
2018_01_14_S12 01/14/2018 19:15:00 0.0
2018_01_14_S12 01/14/2018 19:20:00 0.0
2018_01_14_S12 01/14/2018 19:25:00 0.0
2018_01_14_S12 01/14/2018 19:30:00 0.0
2018_01_14_S12 01/14/2018 19:35:00 0.0
2018_01_14_S12 01/14/2018 19:40:00 0.0
2018_01_14_S12 01/14/2018 19:45:00 0.0
2018_01_14_S12 01/14/2018 19:50:00 0.0021
2018_01_14_S12 01/14/2018 19:55:00 0.0
2018_01_14_S12 01/14/2018 20:00:00 0.0
2018_01_14_S12 01/14/2018 20:05:00 0.0
2018_01_14_S12 01/14/2018 20:10:00 0.0
2018_01_14_S12 01/14/2018 20:15:00 0.0
2018_01_14_S12 01/14/2018 20:20:00 0.0
2018_01_14_S12 01/14/2018 20:25:00 0.0
2018_01_14_S12 01/14/2018 20:30:00 0.0
2018_01_14_S12 01/14/2018 20:35:00 0.0
2018_01_14_S12 01/14/2018 20:40:00 0.0
2018_01_14_S12 01/14/2018 20:45:00 0.0
2018_01_14_S12 01/14/2018 20:50:00 0.0
2018_01_14_S12 01/14/2018 20:55:00 0.0
2018_01_14_S12 01/14/2018 21:00:00 0.0
2018_01_14_S12 01/14/2018 21:05:00 0.0
2018_01_14_S12 01/14/2018 21:10:00 0.0
2018_01_14_S12 01/14/2018 21:15:00 0.0
2018_01_14_S12 01/14/2018 21:20:00 0.0
2018_01_14_S12 01/14/2018 21:25:00 0.0
2018_01_14_S12 01/14/2018 21:30:00 0.0
2018_01_14_S12 01/14/2018 21:35:00 0.0
2018_01_14_S12 01/14/2018 21:40:00 0.0
2018_01_14_S12 01/14/2018 21:45:00 0.0
2018_01_14_S12 01/14/2018 21:50:00 0.0
2018_01_14_S12 01/14/2018 21:55:00 0.0
2018_01_14_S12 01/14/2018 22:00:00 0.0
2018_01_14_S12 01/14/2018 22:05:00 0.0
2018_01_14_S12 01/14/2018 22:10:00 0.0
2018_01_14_S12 01/14/2018 22:15:00 0.0
2018_01_14_S12 01/14/2018 22:20:00 0.0
2018_01_14_S12 01/14/2018 22:25:00 0.0
2018_01_14_S12 01/14/2018 22:30:00 0.0
2018_01_14_S12 01/14/2018 22:35:00 0.0
2018_01_14_S12 01/14/2018 22:40:00 0.0094
2018_01_14_S12 01/14/2018 22:45:00 0.0368
2018_01_14_S12 01/14/2018 22:50:00 0.005
2018_01_14_S12 01/14/2018 22:55:00 0.0
2018_01_14_S12 01/14/2018 23:00:00 0.1038
2018_01_14_S12 01/14/2018 23:05:00 0.1298
2018_01_14_S12 01/14/2018 23:10:00 0.049
2018_01_14_S12 01/14/2018 23:15:00 0.0223
2018_01_14_S12 01/14/2018 23:20:00 0.0
2018_01_14_S12 01/14/2018 23:25:00 0.0
2018_01_14_S12 01/14/2018 23:30:00 0.0
2018_01_14_S12 01/14/2018 23:35:00 0.0
2018_01_14_S12 01/14/2018 23:40:00 0.0
2018_01_14_S12 01/14/2018 23:45:00 0.0
2018_01_14_S12 01/14/2018 23:50:00 0.0
2018_01_14_S12 01/14/2018 23:55:00 0.0
2018_01_14_S12 01/15/2018 00:00:00 0.0
2018_01_14_S12 01/15/2018 00:05:00 0.0
2018_01_14_S12 01/15/2018 00:10:00 0.0
2018_01_14_S12 01/15/2018 00:15:00 0.0
2018_01_14_S12 01/15/2018 00:20:00 0.0
2018_01_14_S12 01/15/2018 00:25:00 0.0
2018_01_14_S12 01/15/2018 00:30:00 0.0
2018_01_14_S12 01/15/2018 00:35:00 0.0
2018_01_14_S12 01/15/2018 00:40:00 0.0
2018_01_14_S12 01/15/2018 00:45:00 0.0
2018_01_14_S12 01/15/2018 00:50:00 0.0
2018_01_14_S12 01/15/2018 00:55:00 0.0
2018_01_14_S12 01/15/2018 01:00:00 0.0
2018_01_14_S12 01/15/2018 01:05:00 0.0
2018_01_14_S12 01/15/2018 01:10:00 0.0
2018_01_14_S12 01/15/2018 01:15:00 0.0
2018_01_14_S12 01/15/2018 01:20:00 0.0
2018_01_14_S12 01/15/2018 01:25:00 0.0
2018_01_14_S12 01/15/2018 01:30:00 0.0
2018_01_14_S12 01/15/2018 01:35:00 0.0
2018_01_14_S12 01/15/2018 01:40:00 0.0
2018_01_14_S12 01/15/2018 01:45:00 0.0
2018_01_14_S12 01/15/2018 01:50:00 0.0
2018_01_14_S12 01/15/2018 01:55:00 0.0
2018_01_14_S12 01/15/2018 02:00:00 0.0
2018_01_14_S12 01/15/2018 02:05:00 0.0
2018_01_14_S12 01/15/2018 02:10:00 0.0
2018_01_14_S12 01/15/2018 02:15:00 0.0
2018_01_14_S12 01/15/2018 02:20:00 0.0026
2018_01_14_S12 01/15/2018 02:25:00 0.0451
2018_01_14_S12 01/15/2018 02:30:00 0.0015
2018_01_14_S12 01/15/2018 02:35:00 0.0277
2018_01_14_S12 01/15/2018 02:40:00 0.0733
2018_01_14_S12 01/15/2018 02:45:00 0.1274
2018_01_14_S12 01/15/2018 02:50:00 0.0287
2018_01_14_S12 01/15/2018 02:55:00 0.0079
2018_01_14_S12 01/15/2018 03:00:00 0.0043
2018_01_14_S12 01/15/2018 03:05:00 0.0788
2018_01_14_S12 01/15/2018 03:10:00 0.0112
2018_01_14_S12 01/15/2018 03:15:00 0.0
2018_01_14_S12 01/15/2018 03:20:00 0.0
2018_01_14_S12 01/15/2018 03:25:00 0.0
2018_01_14_S12 01/15/2018 03:30:00 0.0
2018_01_14_S12 01/15/2018 03:35:00 0.0
2018_01_14_S12 01/15/2018 03:40:00 0.0
2018_01_14_S12 01/15/2018 03:45:00 0.0
2018_01_14_S12 01/15/2018 03:50:00 0.0
2018_01_14_S12 01/15/2018 03:55:00 0.0
2018_01_14_S12 01/15/2018 04:00:00 0.0
2018_01_14_S12 01/15/2018 04:05:00 0.0
2018_01_14_S12 01/15/2018 04:10:00 0.0
2018_01_14_S12 01/15/2018 04:15:00 0.0
2018_01_14_S12 01/15/2018 04:20:00 0.0
2018_01_14_S12 01/15/2018 04:25:00 0.0
2018_01_14_S12 01/15/2018 04:30:00 0.0
2018_01_14_S12 01/15/2018 04:35:00 0.0
2018_01_14_S12 01/15/2018 04:40:00 0.0
2018_01_14_S12 01/15/2018 04:45:00 0.0
2018_01_14_S12 01/15/2018 04:50:00 0.0
2018_01_14_S12 01/15/2018 04:55:00 0.0
2018_01_14_S12 01/15/2018 05:00:00 0.0
2018_01_14_S12 01/15/2018 05:05:00 0.0
2018_01_14_S12 01/15/2018 05:10:00 0.0
2018_01_14_S12 01/15/2018 05:15:00 0.0
2018_01_14_S12 01/15/2018 05:20:00 0.0
2018_01_14_S12 01/15/2018 05:25:00 0.0
2018_01_14_S12 01/15/2018 05:30:00 0.0
2018_01_14_S12 01/15/2018 05:35:00 0.0
2018_01_14_S12 01/15/2018 05:40:00 0.0
2018_01_14_S12 01/15/2018 05:45:00 0.0
2018_01_14_S12 01/15/2018 05:50:00 0.0
2018_01_14_S12 01/15/2018 05:55:00 0.0
2018_01_14_S12 01/15/2018 06:00:00 0.0
2018_01_14_S12 01/15/2018 06:05:00 0.0
2018_01_14_S12 01/15/2018 06:10:00 0.0
2018_01_14_S12 01/15/2018 06:15:00 0.0
2018_01_14_S12 01/15/2018 06:20:00 0.0246
2018_01_14_S12 01/15/2018 06:25:00 0.3006
2018_01_14_S12 01/15/2018 06:30:00 0.5399
2018_01_14_S12 01/15/2018 06:35:00 0.0558
2018_01_14_S12 01/15/2018 06:40:00 0.0
2018_01_14_S12 01/15/2018 06:45:00 0.0
2018_01_14_S12 01/15/2018 06:50:00 0.0
2018_01_14_S12 01/15/2018 06:55:00 0.0
2018_01_14_S12 01/15/2018 07:00:00 0.0
2018_01_14_S12 01/15/2018 07:05:00 0.0
2018_01_14_S12 01/15/2018 07:10:00 0.0
2018_01_14_S12 01/15/2018 07:15:00 0.0
2018_01_14_S12 01/15/2018 07:20:00 0.0
2018_01_14_S12 01/15/2018 07:25:00 0.0
2018_01_14_S12 01/15/2018 07:30:00 0.0
2018_01_14_S12 01/15/2018 07:35:00 0.0
2018_01_14_S12 01/15/2018 07:40:00 0.0
2018_01_14_S12 01/15/2018 07:45:00 0.0
2018_01_14_S12 01/15/2018 07:50:00 0.0
2018_01_14_S12 01/15/2018 07:55:00 0.0
2018_01_14_S12 01/15/2018 08:00:00 0.0

2018_01_14_S13 01/13/2018 08:00:00 0.0
2018_01_14_S13 01/13/2018 08:05:00 0.0
2018_01_14_S13 01/13/2018 08:10:00 0.0
2018_01_14_S13 01/13/2018 08:15:00 0.0
2018_01_14_S13 01/13/2018 08:20:00 0.0
2018_01_14_S13 01/13/2018 08:25:00 0.0
2018_01_14_S13 01/13/2018 08:30:00 0.0
2018_01_14_S13 01/13/2018 08:35:00 0.0
2018_01_14_S13 01/13/2018 08:40:00 0.0
2018_01_14_S13 01/13/2018 08:45:00 0.0
2018_01_14_S13 01/13/2018 08:50:00 0.0
2018_01_14_S13 01/13/2018 08:55:00 0.0
2018_01_14_S13 01/13/2018 09:00:00 0.0
2018_01_14_S13 01/13/2018 09:05:00 0.0
2018_01_14_S13 01/13/2018 09:10:00 0.0
2018_01_14_S13 01/13/2018 09:15:00 0.0
2018_01_14_S13 01/13/2018 09:20:00 0.0
2018_01_14_S13 01/13/2018 09:25:00 0.0
2018_01_14_S13 01/13/2018 09:30:00 0.0
2018_01_14_S13 01/13/2018 09:35:00 0.0
2018_01_14_S13 01/13/2018 09:40:00 0.0
2018_01_14_S13 01/13/2018 09:45:00 0.0
2018_01_14_S13 01/13/2018 09:50:00 0.0
2018_01_14_S13 01/13/2018 09:55:00 0.0
2018_01_14_S13 01/13/2018 10:00:00 0.0
2018_01_14_S13 01/13/2018 10:05:00 0.0
2018_01_14_S13 01/13/2018 10:10:00 0.0
2018_01_14_S13 01/13/2018 10:15:00 0.0
2018_01_14_S13 01/13/2018 10:20:00 0.0
2018_01_14_S13 01/13/2018 10:25:00 0.0
2018_01_14_S13 01/13/2018 10:30:00 0.0
2018_01_14_S13 01/13/2018 10:35:00 0.0
2018_01_14_S13 01/13/2018 10:40:00 0.0
2018_01_14_S13 01/13/2018 10:45:00 0.0
2018_01_14_S13 01/13/2018 10:50:00 0.0
2018_01_14_S13 01/13/2018 10:55:00 0.0
2018_01_14_S13 01/13/2018 11:00:00 0.0
2018_01_14_S13 01/13/2018 11:05:00 0.0
2018_01_14_S13 01/13/2018 11:10:00 0.0
2018_01_14_S13 01/13/2018 11:15:00 0.0
2018_01_14_S13 01/13/2018 11:20:00 0.0
2018_01_14_S13 01/13/2018 11:25:00 0.0
2018_01_14_S13 01/13/2018 11:30:00 0.0
2018_01_14_S13 01/13/2018 11:35:00 0.0
2018_01_14_S13 01/13/2018 11:40:00 0.0
2018_01_14_S13 01/13/2018 11:45:00 0.0
2018_01_14_S13 01/13/2018 11:50:00 0.0
2018_01_14_S13 01/13/2018 11:55:00 0.0
2018_01_14_S13 01/13/2018 12:00:00 0.0
2018_01_14_S13 01/13/2018 12:05:00 0.0
2018_01_14_S13 01/13/2018 12:10:00 0.0
2018_01_14_S13 01/13/2018 12:15:00 0.0
2018_01_14_S13 01/13/2018 12:20:00 0.0
2018_01_14_S13 01/13/2018 12:25:00 0.0
2018_01_14_S13 01/13/2018 12:30:00 0.0
2018_01_14_S13 01/13/2018 12:35:00 0.0
2018_01_14_S13 01/13/2018 12:40:00 0.0
2018_01_14_S13 01/13/2018 12:45:00 0.0
2018_01_14_S13 01/13/2018 12:50:00 0.0
2018_01_14_S13 01/13/2018 12:55:00 0.0
2018_01_14_S13 01/13/2018 13:00:00 0.0
2018_01_14_S13 01/13/2018 13:05:00 0.0
2018_01_14_S13 01/13/2018 13:10:00 0.0
2018_01_14_S13 01/13/2018 13:15:00 0.0
2018_01_14_S13 01/13/2018 13:20:00 0.0
2018_01_14_S13 01/13/2018 13:25:00 0.0
2018_01_14_S13 01/13/2018 13:30:00 0.0
2018_01_14_S13 01/13/2018 13:35:00 0.0
2018_01_14_S13 01/13/2018 13:40:00 0.0
2018_01_14_S13 01/13/2018 13:45:00 0.0
2018_01_14_S13 01/13/2018 13:50:00 0.0
2018_01_14_S13 01/13/2018 13:55:00 0.0
2018_01_14_S13 01/13/2018 14:00:00 0.0
2018_01_14_S13 01/13/2018 14:05:00 0.0
2018_01_14_S13 01/13/2018 14:10:00 0.0
2018_01_14_S13 01/13/2018 14:15:00 0.0
2018_01_14_S13 01/13/2018 14:20:00 0.0
2018_01_14_S13 01/13/2018 14:25:00 0.0
2018_01_14_S13 01/13/2018 14:30:00 0.0
2018_01_14_S13 01/13/2018 14:35:00 0.0
2018_01_14_S13 01/13/2018 14:40:00 0.0
2018_01_14_S13 01/13/2018 14:45:00 0.0
2018_01_14_S13 01/13/2018 14:50:00 0.0
2018_01_14_S13 01/13/2018 14:55:00 0.0
2018_01_14_S13 01/13/2018 15:00:00 0.0
2018_01_14_S13 01/13/2018 15:05:00 0.0
2018_01_14_S13 01/13/2018 15:10:00 0.0
2018_01_14_S13 01/13/2018 15:15:00 0.0
2018_01_14_S13 01/13/2018 15:20:00 0.0
2018_01_14_S13 01/13/2018 15:25:00 0.0
2018_01_14_S13 01/13/2018 15:30:00 0.0
2018_01_14_S13 01/13/2018 15:35:00 0.0
2018_01_14_S13 01/13/2018 15:40:00 0.0
2018_01_14_S13 01/13/2018 15:45:00 0.0
2018_01_14_S13 01/13/2018 15:50:00 0.0
2018_01_14_S13 01/13/2018 15:55:00 0.0
2018_01_14_S13 01/13/2018 16:00:00 0.0
2018_01_14_S13 01/13/2018 16:05:00 0.0
2018_01_14_S13 01/13/2018 16:10:00 0.0
2018_01_14_S13 01/13/2018 16:15:00 0.0
2018_01_14_S13 01/13/2018 16:20:00 0.0
2018_01_14_S13 01/13/2018 16:25:00 0.0
2018_01_14_S13 01/13/2018 16:30:00 0.0
2018_01_14_S13 01/13/2018 16:35:00 0.0
2018_01_14_S13 01/13/2018 16:40:00 0.0
2018_01_14_S13 01/13/2018 16:45:00 0.0
2018_01_14_S13 01/13/2018 16:50:00 0.0
2018_01_14_S13 01/13/2018 16:55:00 0.0
2018_01_14_S13 01/13/2018 17:00:00 0.0
2018_01_14_S13 01/13/2018 17:05:00 0.0
2018_01_14_S13 01/13/2018 17:10:00 0.0
2018_01_14_S13 01/13/2018 17:15:00 0.0
2018_01_14_S13 01/13/2018 17:20:00 0.0
2018_01_14_S13 01/13/2018 17:25:00 0.0
2018_01_14_S13 01/13/2018 17:30:00 0.0
2018_01_14_S13 01/13/2018 17:35:00 0.0
2018_01_14_S13 01/13/2018 17:40:00 0.0
2018_01_14_S13 01/13/2018 17:45:00 0.0
2018_01_14_S13 01/13/2018 17:50:00 0.0
2018_01_14_S13 01/13/2018 17:55:00 0.0
2018_01_14_S13 01/13/2018 18:00:00 0.0
2018_01_14_S13 01/13/2018 18:05:00 0.0
2018_01_14_S13 01/13/2018 18:10:00 0.0
2018_01_14_S13 01/13/2018 18:15:00 0.0
2018_01_14_S13 01/13/2018 18:20:00 0.0
2018_01_14_S13 01/13/2018 18:25:00 0.0
2018_01_14_S13 01/13/2018 18:30:00 0.0
2018_01_14_S13 01/13/2018 18:35:00 0.0
2018_01_14_S13 01/13/2018 18:40:00 0.0
2018_01_14_S13 01/13/2018 18:45:00 0.0
2018_01_14_S13 01/13/2018 18:50:00 0.0
2018_01_14_S13 01/13/2018 18:55:00 0.0
2018_01_14_S13 01/13/2018 19:00:00 0.0
2018_01_14_S13 01/13/2018 19:05:00 0.0
2018_01_14_S13 01/13/2018 19:10:00 0.0
2018_01_14_S13 01/13/2018 19:15:00 0.0
2018_01_14_S13 01/13/2018 19:20:00 0.0
2018_01_14_S13 01/13/2018 19:25:00 0.0
2018_01_14_S13 01/13/2018 19:30:00 0.0
2018_01_14_S13 01/13/2018 19:35:00 0.0
2018_01_14_S13 01/13/2018 19:40:00 0.0
2018_01_14_S13 01/13/2018 19:45:00 0.0
2018_01_14_S13 01/13/2018 19:50:00 0.0
2018_01_14_S13 01/13/2018 19:55:00 0.0
2018_01_14_S13 01/13/2018 20:00:00 0.0
2018_01_14_S13 01/13/2018 20:05:00 0.0
2018_01_14_S13 01/13/2018 20:10:00 0.0
2018_01_14_S13 01/13/2018 20:15:00 0.0
2018_01_14_S13 01/13/2018 20:20:00 0.0
2018_01_14_S13 01/13/2018 20:25:00 0.0
2018_01_14_S13 01/13/2018 20:30:00 0.0
2018_01_14_S13 01/13/2018 20:35:00 0.0
2018_01_14_S13 01/13/2018 20:40:00 0.0
2018_01_14_S13 01/13/2018 20:45:00 0.0
2018_01_14_S13 01/13/2018 20:50:00 0.0
2018_01_14_S13 01/13/2018 20:55:00 0.0
2018_01_14_S13 01/13/2018 21:00:00 0.0
2018_01_14_S13 01/13/2018 21:05:00 0.0
2018_01_14_S13 01/13/2018 21:10:00 0.0
2018_01_14_S13 01/13/2018 21:15:00 0.0
2018_01_14_S13 01/13/2018 21:20:00 0.0
2018_01_14_S13 01/13/2018 21:25:00 0.0
2018_01_14_S13 01/13/2018 21:30:00 0.0
2018_01_14_S13 01/13/2018 21:35:00 0.0
2018_01_14_S13 01/13/2018 21:40:00 0.0
2018_01_14_S13 01/13/2018 21:45:00 0.0
2018_01_14_S13 01/13/2018 21:50:00 0.0
2018_01_14_S13 01/13/2018 21:55:00 0.0
2018_01_14_S13 01/13/2018 22:00:00 0.0
2018_01_14_S13 01/13/2018 22:05:00 0.0
2018_01_14_S13 01/13/2018 22:10:00 0.0
2018_01_14_S13 01/13/2018 22:15:00 0.0
2018_01_14_S13 01/13/2018 22:20:00 0.0
2018_01_14_S13 01/13/2018 22:25:00 0.0
2018_01_14_S13 01/13/2018 22:30:00 0.0
2018_01_14_S13 01/13/2018 22:35:00 0.0
2018_01_14_S13 01/13/2018 22:40:00 0.0
2018_01_14_S13 01/13/2018 22:45:00 0.0
2018_01_14_S13 01/13/2018 22:50:00 0.0
2018_01_14_S13 01/13/2018 22:55:00 0.0
2018_01_14_S13 01/13/2018 23:00:00 0.0
2018_01_14_S13 01/13/2018 23:05:00 0.0
2018_01_14_S13 01/13/2018 23:10:00 0.0
2018_01_14_S13 01/13/2018 23:15:00 0.0
2018_01_14_S13 01/13/2018 23:20:00 0.0
2018_01_14_S13 01/13/2018 23:25:00 0.0
2018_01_14_S13 01/13/2018 23:30:00 0.0
2018_01_14_S13 01/13/2018 23:35:00 0.0
2018_01_14_S13 01/13/2018 23:40:00 0.0
2018_01_14_S13 01/13/2018 23:45:00 0.0
2018_01_14_S13 01/13/2018 23:50:00 0.0
2018_01_14_S13 01/13/2018 23:55:00 0.0
2018_01_14_S13 01/14/2018 00:00:00 0.0
2018_01_14_S13 01/14/2018 00:05:00 0.0
2018_01_14_S13 01/14/2018 00:10:00 0.0
2018_01_14_S13 01/14/2018 00:15:00 0.0
2018_01_14_S13 01/14/2018 00:20:00 0.0
2018_01_14_S13 01/14/2018 00:25:00 0.0
2018_01_14_S13 01/14/2018 00:30:00 0.0
2018_01_14_S13 01/14/2018 00:35:00 0.0
2018_01_14_S13 01/14/2018 00:40:00 0.0
2018_01_14_S13 01/14/2018 00:45:00 0.0
2018_01_14_S13 01/14/2018 00:50:00 0.0
2018_01_14_S13 01/14/2018 00:55:00 0.0
2018_01_14_S13 01/14/2018 01:00:00 0.0
2018_01_14_S13 01/14/2018 01:05:00 0.0
2018_01_14_S13 01/14/2018 01:10:00 0.0
2018_01_14_S13 01/14/2018 01:15:00 0.0
2018_01_14_S13 01/14/2018 01:20:00 0.0
2018_01_14_S13 01/14/2018 01:25:00 0.0
2018_01_14_S13 01/14/2018 01:30:00 0.0
2018_01_14_S13 01/14/2018 01:35:00 0.0
2018_01_14_S13 01/14/2018 01:40:00 0.0
2018_01_14_S13 01/14/2018 01:45:00 0.0
2018_01_14_S13 01/14/2018 01:50:00 0.0
2018_01_14_S13 01/14/2018 01:55:00 0.0
2018_01_14_S13 01/14/2018 02:00:00 0.0
2018_01_14_S13 01/14/2018 02:05:00 0.0
2018_01_14_S13 01/14/2018 02:10:00 0.0
2018_01_14_S13 01/14/2018 02:15:00 0.0
2018_01_14_S13 01/14/2018 02:20:00 0.0
2018_01_14_S13 01/14/2018 02:25:00 0.0
2018_01_14_S13 01/14/2018 02:30:00 0.0
2018_01_14_S13 01/14/2018 02:35:00 0.0
2018_01_14_S13 01/14/2018 02:40:00 0.0
2018_01_14_S13 01/14/2018 02:45:00 0.0
2018_01_14_S13 01/14/2018 02:50:00 0.0
2018_01_14_S13 01/14/2018 02:55:00 0.0
2018_01_14_S13 01/14/2018 03:00:00 0.0008
2018_01_14_S13 01/14/2018 03:05:00 0.0564
2018_01_14_S13 01/14/2018 03:10:00 0.0244
2018_01_14_S13 01/14/2018 03:15:00 0.0
2018_01_14_S13 01/14/2018 03:20:00 0.0
2018_01_14_S13 01/14/2018 03:25:00 0.0
2018_01_14_S13 01/14/2018 03:30:00 0.0
2018_01_14_S13 01/14/2018 03:35:00 0.0
2018_01_14_S13 01/14/2018 03:40:00 0.0
2018_01_14_S13 01/14/2018 03:45:00 0.0
2018_01_14_S13 01/14/2018 03:50:00 0.0
2018_01_14_S13 01/14/2018 03:55:00 0.0
2018_01_14_S13 01/14/2018 04:00:00 0.0
2018_01_14_S13 01/14/2018 04:05:00 0.0
2018_01_14_S13 01/14/2018 04:10:00 0.0
2018_01_14_S13 01/14/2018 04:15:00 0.0
2018_01_14_S13 01/14/2018 04:20:00 0.0
2018_01_14_S13 01/14/2018 04:25:00 0.0
2018_01_14_S13 01/14/2018 04:30:00 0.0
2018_01_14_S13 01/14/2018 04:35:00 0.0
2018_01_14_S13 01/14/2018 04:40:00 0.0
2018_01_14_S13 01/14/2018 04:45:00 0.0
2018_01_14_S13 01/14/2018 04:50:00 0.0
2018_01_14_S13 01/14/2018 04:55:00 0.0
2018_01_14_S13 01/14/2018 05:00:00 0.0
2018_01_14_S13 01/14/2018 05:05:00 0.0
2018_01_14_S13 01/14/2018 05:10:00 0.0
2018_01_14_S13 01/14/2018 05:15:00 0.0
2018_01_14_S13 01/14/2018 05:20:00 0.0
2018_01_14_S13 01/14/2018 05:25:00 0.0
2018_01_14_S13 01/14/2018 05:30:00 0.0
2018_01_14_S13 01/14/2018 05:35:00 0.0
2018_01_14_S13 01/14/2018 05:40:00 0.0
2018_01_14_S13 01/14/2018 05:45:00 0.0
2018_01_14_S13 01/14/2018 05:50:00 0.0
2018_01_14_S13 01/14/2018 05:55:00 0.0001
2018_01_14_S13 01/14/2018 06:00:00 0.2059
2018_01_14_S13 01/14/2018 06:05:00 5.2597
2018_01_14_S13 01/14/2018 06:10:00 0.3181
2018_01_14_S13 01/14/2018 06:15:00 0.0148
2018_01_14_S13 01/14/2018 06:20:00 0.0731
2018_01_14_S13 01/14/2018 06:25:00 0.0386
2018_01_14_S13 01/14/2018 06:30:00 0.0003
2018_01_14_S13 01/14/2018 06:35:00 0.0
2018_01_14_S13 01/14/2018 06:40:00 0.0
2018_01_14_S13 01/14/2018 06:45:00 0.0
2018_01_14_S13 01/14/2018 06:50:00 0.0
2018_01_14_S13 01/14/2018 06:55:00 0.0
2018_01_14_S13 01/14/2018 07:00:00 0.0
2018_01_14_S13 01/14/2018 07:05:00 0.0
2018_01_14_S13 01/14/2018 07:10:00 0.0
2018_01_14_S13 01/14/2018 07:15:00 0.0
2018_01_14_S13 01/14/2018 07:20:00 0.0
2018_01_14_S13 01/14/2018 07:25:00 0.0
2018_01_14_S13 01/14/2018 07:30:00 0.0
2018_01_14_S13 01/14/2018 07:35:00 0.0
2018_01_14_S13 01/14/2018 07:40:00 0.0
2018_01_14_S13 01/14/2018 07:45:00 0.0003
2018_01_14_S13 01/14/2018 07:50:00 0.0954
2018_01_14_S13 01/14/2018 07:55:00 0.0014
2018_01_14_S13 01/14/2018 08:00:00 0.0
2018_01_14_S13 01/14/2018 08:05:00 0.0
2018_01_14_S13 01/14/2018 08:10:00 0.0
2018_01_14_S13 01/14/2018 08:15:00 0.0003
2018_01_14_S13 01/14/2018 08:20:00 0.0015
2018_01_14_S13 01/14/2018 08:25:00 0.0193
2018_01_14_S13 01/14/2018 08:30:00 0.0314
2018_01_14_S13 01/14/2018 08:35:00 0.431
2018_01_14_S13 01/14/2018 08:40:00 0.0
2018_01_14_S13 01/14/2018 08:45:00 0.0
2018_01_14_S13 01/14/2018 08:50:00 0.0
2018_01_14_S13 01/14/2018 08:55:00 0.0
2018_01_14_S13 01/14/2018 09:00:00 0.0
2018_01_14_S13 01/14/2018 09:05:00 0.0
2018_01_14_S13 01/14/2018 09:10:00 0.0
2018_01_14_S13 01/14/2018 09:15:00 0.0
2018_01_14_S13 01/14/2018 09:20:00 0.0
2018_01_14_S13 01/14/2018 09:25:00 0.0
2018_01_14_S13 01/14/2018 09:30:00 0.0
2018_01_14_S13 01/14/2018 09:35:00 0.0
2018_01_14_S13 01/14/2018 09:40:00 0.0
2018_01_14_S13 01/14/2018 09:45:00 0.0
2018_01_14_S13 01/14/2018 09:50:00 0.0
2018_01_14_S13 01/14/2018 09:55:00 0.0
2018_01_14_S13 01/14/2018 10:00:00 0.0
2018_01_14_S13 01/14/2018 10:05:00 0.0
2018_01_14_S13 01/14/2018 10:10:00 0.0
2018_01_14_S13 01/14/2018 10:15:00 0.0
2018_01_14_S13 01/14/2018 10:20:00 0.0
2018_01_14_S13 01/14/2018 10:25:00 0.0
2018_01_14_S13 01/14/2018 10:30:00 0.0
2018_01_14_S13 01/14/2018 10:35:00 0.0
2018_01_14_S13 01/14/2018 10:40:00 0.0
2018_01_14_S13 01/14/2018 10:45:00 0.0
2018_01_14_S13 01/14/2018 10:50:00 0.0
2018_01_14_S13 01/14/2018 10:55:00 0.0
2018_01_14_S13 01/14/2018 11:00:00 0.0
2018_01_14_S13 01/14/2018 11:05:00 0.0
2018_01_14_S13 01/14/2018 11:10:00 0.0
2018_01_14_S13 01/14/2018 11:15:00 0.0
2018_01_14_S13 01/14/2018 11:20:00 0.0
2018_01_14_S13 01/14/2018 11:25:00 0.0
2018_01_14_S13 01/14/2018 11:30:00 0.0
2018_01_14_S13 01/14/2018 11:35:00 0.0
2018_01_14_S13 01/14/2018 11:40:00 0.0
2018_01_14_S13 01/14/2018 11:45:00 0.0
2018_01_14_S13 01/14/2018 11:50:00 0.0
2018_01_14_S13 01/14/2018 11:55:00 0.0
2018_01_14_S13 01/14/2018 12:00:00 0.0
2018_01_14_S13 01/14/2018 12:05:00 0.0
2018_01_14_S13 01/14/2018 12:10:00 0.0
2018_01_14_S13 01/14/2018 12:15:00 0.0
2018_01_14_S13 01/14/2018 12:20:00 0.0
2018_01_14_S13 01/14/2018 12:25:00 0.0
2018_01_14_S13 01/14/2018 12:30:00 0.0
2018_01_14_S13 01/14/2018 12:35:00 0.0
2018_01_14_S13 01/14/2018 12:40:00 0.0
2018_01_14_S13 01/14/2018 12:45:00 0.0
2018_01_14_S13 01/14/2018 12:50:00 0.0
2018_01_14_S13 01/14/2018 12:55:00 0.0
2018_01_14_S13 01/14/2018 13:00:00 0.0
2018_01_14_S13 01/14/2018 13:05:00 0.0
2018_01_14_S13 01/14/2018 13:10:00 0.0
2018_01_14_S13 01/14/2018 13:15:00 0.0
2018_01_14_S13 01/14/2018 13:20:00 0.0
2018_01_14_S13 01/14/2018 13:25:00 0.0
2018_01_14_S13 01/14/2018 13:30:00 0.0
2018_01_14_S13 01/14/2018 13:35:00 0.0
2018_01_14_S13 01/14/2018 13:40:00 0.0
2018_01_14_S13 01/14/2018 13:45:00 0.0
2018_01_14_S13 01/14/2018 13:50:00 0.0
2018_01_14_S13 01/14/2018 13:55:00 0.0
2018_01_14_S13 01/14/2018 14:00:00 0.0
2018_01_14_S13 01/14/2018 14:05:00 0.0
2018_01_14_S13 01/14/2018 14:10:00 0.0
2018_01_14_S13 01/14/2018 14:15:00 0.0
2018_01_14_S13 01/14/2018 14:20:00 0.0
2018_01_14_S13 01/14/2018 14:25:00 0.0
2018_01_14_S13 01/14/2018 14:30:00 0.0
2018_01_14_S13 01/14/2018 14:35:00 0.0
2018_01_14_S13 01/14/2018 14:40:00 0.0
2018_01_14_S13 01/14/2018 14:45:00 0.0
2018_01_14_S13 01/14/2018 14:50:00 0.0
2018_01_14_S13 01/14/2018 14:55:00 0.001
2018_01_14_S13 01/14/2018 15:00:00 0.0
2018_01_14_S13 01/14/2018 15:05:00 0.0
2018_01_14_S13 01/14/2018 15:10:00 0.0
2018_01_14_S13 01/14/2018 15:15:00 0.0
2018_01_14_S13 01/14/2018 15:20:00 0.0
2018_01_14_S13 01/14/2018 15:25:00 0.0
2018_01_14_S13 01/14/2018 15:30:00 0.0
2018_01_14_S13 01/14/2018 15:35:00 0.0
2018_01_14_S13 01/14/2018 15:40:00 0.0
2018_01_14_S13 01/14/2018 15:45:00 0.0
2018_01_14_S13 01/14/2018 15:50:00 0.0
2018_01_14_S13 01/14/2018 15:55:00 0.0
2018_01_14_S13 01/14/2018 16:00:00 0.0
2018_01_14_S13 01/14/2018 16:05:00 0.0
2018_01_14_S13 01/14/2018 16:10:00 0.0
2018_01_14_S13 01/14/2018 16:15:00 0.0
2018_01_14_S13 01/14/2018 16:20:00 0.0
2018_01_14_S13 01/14/2018 16:25:00 0.0
2018_01_14_S13 01/14/2018 16:30:00 0.0
2018_01_14_S13 01/14/2018 16:35:00 0.0
2018_01_14_S13 01/14/2018 16:40:00 0.0086
2018_01_14_S13 01/14/2018 16:45:00 0.0555
2018_01_14_S13 01/14/2018 16:50:00 0.0372
2018_01_14_S13 01/14/2018 16:55:00 0.1135
2018_01_14_S13 01/14/2018 17:00:00 0.0025
2018_01_14_S13 01/14/2018 17:05:00 0.0246
2018_01_14_S13 01/14/2018 17:10:00 0.3102
2018_01_14_S13 01/14/2018 17:15:00 0.0009
2018_01_14_S13 01/14/2018 17:20:00 0.0
2018_01_14_S13 01/14/2018 17:25:00 0.0
2018_01_14_S13 01/14/2018 17:30:00 0.0
2018_01_14_S13 01/14/2018 17:35:00 0.1799
2018_01_14_S13 01/14/2018 17:40:00 0.0901
2018_01_14_S13 01/14/2018 17:45:00 0.376
2018_01_14_S13 01/14/2018 17:50:00 0.1959
2018_01_14_S13 01/14/2018 17:55:00 0.1353
2018_01_14_S13 01/14/2018 18:00:00 0.5755
2018_01_14_S13 01/14/2018 18:05:00 0.1906
2018_01_14_S13 01/14/2018 18:10:00 0.1404
2018_01_14_S13 01/14/2018 18:15:00 0.3847
2018_01_14_S13 01/14/2018 18:20:00 2.1521
2018_01_14_S13 01/14/2018 18:25:00 2.5114
2018_01_14_S13 01/14/2018 18:30:00 0.0027
2018_01_14_S13 01/14/2018 18:35:00 0.0
2018_01_14_S13 01/14/2018 18:40:00 0.0025
2018_01_14_S13 01/14/2018 18:45:00 0.4587
2018_01_14_S13 01/14/2018 18:50:00 1.465
2018_01_14_S13 01/14/2018 18:55:00 1.3216
2018_01_14_S13 01/14/2018 19:00:00 0.4528
2018_01_14_S13 01/14/2018 19:05:00 0.0
2018_01_14_S13 01/14/2018 19:10:00 0.0
2018_01_14_S13 01/14/2018 19:15:00 0.0
2018_01_14_S13 01/14/2018 19:20:00 0.0
2018_01_14_S13 01/14/2018 19:25:00 0.0
2018_01_14_S13 01/14/2018 19:30:00 0.0
2018_01_14_S13 01/14/2018 19:35:00 0.0
2018_01_14_S13 01/14/2018 19:40:00 0.0
2018_01_14_S13 01/14/2018 19:45:00 0.0
2018_01_14_S13 01/14/2018 19:50:00 0.0
2018_01_14_S13 01/14/2018 19:55:00 0.0
2018_01_14_S13 01/14/2018 20:00:00 0.0
2018_01_14_S13 01/14/2018 20:05:00 0.0
2018_01_14_S13 01/14/2018 20:10:00 0.0
2018_01_14_S13 01/14/2018 20:15:00 0.0
2018_01_14_S13 01/14/2018 20:20:00 0.0
2018_01_14_S13 01/14/2018 20:25:00 0.0
2018_01_14_S13 01/14/2018 20:30:00 0.0
2018_01_14_S13 01/14/2018 20:35:00 0.0
2018_01_14_S13 01/14/2018 20:40:00 0.0
2018_01_14_S13 01/14/2018 20:45:00 0.0
2018_01_14_S13 01/14/2018 20:50:00 0.0
2018_01_14_S13 01/14/2018 20:55:00 0.0
2018_01_14_S13 01/14/2018 21:00:00 0.0
2018_01_14_S13 01/14/2018 21:05:00 0.0
2018_01_14_S13 01/14/2018 21:10:00 0.0
2018_01_14_S13 01/14/2018 21:15:00 0.0
2018_01_14_S13 01/14/2018 21:20:00 0.0
2018_01_14_S13 01/14/2018 21:25:00 0.0
2018_01_14_S13 01/14/2018 21:30:00 0.0
2018_01_14_S13 01/14/2018 21:35:00 0.0
2018_01_14_S13 01/14/2018 21:40:00 0.0
2018_01_14_S13 01/14/2018 21:45:00 0.0
2018_01_14_S13 01/14/2018 21:50:00 0.0
2018_01_14_S13 01/14/2018 21:55:00 0.0
2018_01_14_S13 01/14/2018 22:00:00 0.0
2018_01_14_S13 01/14/2018 22:05:00 0.0
2018_01_14_S13 01/14/2018 22:10:00 0.0
2018_01_14_S13 01/14/2018 22:15:00 0.0
2018_01_14_S13 01/14/2018 22:20:00 0.0
2018_01_14_S13 01/14/2018 22:25:00 0.0
2018_01_14_S13 01/14/2018 22:30:00 0.0
2018_01_14_S13 01/14/2018 22:35:00 0.0
2018_01_14_S13 01/14/2018 22:40:00 0.0034
2018_01_14_S13 01/14/2018 22:45:00 0.0288
2018_01_14_S13 01/14/2018 22:50:00 0.0003
2018_01_14_S13 01/14/2018 22:55:00 0.003
2018_01_14_S13 01/14/2018 23:00:00 0.0346
2018_01_14_S13 01/14/2018 23:05:00 0.0447
2018_01_14_S13 01/14/2018 23:10:00 0.0193
2018_01_14_S13 01/14/2018 23:15:00 0.028
2018_01_14_S13 01/14/2018 23:20:00 0.0028
2018_01_14_S13 01/14/2018 23:25:00 0.0001
2018_01_14_S13 01/14/2018 23:30:00 0.0
2018_01_14_S13 01/14/2018 23:35:00 0.0
2018_01_14_S13 01/14/2018 23:40:00 0.0
2018_01_14_S13 01/14/2018 23:45:00 0.0
2018_01_14_S13 01/14/2018 23:50:00 0.0
2018_01_14_S13 01/14/2018 23:55:00 0.0
2018_01_14_S13 01/15/2018 00:00:00 0.0
2018_01_14_S13 01/15/2018 00:05:00 0.0
2018_01_14_S13 01/15/2018 00:10:00 0.0
2018_01_14_S13 01/15/2018 00:15:00 0.0
2018_01_14_S13 01/15/2018 00:20:00 0.0
2018_01_14_S13 01/15/2018 00:25:00 0.0
2018_01_14_S13 01/15/2018 00:30:00 0.0
2018_01_14_S13 01/15/2018 00:35:00 0.0
2018_01_14_S13 01/15/2018 00:40:00 0.0
2018_01_14_S13 01/15/2018 00:45:00 0.0
2018_01_14_S13 01/15/2018 00:50:00 0.0
2018_01_14_S13 01/15/2018 00:55:00 0.0
2018_01_14_S13 01/15/2018 01:00:00 0.0
2018_01_14_S13 01/15/2018 01:05:00 0.0
2018_01_14_S13 01/15/2018 01:10:00 0.0
2018_01_14_S13 01/15/2018 01:15:00 0.0
2018_01_14_S13 01/15/2018 01:20:00 0.0
2018_01_14_S13 01/15/2018 01:25:00 0.0
2018_01_14_S13 01/15/2018 01:30:00 0.0
2018_01_14_S13 01/15/2018 01:35:00 0.0
2018_01_14_S13 01/15/2018 01:40:00 0.0
2018_01_14_S13 01/15/2018 01:45:00 0.0
2018_01_14_S13 01/15/2018 01:50:00 0.0
2018_01_14_S13 01/15/2018 01:55:00 0.0
2018_01_14_S13 01/15/2018 02:00:00 0.0
2018_01_14_S13 01/15/2018 02:05:00 0.0
2018_01_14_S13 01/15/2018 02:10:00 0.0
2018_01_14_S13 01/15/2018 02:15:00 0.0
2018_01_14_S13 01/15/2018 02:20:00 0.0013
2018_01_14_S13 01/15/2018 02:25:00 0.0402
2018_01_14_S13 01/15/2018 02:30:00 0.0036
2018_01_14_S13 01/15/2018 02:35:00 0.033
2018_01_14_S13 01/15/2018 02:40:00 0.0449
2018_01_14_S13 01/15/2018 02:45:00 0.1605
2018_01_14_S13 01/15/2018 02:50:00 0.0343
2018_01_14_S13 01/15/2018 02:55:00 0.0009
2018_01_14_S13 01/15/2018 03:00:00 0.0138
2018_01_14_S13 01/15/2018 03:05:00 0.0025
2018_01_14_S13 01/15/2018 03:10:00 0.002
2018_01_14_S13 01/15/2018 03:15:00 0.0
2018_01_14_S13 01/15/2018 03:20:00 0.0
2018_01_14_S13 01/15/2018 03:25:00 0.0
2018_01_14_S13 01/15/2018 03:30:00 0.0
2018_01_14_S13 01/15/2018 03:35:00 0.0
2018_01_14_S13 01/15/2018 03:40:00 0.0
2018_01_14_S13 01/15/2018 03:45:00 0.0
2018_01_14_S13 01/15/2018 03:50:00 0.0
2018_01_14_S13 01/15/2018 03:55:00 0.0
2018_01_14_S13 01/15/2018 04:00:00 0.0
2018_01_14_S13 01/15/2018 04:05:00 0.0
2018_01_14_S13 01/15/2018 04:10:00 0.0
2018_01_14_S13 01/15/2018 04:15:00 0.0
2018_01_14_S13 01/15/2018 04:20:00 0.0
2018_01_14_S13 01/15/2018 04:25:00 0.0
2018_01_14_S13 01/15/2018 04:30:00 0.0
2018_01_14_S13 01/15/2018 04:35:00 0.0
2018_01_14_S13 01/15/2018 04:40:00 0.0
2018_01_14_S13 01/15/2018 04:45:00 0.0
2018_01_14_S13 01/15/2018 04:50:00 0.0
2018_01_14_S13 01/15/2018 04:55:00 0.0
2018_01_14_S13 01/15/2018 05:00:00 0.0
2018_01_14_S13 01/15/2018 05:05:00 0.0
2018_01_14_S13 01/15/2018 05:10:00 0.0
2018_01_14_S13 01/15/2018 05:15:00 0.0
2018_01_14_S13 01/15/2018 05:20:00 0.0
2018_01_14_S13 01/15/2018 05:25:00 0.0
2018_01_14_S13 01/15/2018 05:30:00 0.0
2018_01_14_S13 01/15/2018 05:35:00 0.0
2018_01_14_S13 01/15/2018 05:40:00 0.0
2018_01_14_S13 01/15/2018 05:45:00 0.0
2018_01_14_S13 01/15/2018 05:50:00 0.0
2018_01_14_S13 01/15/2018 05:55:00 0.0
2018_01_14_S13 01/15/2018 06:00:00 0.0
2018_01_14_S13 01/15/2018 06:05:00 0.0
2018_01_14_S13 01/15/2018 06:10:00 0.0
2018_01_14_S13 01/15/2018 06:15:00 0.0
2018_01_14_S13 01/15/2018 06:20:00 0.0095
2018_01_14_S13 01/15/2018 06:25:00 0.1323
2018_01_14_S13 01/15/2018 06:30:00 0.1108
2018_01_14_S13 01/15/2018 06:35:00 0.0053
2018_01_14_S13 01/15/2018 06:40:00 0.0002
2018_01_14_S13 01/15/2018 06:45:00 0.0
2018_01_14_S13 01/15/2018 06:50:00 0.0
2018_01_14_S13 01/15/2018 06:55:00 0.0
2018_01_14_S13 01/15/2018 07:00:00 0.0
2018_01_14_S13 01/15/2018 07:05:00 0.0
2018_01_14_S13 01/15/2018 07:10:00 0.0
2018_01_14_S13 01/15/2018 07:15:00 0.0
2018_01_14_S13 01/15/2018 07:20:00 0.0
2018_01_14_S13 01/15/2018 07:25:00 0.0019
2018_01_14_S13 01/15/2018 07:30:00 0.0001
2018_01_14_S13 01/15/2018 07:35:00 0.0
2018_01_14_S13 01/15/2018 07:40:00 0.0
2018_01_14_S13 01/15/2018 07:45:00 0.0
2018_01_14_S13 01/15/2018 07:50:00 0.0
2018_01_14_S13 01/15/2018 07:55:00 0.0
2018_01_14_S13 01/15/2018 08:00:00 0.0

2018_01_14_S14 01/13/2018 08:00:00 0.0
2018_01_14_S14 01/13/2018 08:05:00 0.0
2018_01_14_S14 01/13/2018 08:10:00 0.0
2018_01_14_S14 01/13/2018 08:15:00 0.0
2018_01_14_S14 01/13/2018 08:20:00 0.0
2018_01_14_S14 01/13/2018 08:25:00 0.0
2018_01_14_S14 01/13/2018 08:30:00 0.0
2018_01_14_S14 01/13/2018 08:35:00 0.0
2018_01_14_S14 01/13/2018 08:40:00 0.0
2018_01_14_S14 01/13/2018 08:45:00 0.0
2018_01_14_S14 01/13/2018 08:50:00 0.0
2018_01_14_S14 01/13/2018 08:55:00 0.0
2018_01_14_S14 01/13/2018 09:00:00 0.0
2018_01_14_S14 01/13/2018 09:05:00 0.0
2018_01_14_S14 01/13/2018 09:10:00 0.0
2018_01_14_S14 01/13/2018 09:15:00 0.0
2018_01_14_S14 01/13/2018 09:20:00 0.0
2018_01_14_S14 01/13/2018 09:25:00 0.0
2018_01_14_S14 01/13/2018 09:30:00 0.0
2018_01_14_S14 01/13/2018 09:35:00 0.0
2018_01_14_S14 01/13/2018 09:40:00 0.0
2018_01_14_S14 01/13/2018 09:45:00 0.0
2018_01_14_S14 01/13/2018 09:50:00 0.0
2018_01_14_S14 01/13/2018 09:55:00 0.0
2018_01_14_S14 01/13/2018 10:00:00 0.0
2018_01_14_S14 01/13/2018 10:05:00 0.0
2018_01_14_S14 01/13/2018 10:10:00 0.0
2018_01_14_S14 01/13/2018 10:15:00 0.0
2018_01_14_S14 01/13/2018 10:20:00 0.0
2018_01_14_S14 01/13/2018 10:25:00 0.0
2018_01_14_S14 01/13/2018 10:30:00 0.0
2018_01_14_S14 01/13/2018 10:35:00 0.0
2018_01_14_S14 01/13/2018 10:40:00 0.0
2018_01_14_S14 01/13/2018 10:45:00 0.0
2018_01_14_S14 01/13/2018 10:50:00 0.0
2018_01_14_S14 01/13/2018 10:55:00 0.0
2018_01_14_S14 01/13/2018 11:00:00 0.0
2018_01_14_S14 01/13/2018 11:05:00 0.0
2018_01_14_S14 01/13/2018 11:10:00 0.0
2018_01_14_S14 01/13/2018 11:15:00 0.0
2018_01_14_S14 01/13/2018 11:20:00 0.0
2018_01_14_S14 01/13/2018 11:25:00 0.0
2018_01_14_S14 01/13/2018 11:30:00 0.0
2018_01_14_S14 01/13/2018 11:35:00 0.0
2018_01_14_S14 01/13/2018 11:40:00 0.0
2018_01_14_S14 01/13/2018 11:45:00 0.0
2018_01_14_S14 01/13/2018 11:50:00 0.0
2018_01_14_S14 01/13/2018 11:55:00 0.0
2018_01_14_S14 01/13/2018 12:00:00 0.0
2018_01_14_S14 01/13/2018 12:05:00 0.0
2018_01_14_S14 01/13/2018 12:10:00 0.0
2018_01_14_S14 01/13/2018 12:15:00 0.0
2018_01_14_S14 01/13/2018 12:20:00 0.0
2018_01_14_S14 01/13/2018 12:25:00 0.0
2018_01_14_S14 01/13/2018 12:30:00 0.0
2018_01_14_S14 01/13/2018 12:35:00 0.0
2018_01_14_S14 01/13/2018 12:40:00 0.0
2018_01_14_S14 01/13/2018 12:45:00 0.0
2018_01_14_S14 01/13/2018 12:50:00 0.0
2018_01_14_S14 01/13/2018 12:55:00 0.0
2018_01_14_S14 01/13/2018 13:00:00 0.0
2018_01_14_S14 01/13/2018 13:05:00 0.0
2018_01_14_S14 01/13/2018 13:10:00 0.0
2018_01_14_S14 01/13/2018 13:15:00 0.0
2018_01_14_S14 01/13/2018 13:20:00 0.0
2018_01_14_S14 01/13/2018 13:25:00 0.0
2018_01_14_S14 01/13/2018 13:30:00 0.0
2018_01_14_S14 01/13/2018 13:35:00 0.0
2018_01_14_S14 01/13/2018 13:40:00 0.0
2018_01_14_S14 01/13/2018 13:45:00 0.0
2018_01_14_S14 01/13/2018 13:50:00 0.0
2018_01_14_S14 01/13/2018 13:55:00 0.0
2018_01_14_S14 01/13/2018 14:00:00 0.0
2018_01_14_S14 01/13/2018 14:05:00 0.0
2018_01_14_S14 01/13/2018 14:10:00 0.0
2018_01_14_S14 01/13/2018 14:15:00 0.0
2018_01_14_S14 01/13/2018 14:20:00 0.0
2018_01_14_S14 01/13/2018 14:25:00 0.0
2018_01_14_S14 01/13/2018 14:30:00 0.0
2018_01_14_S14 01/13/2018 14:35:00 0.0
2018_01_14_S14 01/13/2018 14:40:00 0.0
2018_01_14_S14 01/13/2018 14:45:00 0.0
2018_01_14_S14 01/13/2018 14:50:00 0.0
2018_01_14_S14 01/13/2018 14:55:00 0.0
2018_01_14_S14 01/13/2018 15:00:00 0.0
2018_01_14_S14 01/13/2018 15:05:00 0.0
2018_01_14_S14 01/13/2018 15:10:00 0.0
2018_01_14_S14 01/13/2018 15:15:00 0.0
2018_01_14_S14 01/13/2018 15:20:00 0.0
2018_01_14_S14 01/13/2018 15:25:00 0.0
2018_01_14_S14 01/13/2018 15:30:00 0.0
2018_01_14_S14 01/13/2018 15:35:00 0.0
2018_01_14_S14 01/13/2018 15:40:00 0.0
2018_01_14_S14 01/13/2018 15:45:00 0.0
2018_01_14_S14 01/13/2018 15:50:00 0.0
2018_01_14_S14 01/13/2018 15:55:00 0.0
2018_01_14_S14 01/13/2018 16:00:00 0.0
2018_01_14_S14 01/13/2018 16:05:00 0.0
2018_01_14_S14 01/13/2018 16:10:00 0.0
2018_01_14_S14 01/13/2018 16:15:00 0.0
2018_01_14_S14 01/13/2018 16:20:00 0.0
2018_01_14_S14 01/13/2018 16:25:00 0.0
2018_01_14_S14 01/13/2018 16:30:00 0.0
2018_01_14_S14 01/13/2018 16:35:00 0.0
2018_01_14_S14 01/13/2018 16:40:00 0.0
2018_01_14_S14 01/13/2018 16:45:00 0.0
2018_01_14_S14 01/13/2018 16:50:00 0.0
2018_01_14_S14 01/13/2018 16:55:00 0.0
2018_01_14_S14 01/13/2018 17:00:00 0.0
2018_01_14_S14 01/13/2018 17:05:00 0.0
2018_01_14_S14 01/13/2018 17:10:00 0.0
2018_01_14_S14 01/13/2018 17:15:00 0.0
2018_01_14_S14 01/13/2018 17:20:00 0.0
2018_01_14_S14 01/13/2018 17:25:00 0.0
2018_01_14_S14 01/13/2018 17:30:00 0.0
2018_01_14_S14 01/13/2018 17:35:00 0.0
2018_01_14_S14 01/13/2018 17:40:00 0.0
2018_01_14_S14 01/13/2018 17:45:00 0.0
2018_01_14_S14 01/13/2018 17:50:00 0.0
2018_01_14_S14 01/13/2018 17:55:00 0.0
2018_01_14_S14 01/13/2018 18:00:00 0.0
2018_01_14_S14 01/13/2018 18:05:00 0.0
2018_01_14_S14 01/13/2018 18:10:00 0.0
2018_01_14_S14 01/13/2018 18:15:00 0.0
2018_01_14_S14 01/13/2018 18:20:00 0.0
2018_01_14_S14 01/13/2018 18:25:00 0.0
2018_01_14_S14 01/13/2018 18:30:00 0.0
2018_01_14_S14 01/13/2018 18:35:00 0.0
2018_01_14_S14 01/13/2018 18:40:00 0.0
2018_01_14_S14 01/13/2018 18:45:00 0.0
2018_01_14_S14 01/13/2018 18:50:00 0.0
2018_01_14_S14 01/13/2018 18:55:00 0.0
2018_01_14_S14 01/13/2018 19:00:00 0.0
2018_01_14_S14 01/13/2018 19:05:00 0.0
2018_01_14_S14 01/13/2018 19:10:00 0.0
2018_01_14_S14 01/13/2018 19:15:00 0.0
2018_01_14_S14 01/13/2018 19:20:00 0.0
2018_01_14_S14 01/13/2018 19:25:00 0.0
2018_01_14_S14 01/13/2018 19:30:00 0.0
2018_01_14_S14 01/13/2018 19:35:00 0.0
2018_01_14_S14 01/13/2018 19:40:00 0.0
2018_01_14_S14 01/13/2018 19:45:00 0.0
2018_01_14_S14 01/13/2018 19:50:00 0.0
2018_01_14_S14 01/13/2018 19:55:00 0.0
2018_01_14_S14 01/13/2018 20:00:00 0.0
2018_01_14_S14 01/13/2018 20:05:00 0.0
2018_01_14_S14 01/13/2018 20:10:00 0.0
2018_01_14_S14 01/13/2018 20:15:00 0.0
2018_01_14_S14 01/13/2018 20:20:00 0.0
2018_01_14_S14 01/13/2018 20:25:00 0.0
2018_01_14_S14 01/13/2018 20:30:00 0.0
2018_01_14_S14 01/13/2018 20:35:00 0.0
2018_01_14_S14 01/13/2018 20:40:00 0.0
2018_01_14_S14 01/13/2018 20:45:00 0.0
2018_01_14_S14 01/13/2018 20:50:00 0.0
2018_01_14_S14 01/13/2018 20:55:00 0.0
2018_01_14_S14 01/13/2018 21:00:00 0.0
2018_01_14_S14 01/13/2018 21:05:00 0.0
2018_01_14_S14 01/13/2018 21:10:00 0.0
2018_01_14_S14 01/13/2018 21:15:00 0.0
2018_01_14_S14 01/13/2018 21:20:00 0.0
2018_01_14_S14 01/13/2018 21:25:00 0.0
2018_01_14_S14 01/13/2018 21:30:00 0.0
2018_01_14_S14 01/13/2018 21:35:00 0.0
2018_01_14_S14 01/13/2018 21:40:00 0.0
2018_01_14_S14 01/13/2018 21:45:00 0.0
2018_01_14_S14 01/13/2018 21:50:00 0.0
2018_01_14_S14 01/13/2018 21:55:00 0.0
2018_01_14_S14 01/13/2018 22:00:00 0.0
2018_01_14_S14 01/13/2018 22:05:00 0.0
2018_01_14_S14 01/13/2018 22:10:00 0.0
2018_01_14_S14 01/13/2018 22:15:00 0.0
2018_01_14_S14 01/13/2018 22:20:00 0.0
2018_01_14_S14 01/13/2018 22:25:00 0.0
2018_01_14_S14 01/13/2018 22:30:00 0.0
2018_01_14_S14 01/13/2018 22:35:00 0.0
2018_01_14_S14 01/13/2018 22:40:00 0.0
2018_01_14_S14 01/13/2018 22:45:00 0.0
2018_01_14_S14 01/13/2018 22:50:00 0.0
2018_01_14_S14 01/13/2018 22:55:00 0.0
2018_01_14_S14 01/13/2018 23:00:00 0.0
2018_01_14_S14 01/13/2018 23:05:00 0.0
2018_01_14_S14 01/13/2018 23:10:00 0.0
2018_01_14_S14 01/13/2018 23:15:00 0.0
2018_01_14_S14 01/13/2018 23:20:00 0.0
2018_01_14_S14 01/13/2018 23:25:00 0.0
2018_01_14_S14 01/13/2018 23:30:00 0.0
2018_01_14_S14 01/13/2018 23:35:00 0.0
2018_01_14_S14 01/13/2018 23:40:00 0.0
2018_01_14_S14 01/13/2018 23:45:00 0.0
2018_01_14_S14 01/13/2018 23:50:00 0.0
2018_01_14_S14 01/13/2018 23:55:00 0.0
2018_01_14_S14 01/14/2018 00:00:00 0.0
2018_01_14_S14 01/14/2018 00:05:00 0.0
2018_01_14_S14 01/14/2018 00:10:00 0.0
2018_01_14_S14 01/14/2018 00:15:00 0.0
2018_01_14_S14 01/14/2018 00:20:00 0.0
2018_01_14_S14 01/14/2018 00:25:00 0.0
2018_01_14_S14 01/14/2018 00:30:00 0.0
2018_01_14_S14 01/14/2018 00:35:00 0.0
2018_01_14_S14 01/14/2018 00:40:00 0.0
2018_01_14_S14 01/14/2018 00:45:00 0.0
2018_01_14_S14 01/14/2018 00:50:00 0.0
2018_01_14_S14 01/14/2018 00:55:00 0.0
2018_01_14_S14 01/14/2018 01:00:00 0.0
2018_01_14_S14 01/14/2018 01:05:00 0.0
2018_01_14_S14 01/14/2018 01:10:00 0.0
2018_01_14_S14 01/14/2018 01:15:00 0.0
2018_01_14_S14 01/14/2018 01:20:00 0.0
2018_01_14_S14 01/14/2018 01:25:00 0.0
2018_01_14_S14 01/14/2018 01:30:00 0.0
2018_01_14_S14 01/14/2018 01:35:00 0.0
2018_01_14_S14 01/14/2018 01:40:00 0.0
2018_01_14_S14 01/14/2018 01:45:00 0.0
2018_01_14_S14 01/14/2018 01:50:00 0.0
2018_01_14_S14 01/14/2018 01:55:00 0.0
2018_01_14_S14 01/14/2018 02:00:00 0.0
2018_01_14_S14 01/14/2018 02:05:00 0.0
2018_01_14_S14 01/14/2018 02:10:00 0.0
2018_01_14_S14 01/14/2018 02:15:00 0.0
2018_01_14_S14 01/14/2018 02:20:00 0.0
2018_01_14_S14 01/14/2018 02:25:00 0.0
2018_01_14_S14 01/14/2018 02:30:00 0.0
2018_01_14_S14 01/14/2018 02:35:00 0.0
2018_01_14_S14 01/14/2018 02:40:00 0.0
2018_01_14_S14 01/14/2018 02:45:00 0.0
2018_01_14_S14 01/14/2018 02:50:00 0.0
2018_01_14_S14 01/14/2018 02:55:00 0.0
2018_01_14_S14 01/14/2018 03:00:00 0.0019
2018_01_14_S14 01/14/2018 03:05:00 0.0264
2018_01_14_S14 01/14/2018 03:10:00 0.013
2018_01_14_S14 01/14/2018 03:15:00 0.0
2018_01_14_S14 01/14/2018 03:20:00 0.0
2018_01_14_S14 01/14/2018 03:25:00 0.0
2018_01_14_S14 01/14/2018 03:30:00 0.0
2018_01_14_S14 01/14/2018 03:35:00 0.0
2018_01_14_S14 01/14/2018 03:40:00 0.0
2018_01_14_S14 01/14/2018 03:45:00 0.0
2018_01_14_S14 01/14/2018 03:50:00 0.0
2018_01_14_S14 01/14/2018 03:55:00 0.0
2018_01_14_S14 01/14/2018 04:00:00 0.0
2018_01_14_S14 01/14/2018 04:05:00 0.0
2018_01_14_S14 01/14/2018 04:10:00 0.0
2018_01_14_S14 01/14/2018 04:15:00 0.0
2018_01_14_S14 01/14/2018 04:20:00 0.0
2018_01_14_S14 01/14/2018 04:25:00 0.0
2018_01_14_S14 01/14/2018 04:30:00 0.0
2018_01_14_S14 01/14/2018 04:35:00 0.0
2018_01_14_S14 01/14/2018 04:40:00 0.0
2018_01_14_S14 01/14/2018 04:45:00 0.0
2018_01_14_S14 01/14/2018 04:50:00 0.0
2018_01_14_S14 01/14/2018 04:55:00 0.0
2018_01_14_S14 01/14/2018 05:00:00 0.0
2018_01_14_S14 01/14/2018 05:05:00 0.0008
2018_01_14_S14 01/14/2018 05:10:00 0.0
2018_01_14_S14 01/14/2018 05:15:00 0.0
2018_01_14_S14 01/14/2018 05:20:00 0.0
2018_01_14_S14 01/14/2018 05:25:00 0.0
2018_01_14_S14 01/14/2018 05:30:00 0.0
2018_01_14_S14 01/14/2018 05:35:00 0.0
2018_01_14_S14 01/14/2018 05:40:00 0.0
2018_01_14_S14 01/14/2018 05:45:00 0.0
2018_01_14_S14 01/14/2018 05:50:00 0.0
2018_01_14_S14 01/14/2018 05:55:00 0.0054
2018_01_14_S14 01/14/2018 06:00:00 0.2592
2018_01_14_S14 01/14/2018 06:05:00 6.7418
2018_01_14_S14 01/14/2018 06:10:00 0.2102
2018_01_14_S14 01/14/2018 06:15:00 0.0001
2018_01_14_S14 01/14/2018 06:20:00 0.0439
2018_01_14_S14 01/14/2018 06:25:00 0.294
2018_01_14_S14 01/14/2018 06:30:00 0.0
2018_01_14_S14 01/14/2018 06:35:00 0.0
2018_01_14_S14 01/14/2018 06:40:00 0.0
2018_01_14_S14 01/14/2018 06:45:00 0.0
2018_01_14_S14 01/14/2018 06:50:00 0.0
2018_01_14_S14 01/14/2018 06:55:00 0.0
2018_01_14_S14 01/14/2018 07:00:00 0.0
2018_01_14_S14 01/14/2018 07:05:00 0.0
2018_01_14_S14 01/14/2018 07:10:00 0.0
2018_01_14_S14 01/14/2018 07:15:00 0.0
2018_01_14_S14 01/14/2018 07:20:00 0.0
2018_01_14_S14 01/14/2018 07:25:00 0.0
2018_01_14_S14 01/14/2018 07:30:00 0.0
2018_01_14_S14 01/14/2018 07:35:00 0.0
2018_01_14_S14 01/14/2018 07:40:00 0.0
2018_01_14_S14 01/14/2018 07:45:00 0.0
2018_01_14_S14 01/14/2018 07:50:00 0.079
2018_01_14_S14 01/14/2018 07:55:00 0.0063
2018_01_14_S14 01/14/2018 08:00:00 0.0
2018_01_14_S14 01/14/2018 08:05:00 0.0
2018_01_14_S14 01/14/2018 08:10:00 0.0
2018_01_14_S14 01/14/2018 08:15:00 0.0
2018_01_14_S14 01/14/2018 08:20:00 0.0
2018_01_14_S14 01/14/2018 08:25:00 0.0022
2018_01_14_S14 01/14/2018 08:30:00 0.0363
2018_01_14_S14 01/14/2018 08:35:00 0.1906
2018_01_14_S14 01/14/2018 08:40:00 0.0007
2018_01_14_S14 01/14/2018 08:45:00 0.0
2018_01_14_S14 01/14/2018 08:50:00 0.0
2018_01_14_S14 01/14/2018 08:55:00 0.0
2018_01_14_S14 01/14/2018 09:00:00 0.0
2018_01_14_S14 01/14/2018 09:05:00 0.0
2018_01_14_S14 01/14/2018 09:10:00 0.0
2018_01_14_S14 01/14/2018 09:15:00 0.0
2018_01_14_S14 01/14/2018 09:20:00 0.0
2018_01_14_S14 01/14/2018 09:25:00 0.0
2018_01_14_S14 01/14/2018 09:30:00 0.0
2018_01_14_S14 01/14/2018 09:35:00 0.0
2018_01_14_S14 01/14/2018 09:40:00 0.0
2018_01_14_S14 01/14/2018 09:45:00 0.0
2018_01_14_S14 01/14/2018 09:50:00 0.0
2018_01_14_S14 01/14/2018 09:55:00 0.0
2018_01_14_S14 01/14/2018 10:00:00 0.0
2018_01_14_S14 01/14/2018 10:05:00 0.0
2018_01_14_S14 01/14/2018 10:10:00 0.0
2018_01_14_S14 01/14/2018 10:15:00 0.0
2018_01_14_S14 01/14/2018 10:20:00 0.0
2018_01_14_S14 01/14/2018 10:25:00 0.0
2018_01_14_S14 01/14/2018 10:30:00 0.0
2018_01_14_S14 01/14/2018 10:35:00 0.0
2018_01_14_S14 01/14/2018 10:40:00 0.0
2018_01_14_S14 01/14/2018 10:45:00 0.0
2018_01_14_S14 01/14/2018 10:50:00 0.0
2018_01_14_S14 01/14/2018 10:55:00 0.0
2018_01_14_S14 01/14/2018 11:00:00 0.0
2018_01_14_S14 01/14/2018 11:05:00 0.0
2018_01_14_S14 01/14/2018 11:10:00 0.0
2018_01_14_S14 01/14/2018 11:15:00 0.0
2018_01_14_S14 01/14/2018 11:20:00 0.0
2018_01_14_S14 01/14/2018 11:25:00 0.0
2018_01_14_S14 01/14/2018 11:30:00 0.0
2018_01_14_S14 01/14/2018 11:35:00 0.0
2018_01_14_S14 01/14/2018 11:40:00 0.0
2018_01_14_S14 01/14/2018 11:45:00 0.0
2018_01_14_S14 01/14/2018 11:50:00 0.0
2018_01_14_S14 01/14/2018 11:55:00 0.0
2018_01_14_S14 01/14/2018 12:00:00 0.0
2018_01_14_S14 01/14/2018 12:05:00 0.0
2018_01_14_S14 01/14/2018 12:10:00 0.0
2018_01_14_S14 01/14/2018 12:15:00 0.0
2018_01_14_S14 01/14/2018 12:20:00 0.0
2018_01_14_S14 01/14/2018 12:25:00 0.0
2018_01_14_S14 01/14/2018 12:30:00 0.0
2018_01_14_S14 01/14/2018 12:35:00 0.0
2018_01_14_S14 01/14/2018 12:40:00 0.0
2018_01_14_S14 01/14/2018 12:45:00 0.0
2018_01_14_S14 01/14/2018 12:50:00 0.0
2018_01_14_S14 01/14/2018 12:55:00 0.0
2018_01_14_S14 01/14/2018 13:00:00 0.0
2018_01_14_S14 01/14/2018 13:05:00 0.0
2018_01_14_S14 01/14/2018 13:10:00 0.0
2018_01_14_S14 01/14/2018 13:15:00 0.0
2018_01_14_S14 01/14/2018 13:20:00 0.0
2018_01_14_S14 01/14/2018 13:25:00 0.0
2018_01_14_S14 01/14/2018 13:30:00 0.0
2018_01_14_S14 01/14/2018 13:35:00 0.0
2018_01_14_S14 01/14/2018 13:40:00 0.0
2018_01_14_S14 01/14/2018 13:45:00 0.0
2018_01_14_S14 01/14/2018 13:50:00 0.0
2018_01_14_S14 01/14/2018 13:55:00 0.0
2018_01_14_S14 01/14/2018 14:00:00 0.0
2018_01_14_S14 01/14/2018 14:05:00 0.0
2018_01_14_S14 01/14/2018 14:10:00 0.0
2018_01_14_S14 01/14/2018 14:15:00 0.0
2018_01_14_S14 01/14/2018 14:20:00 0.0
2018_01_14_S14 01/14/2018 14:25:00 0.0
2018_01_14_S14 01/14/2018 14:30:00 0.0
2018_01_14_S14 01/14/2018 14:35:00 0.0
2018_01_14_S14 01/14/2018 14:40:00 0.0
2018_01_14_S14 01/14/2018 14:45:00 0.0
2018_01_14_S14 01/14/2018 14:50:00 0.0
2018_01_14_S14 01/14/2018 14:55:00 0.0
2018_01_14_S14 01/14/2018 15:00:00 0.0
2018_01_14_S14 01/14/2018 15:05:00 0.0
2018_01_14_S14 01/14/2018 15:10:00 0.0
2018_01_14_S14 01/14/2018 15:15:00 0.0
2018_01_14_S14 01/14/2018 15:20:00 0.0
2018_01_14_S14 01/14/2018 15:25:00 0.0
2018_01_14_S14 01/14/2018 15:30:00 0.0
2018_01_14_S14 01/14/2018 15:35:00 0.0
2018_01_14_S14 01/14/2018 15:40:00 0.0
2018_01_14_S14 01/14/2018 15:45:00 0.0
2018_01_14_S14 01/14/2018 15:50:00 0.0
2018_01_14_S14 01/14/2018 15:55:00 0.0
2018_01_14_S14 01/14/2018 16:00:00 0.0
2018_01_14_S14 01/14/2018 16:05:00 0.0
2018_01_14_S14 01/14/2018 16:10:00 0.0
2018_01_14_S14 01/14/2018 16:15:00 0.0
2018_01_14_S14 01/14/2018 16:20:00 0.0
2018_01_14_S14 01/14/2018 16:25:00 0.0
2018_01_14_S14 01/14/2018 16:30:00 0.0
2018_01_14_S14 01/14/2018 16:35:00 0.0
2018_01_14_S14 01/14/2018 16:40:00 0.0097
2018_01_14_S14 01/14/2018 16:45:00 0.0196
2018_01_14_S14 01/14/2018 16:50:00 0.0687
2018_01_14_S14 01/14/2018 16:55:00 0.4345
2018_01_14_S14 01/14/2018 17:00:00 0.0006
2018_01_14_S14 01/14/2018 17:05:00 0.0106
2018_01_14_S14 01/14/2018 17:10:00 0.5418
2018_01_14_S14 01/14/2018 17:15:00 0.0274
2018_01_14_S14 01/14/2018 17:20:00 0.0
2018_01_14_S14 01/14/2018 17:25:00 0.0
2018_01_14_S14 01/14/2018 17:30:00 0.0
2018_01_14_S14 01/14/2018 17:35:00 0.1558
2018_01_14_S14 01/14/2018 17:40:00 0.0538
2018_01_14_S14 01/14/2018 17:45:00 0.5156
2018_01_14_S14 01/14/2018 17:50:00 0.2689
2018_01_14_S14 01/14/2018 17:55:00 0.1232
2018_01_14_S14 01/14/2018 18:00:00 0.3998
2018_01_14_S14 01/14/2018 18:05:00 0.2206
2018_01_14_S14 01/14/2018 18:10:00 0.2805
2018_01_14_S14 01/14/2018 18:15:00 0.3584
2018_01_14_S14 01/14/2018 18:20:00 2.0735
2018_01_14_S14 01/14/2018 18:25:00 2.3699
2018_01_14_S14 01/14/2018 18:30:00 0.0297
2018_01_14_S14 01/14/2018 18:35:00 0.0011
2018_01_14_S14 01/14/2018 18:40:00 0.0
2018_01_14_S14 01/14/2018 18:45:00 0.5364
2018_01_14_S14 01/14/2018 18:50:00 2.255
2018_01_14_S14 01/14/2018 18:55:00 0.0927
2018_01_14_S14 01/14/2018 19:00:00 1.4187
2018_01_14_S14 01/14/2018 19:05:00 0.0
2018_01_14_S14 01/14/2018 19:10:00 0.0
2018_01_14_S14 01/14/2018 19:15:00 0.0
2018_01_14_S14 01/14/2018 19:20:00 0.0
2018_01_14_S14 01/14/2018 19:25:00 0.0
2018_01_14_S14 01/14/2018 19:30:00 0.0
2018_01_14_S14 01/14/2018 19:35:00 0.0
2018_01_14_S14 01/14/2018 19:40:00 0.0
2018_01_14_S14 01/14/2018 19:45:00 0.0
2018_01_14_S14 01/14/2018 19:50:00 0.0
2018_01_14_S14 01/14/2018 19:55:00 0.0
2018_01_14_S14 01/14/2018 20:00:00 0.0
2018_01_14_S14 01/14/2018 20:05:00 0.0
2018_01_14_S14 01/14/2018 20:10:00 0.0
2018_01_14_S14 01/14/2018 20:15:00 0.0
2018_01_14_S14 01/14/2018 20:20:00 0.0
2018_01_14_S14 01/14/2018 20:25:00 0.0
2018_01_14_S14 01/14/2018 20:30:00 0.0
2018_01_14_S14 01/14/2018 20:35:00 0.0
2018_01_14_S14 01/14/2018 20:40:00 0.0
2018_01_14_S14 01/14/2018 20:45:00 0.0
2018_01_14_S14 01/14/2018 20:50:00 0.0
2018_01_14_S14 01/14/2018 20:55:00 0.0
2018_01_14_S14 01/14/2018 21:00:00 0.0
2018_01_14_S14 01/14/2018 21:05:00 0.0
2018_01_14_S14 01/14/2018 21:10:00 0.0
2018_01_14_S14 01/14/2018 21:15:00 0.0
2018_01_14_S14 01/14/2018 21:20:00 0.0
2018_01_14_S14 01/14/2018 21:25:00 0.0
2018_01_14_S14 01/14/2018 21:30:00 0.0
2018_01_14_S14 01/14/2018 21:35:00 0.0
2018_01_14_S14 01/14/2018 21:40:00 0.0
2018_01_14_S14 01/14/2018 21:45:00 0.0
2018_01_14_S14 01/14/2018 21:50:00 0.0
2018_01_14_S14 01/14/2018 21:55:00 0.0
2018_01_14_S14 01/14/2018 22:00:00 0.0
2018_01_14_S14 01/14/2018 22:05:00 0.0
2018_01_14_S14 01/14/2018 22:10:00 0.0
2018_01_14_S14 01/14/2018 22:15:00 0.0
2018_01_14_S14 01/14/2018 22:20:00 0.0
2018_01_14_S14 01/14/2018 22:25:00 0.0
2018_01_14_S14 01/14/2018 22:30:00 0.0
2018_01_14_S14 01/14/2018 22:35:00 0.0
2018_01_14_S14 01/14/2018 22:40:00 0.0067
2018_01_14_S14 01/14/2018 22:45:00 0.0
2018_01_14_S14 01/14/2018 22:50:00 0.0
2018_01_14_S14 01/14/2018 22:55:00 0.0079
2018_01_14_S14 01/14/2018 23:00:00 0.0199
2018_01_14_S14 01/14/2018 23:05:00 0.0012
2018_01_14_S14 01/14/2018 23:10:00 0.021
2018_01_14_S14 01/14/2018 23:15:00 0.0082
2018_01_14_S14 01/14/2018 23:20:00 0.0021
2018_01_14_S14 01/14/2018 23:25:00 0.0028
2018_01_14_S14 01/14/2018 23:30:00 0.0
2018_01_14_S14 01/14/2018 23:35:00 0.0
2018_01_14_S14 01/14/2018 23:40:00 0.0
2018_01_14_S14 01/14/2018 23:45:00 0.0
2018_01_14_S14 01/14/2018 23:50:00 0.0
2018_01_14_S14 01/14/2018 23:55:00 0.0
2018_01_14_S14 01/15/2018 00:00:00 0.0
2018_01_14_S14 01/15/2018 00:05:00 0.0
2018_01_14_S14 01/15/2018 00:10:00 0.0
2018_01_14_S14 01/15/2018 00:15:00 0.0
2018_01_14_S14 01/15/2018 00:20:00 0.0
2018_01_14_S14 01/15/2018 00:25:00 0.0
2018_01_14_S14 01/15/2018 00:30:00 0.0
2018_01_14_S14 01/15/2018 00:35:00 0.0
2018_01_14_S14 01/15/2018 00:40:00 0.0
2018_01_14_S14 01/15/2018 00:45:00 0.0
2018_01_14_S14 01/15/2018 00:50:00 0.0
2018_01_14_S14 01/15/2018 00:55:00 0.0
2018_01_14_S14 01/15/2018 01:00:00 0.0
2018_01_14_S14 01/15/2018 01:05:00 0.0
2018_01_14_S14 01/15/2018 01:10:00 0.0
2018_01_14_S14 01/15/2018 01:15:00 0.0
2018_01_14_S14 01/15/2018 01:20:00 0.0
2018_01_14_S14 01/15/2018 01:25:00 0.0
2018_01_14_S14 01/15/2018 01:30:00 0.0
2018_01_14_S14 01/15/2018 01:35:00 0.0
2018_01_14_S14 01/15/2018 01:40:00 0.0
2018_01_14_S14 01/15/2018 01:45:00 0.0
2018_01_14_S14 01/15/2018 01:50:00 0.0
2018_01_14_S14 01/15/2018 01:55:00 0.0
2018_01_14_S14 01/15/2018 02:00:00 0.0
2018_01_14_S14 01/15/2018 02:05:00 0.0
2018_01_14_S14 01/15/2018 02:10:00 0.0
2018_01_14_S14 01/15/2018 02:15:00 0.0
2018_01_14_S14 01/15/2018 02:20:00 0.0
2018_01_14_S14 01/15/2018 02:25:00 0.05
2018_01_14_S14 01/15/2018 02:30:00 0.0109
2018_01_14_S14 01/15/2018 02:35:00 0.0095
2018_01_14_S14 01/15/2018 02:40:00 0.06
2018_01_14_S14 01/15/2018 02:45:00 0.2884
2018_01_14_S14 01/15/2018 02:50:00 0.0375
2018_01_14_S14 01/15/2018 02:55:00 0.0
2018_01_14_S14 01/15/2018 03:00:00 0.0062
2018_01_14_S14 01/15/2018 03:05:00 0.0003
2018_01_14_S14 01/15/2018 03:10:00 0.0
2018_01_14_S14 01/15/2018 03:15:00 0.0
2018_01_14_S14 01/15/2018 03:20:00 0.0
2018_01_14_S14 01/15/2018 03:25:00 0.0
2018_01_14_S14 01/15/2018 03:30:00 0.0
2018_01_14_S14 01/15/2018 03:35:00 0.0
2018_01_14_S14 01/15/2018 03:40:00 0.0
2018_01_14_S14 01/15/2018 03:45:00 0.0
2018_01_14_S14 01/15/2018 03:50:00 0.0
2018_01_14_S14 01/15/2018 03:55:00 0.0
2018_01_14_S14 01/15/2018 04:00:00 0.0
2018_01_14_S14 01/15/2018 04:05:00 0.0
2018_01_14_S14 01/15/2018 04:10:00 0.0
2018_01_14_S14 01/15/2018 04:15:00 0.0
2018_01_14_S14 01/15/2018 04:20:00 0.0
2018_01_14_S14 01/15/2018 04:25:00 0.0
2018_01_14_S14 01/15/2018 04:30:00 0.0
2018_01_14_S14 01/15/2018 04:35:00 0.0
2018_01_14_S14 01/15/2018 04:40:00 0.0
2018_01_14_S14 01/15/2018 04:45:00 0.0
2018_01_14_S14 01/15/2018 04:50:00 0.0
2018_01_14_S14 01/15/2018 04:55:00 0.0
2018_01_14_S14 01/15/2018 05:00:00 0.0
2018_01_14_S14 01/15/2018 05:05:00 0.0
2018_01_14_S14 01/15/2018 05:10:00 0.0
2018_01_14_S14 01/15/2018 05:15:00 0.0
2018_01_14_S14 01/15/2018 05:20:00 0.0
2018_01_14_S14 01/15/2018 05:25:00 0.0
2018_01_14_S14 01/15/2018 05:30:00 0.0
2018_01_14_S14 01/15/2018 05:35:00 0.0
2018_01_14_S14 01/15/2018 05:40:00 0.0
2018_01_14_S14 01/15/2018 05:45:00 0.0
2018_01_14_S14 01/15/2018 05:50:00 0.0
2018_01_14_S14 01/15/2018 05:55:00 0.0
2018_01_14_S14 01/15/2018 06:00:00 0.0
2018_01_14_S14 01/15/2018 06:05:00 0.0
2018_01_14_S14 01/15/2018 06:10:00 0.0
2018_01_14_S14 01/15/2018 06:15:00 0.0
2018_01_14_S14 01/15/2018 06:20:00 0.0082
2018_01_14_S14 01/15/2018 06:25:00 0.0733
2018_01_14_S14 01/15/2018 06:30:00 0.0
2018_01_14_S14 01/15/2018 06:35:00 0.0
2018_01_14_S14 01/15/2018 06:40:00 0.0
2018_01_14_S14 01/15/2018 06:45:00 0.0
2018_01_14_S14 01/15/2018 06:50:00 0.0
2018_01_14_S14 01/15/2018 06:55:00 0.0
2018_01_14_S14 01/15/2018 07:00:00 0.0
2018_01_14_S14 01/15/2018 07:05:00 0.0
2018_01_14_S14 01/15/2018 07:10:00 0.0
2018_01_14_S14 01/15/2018 07:15:00 0.0
2018_01_14_S14 01/15/2018 07:20:00 0.0006
2018_01_14_S14 01/15/2018 07:25:00 0.0177
2018_01_14_S14 01/15/2018 07:30:00 0.0051
2018_01_14_S14 01/15/2018 07:35:00 0.0
2018_01_14_S14 01/15/2018 07:40:00 0.0
2018_01_14_S14 01/15/2018 07:45:00 0.0
2018_01_14_S14 01/15/2018 07:50:00 0.0
2018_01_14_S14 01/15/2018 07:55:00 0.0
2018_01_14_S14 01/15/2018 08:00:00 0.0

2018_01_14_S15 01/13/2018 08:00:00 0.0
2018_01_14_S15 01/13/2018 08:05:00 0.0
2018_01_14_S15 01/13/2018 08:10:00 0.0
2018_01_14_S15 01/13/2018 08:15:00 0.0
2018_01_14_S15 01/13/2018 08:20:00 0.0
2018_01_14_S15 01/13/2018 08:25:00 0.0
2018_01_14_S15 01/13/2018 08:30:00 0.0
2018_01_14_S15 01/13/2018 08:35:00 0.0
2018_01_14_S15 01/13/2018 08:40:00 0.0
2018_01_14_S15 01/13/2018 08:45:00 0.0
2018_01_14_S15 01/13/2018 08:50:00 0.0
2018_01_14_S15 01/13/2018 08:55:00 0.0
2018_01_14_S15 01/13/2018 09:00:00 0.0
2018_01_14_S15 01/13/2018 09:05:00 0.0
2018_01_14_S15 01/13/2018 09:10:00 0.0
2018_01_14_S15 01/13/2018 09:15:00 0.0
2018_01_14_S15 01/13/2018 09:20:00 0.0
2018_01_14_S15 01/13/2018 09:25:00 0.0
2018_01_14_S15 01/13/2018 09:30:00 0.0
2018_01_14_S15 01/13/2018 09:35:00 0.0
2018_01_14_S15 01/13/2018 09:40:00 0.0
2018_01_14_S15 01/13/2018 09:45:00 0.0
2018_01_14_S15 01/13/2018 09:50:00 0.0
2018_01_14_S15 01/13/2018 09:55:00 0.0
2018_01_14_S15 01/13/2018 10:00:00 0.0
2018_01_14_S15 01/13/2018 10:05:00 0.0
2018_01_14_S15 01/13/2018 10:10:00 0.0
2018_01_14_S15 01/13/2018 10:15:00 0.0
2018_01_14_S15 01/13/2018 10:20:00 0.0
2018_01_14_S15 01/13/2018 10:25:00 0.0
2018_01_14_S15 01/13/2018 10:30:00 0.0
2018_01_14_S15 01/13/2018 10:35:00 0.0
2018_01_14_S15 01/13/2018 10:40:00 0.0
2018_01_14_S15 01/13/2018 10:45:00 0.0
2018_01_14_S15 01/13/2018 10:50:00 0.0
2018_01_14_S15 01/13/2018 10:55:00 0.0
2018_01_14_S15 01/13/2018 11:00:00 0.0
2018_01_14_S15 01/13/2018 11:05:00 0.0
2018_01_14_S15 01/13/2018 11:10:00 0.0
2018_01_14_S15 01/13/2018 11:15:00 0.0
2018_01_14_S15 01/13/2018 11:20:00 0.0
2018_01_14_S15 01/13/2018 11:25:00 0.0
2018_01_14_S15 01/13/2018 11:30:00 0.0
2018_01_14_S15 01/13/2018 11:35:00 0.0
2018_01_14_S15 01/13/2018 11:40:00 0.0
2018_01_14_S15 01/13/2018 11:45:00 0.0
2018_01_14_S15 01/13/2018 11:50:00 0.0
2018_01_14_S15 01/13/2018 11:55:00 0.0
2018_01_14_S15 01/13/2018 12:00:00 0.0
2018_01_14_S15 01/13/2018 12:05:00 0.0
2018_01_14_S15 01/13/2018 12:10:00 0.0
2018_01_14_S15 01/13/2018 12:15:00 0.0
2018_01_14_S15 01/13/2018 12:20:00 0.0
2018_01_14_S15 01/13/2018 12:25:00 0.0
2018_01_14_S15 01/13/2018 12:30:00 0.0
2018_01_14_S15 01/13/2018 12:35:00 0.0
2018_01_14_S15 01/13/2018 12:40:00 0.0
2018_01_14_S15 01/13/2018 12:45:00 0.0
2018_01_14_S15 01/13/2018 12:50:00 0.0
2018_01_14_S15 01/13/2018 12:55:00 0.0
2018_01_14_S15 01/13/2018 13:00:00 0.0
2018_01_14_S15 01/13/2018 13:05:00 0.0
2018_01_14_S15 01/13/2018 13:10:00 0.0
2018_01_14_S15 01/13/2018 13:15:00 0.0
2018_01_14_S15 01/13/2018 13:20:00 0.0
2018_01_14_S15 01/13/2018 13:25:00 0.0
2018_01_14_S15 01/13/2018 13:30:00 0.0
2018_01_14_S15 01/13/2018 13:35:00 0.0
2018_01_14_S15 01/13/2018 13:40:00 0.0
2018_01_14_S15 01/13/2018 13:45:00 0.0
2018_01_14_S15 01/13/2018 13:50:00 0.0
2018_01_14_S15 01/13/2018 13:55:00 0.0
2018_01_14_S15 01/13/2018 14:00:00 0.0
2018_01_14_S15 01/13/2018 14:05:00 0.0
2018_01_14_S15 01/13/2018 14:10:00 0.0
2018_01_14_S15 01/13/2018 14:15:00 0.0
2018_01_14_S15 01/13/2018 14:20:00 0.0
2018_01_14_S15 01/13/2018 14:25:00 0.0
2018_01_14_S15 01/13/2018 14:30:00 0.0
2018_01_14_S15 01/13/2018 14:35:00 0.0
2018_01_14_S15 01/13/2018 14:40:00 0.0
2018_01_14_S15 01/13/2018 14:45:00 0.0
2018_01_14_S15 01/13/2018 14:50:00 0.0
2018_01_14_S15 01/13/2018 14:55:00 0.0
2018_01_14_S15 01/13/2018 15:00:00 0.0
2018_01_14_S15 01/13/2018 15:05:00 0.0
2018_01_14_S15 01/13/2018 15:10:00 0.0
2018_01_14_S15 01/13/2018 15:15:00 0.0
2018_01_14_S15 01/13/2018 15:20:00 0.0
2018_01_14_S15 01/13/2018 15:25:00 0.0
2018_01_14_S15 01/13/2018 15:30:00 0.0
2018_01_14_S15 01/13/2018 15:35:00 0.0
2018_01_14_S15 01/13/2018 15:40:00 0.0
2018_01_14_S15 01/13/2018 15:45:00 0.0
2018_01_14_S15 01/13/2018 15:50:00 0.0
2018_01_14_S15 01/13/2018 15:55:00 0.0
2018_01_14_S15 01/13/2018 16:00:00 0.0
2018_01_14_S15 01/13/2018 16:05:00 0.0
2018_01_14_S15 01/13/2018 16:10:00 0.0
2018_01_14_S15 01/13/2018 16:15:00 0.0
2018_01_14_S15 01/13/2018 16:20:00 0.0
2018_01_14_S15 01/13/2018 16:25:00 0.0
2018_01_14_S15 01/13/2018 16:30:00 0.0
2018_01_14_S15 01/13/2018 16:35:00 0.0
2018_01_14_S15 01/13/2018 16:40:00 0.0
2018_01_14_S15 01/13/2018 16:45:00 0.0
2018_01_14_S15 01/13/2018 16:50:00 0.0
2018_01_14_S15 01/13/2018 16:55:00 0.0
2018_01_14_S15 01/13/2018 17:00:00 0.0
2018_01_14_S15 01/13/2018 17:05:00 0.0
2018_01_14_S15 01/13/2018 17:10:00 0.0
2018_01_14_S15 01/13/2018 17:15:00 0.0
2018_01_14_S15 01/13/2018 17:20:00 0.0
2018_01_14_S15 01/13/2018 17:25:00 0.0
2018_01_14_S15 01/13/2018 17:30:00 0.0
2018_01_14_S15 01/13/2018 17:35:00 0.0
2018_01_14_S15 01/13/2018 17:40:00 0.0
2018_01_14_S15 01/13/2018 17:45:00 0.0
2018_01_14_S15 01/13/2018 17:50:00 0.0
2018_01_14_S15 01/13/2018 17:55:00 0.0
2018_01_14_S15 01/13/2018 18:00:00 0.0
2018_01_14_S15 01/13/2018 18:05:00 0.0
2018_01_14_S15 01/13/2018 18:10:00 0.0
2018_01_14_S15 01/13/2018 18:15:00 0.0
2018_01_14_S15 01/13/2018 18:20:00 0.0
2018_01_14_S15 01/13/2018 18:25:00 0.0
2018_01_14_S15 01/13/2018 18:30:00 0.0
2018_01_14_S15 01/13/2018 18:35:00 0.0
2018_01_14_S15 01/13/2018 18:40:00 0.0
2018_01_14_S15 01/13/2018 18:45:00 0.0
2018_01_14_S15 01/13/2018 18:50:00 0.0
2018_01_14_S15 01/13/2018 18:55:00 0.0
2018_01_14_S15 01/13/2018 19:00:00 0.0
2018_01_14_S15 01/13/2018 19:05:00 0.0
2018_01_14_S15 01/13/2018 19:10:00 0.0
2018_01_14_S15 01/13/2018 19:15:00 0.0
2018_01_14_S15 01/13/2018 19:20:00 0.0
2018_01_14_S15 01/13/2018 19:25:00 0.0
2018_01_14_S15 01/13/2018 19:30:00 0.0
2018_01_14_S15 01/13/2018 19:35:00 0.0
2018_01_14_S15 01/13/2018 19:40:00 0.0
2018_01_14_S15 01/13/2018 19:45:00 0.0
2018_01_14_S15 01/13/2018 19:50:00 0.0
2018_01_14_S15 01/13/2018 19:55:00 0.0
2018_01_14_S15 01/13/2018 20:00:00 0.0
2018_01_14_S15 01/13/2018 20:05:00 0.0
2018_01_14_S15 01/13/2018 20:10:00 0.0
2018_01_14_S15 01/13/2018 20:15:00 0.0
2018_01_14_S15 01/13/2018 20:20:00 0.0
2018_01_14_S15 01/13/2018 20:25:00 0.0
2018_01_14_S15 01/13/2018 20:30:00 0.0
2018_01_14_S15 01/13/2018 20:35:00 0.0
2018_01_14_S15 01/13/2018 20:40:00 0.0
2018_01_14_S15 01/13/2018 20:45:00 0.0
2018_01_14_S15 01/13/2018 20:50:00 0.0
2018_01_14_S15 01/13/2018 20:55:00 0.0
2018_01_14_S15 01/13/2018 21:00:00 0.0
2018_01_14_S15 01/13/2018 21:05:00 0.0
2018_01_14_S15 01/13/2018 21:10:00 0.0
2018_01_14_S15 01/13/2018 21:15:00 0.0
2018_01_14_S15 01/13/2018 21:20:00 0.0
2018_01_14_S15 01/13/2018 21:25:00 0.0
2018_01_14_S15 01/13/2018 21:30:00 0.0
2018_01_14_S15 01/13/2018 21:35:00 0.0
2018_01_14_S15 01/13/2018 21:40:00 0.0
2018_01_14_S15 01/13/2018 21:45:00 0.0
2018_01_14_S15 01/13/2018 21:50:00 0.0
2018_01_14_S15 01/13/2018 21:55:00 0.0
2018_01_14_S15 01/13/2018 22:00:00 0.0
2018_01_14_S15 01/13/2018 22:05:00 0.0
2018_01_14_S15 01/13/2018 22:10:00 0.0
2018_01_14_S15 01/13/2018 22:15:00 0.0
2018_01_14_S15 01/13/2018 22:20:00 0.0
2018_01_14_S15 01/13/2018 22:25:00 0.0
2018_01_14_S15 01/13/2018 22:30:00 0.0
2018_01_14_S15 01/13/2018 22:35:00 0.0
2018_01_14_S15 01/13/2018 22:40:00 0.0
2018_01_14_S15 01/13/2018 22:45:00 0.0
2018_01_14_S15 01/13/2018 22:50:00 0.0
2018_01_14_S15 01/13/2018 22:55:00 0.0
2018_01_14_S15 01/13/2018 23:00:00 0.0
2018_01_14_S15 01/13/2018 23:05:00 0.0
2018_01_14_S15 01/13/2018 23:10:00 0.0
2018_01_14_S15 01/13/2018 23:15:00 0.0
2018_01_14_S15 01/13/2018 23:20:00 0.0
2018_01_14_S15 01/13/2018 23:25:00 0.0
2018_01_14_S15 01/13/2018 23:30:00 0.0
2018_01_14_S15 01/13/2018 23:35:00 0.0
2018_01_14_S15 01/13/2018 23:40:00 0.0
2018_01_14_S15 01/13/2018 23:45:00 0.0
2018_01_14_S15 01/13/2018 23:50:00 0.0
2018_01_14_S15 01/13/2018 23:55:00 0.0
2018_01_14_S15 01/14/2018 00:00:00 0.0
2018_01_14_S15 01/14/2018 00:05:00 0.0
2018_01_14_S15 01/14/2018 00:10:00 0.0
2018_01_14_S15 01/14/2018 00:15:00 0.0
2018_01_14_S15 01/14/2018 00:20:00 0.0
2018_01_14_S15 01/14/2018 00:25:00 0.0
2018_01_14_S15 01/14/2018 00:30:00 0.0
2018_01_14_S15 01/14/2018 00:35:00 0.0
2018_01_14_S15 01/14/2018 00:40:00 0.0
2018_01_14_S15 01/14/2018 00:45:00 0.0
2018_01_14_S15 01/14/2018 00:50:00 0.0
2018_01_14_S15 01/14/2018 00:55:00 0.0
2018_01_14_S15 01/14/2018 01:00:00 0.0
2018_01_14_S15 01/14/2018 01:05:00 0.0
2018_01_14_S15 01/14/2018 01:10:00 0.0
2018_01_14_S15 01/14/2018 01:15:00 0.0
2018_01_14_S15 01/14/2018 01:20:00 0.0
2018_01_14_S15 01/14/2018 01:25:00 0.0
2018_01_14_S15 01/14/2018 01:30:00 0.0001
2018_01_14_S15 01/14/2018 01:35:00 0.0
2018_01_14_S15 01/14/2018 01:40:00 0.0
2018_01_14_S15 01/14/2018 01:45:00 0.0
2018_01_14_S15 01/14/2018 01:50:00 0.0
2018_01_14_S15 01/14/2018 01:55:00 0.0
2018_01_14_S15 01/14/2018 02:00:00 0.0
2018_01_14_S15 01/14/2018 02:05:00 0.0
2018_01_14_S15 01/14/2018 02:10:00 0.0
2018_01_14_S15 01/14/2018 02:15:00 0.0
2018_01_14_S15 01/14/2018 02:20:00 0.0
2018_01_14_S15 01/14/2018 02:25:00 0.0
2018_01_14_S15 01/14/2018 02:30:00 0.0
2018_01_14_S15 01/14/2018 02:35:00 0.0
2018_01_14_S15 01/14/2018 02:40:00 0.0
2018_01_14_S15 01/14/2018 02:45:00 0.0
2018_01_14_S15 01/14/2018 02:50:00 0.0
2018_01_14_S15 01/14/2018 02:55:00 0.0
2018_01_14_S15 01/14/2018 03:00:00 0.0
2018_01_14_S15 01/14/2018 03:05:00 0.0247
2018_01_14_S15 01/14/2018 03:10:00 0.1763
2018_01_14_S15 01/14/2018 03:15:00 0.003
2018_01_14_S15 01/14/2018 03:20:00 0.0
2018_01_14_S15 01/14/2018 03:25:00 0.0
2018_01_14_S15 01/14/2018 03:30:00 0.0
2018_01_14_S15 01/14/2018 03:35:00 0.0
2018_01_14_S15 01/14/2018 03:40:00 0.0
2018_01_14_S15 01/14/2018 03:45:00 0.0
2018_01_14_S15 01/14/2018 03:50:00 0.0
2018_01_14_S15 01/14/2018 03:55:00 0.0
2018_01_14_S15 01/14/2018 04:00:00 0.0
2018_01_14_S15 01/14/2018 04:05:00 0.0
2018_01_14_S15 01/14/2018 04:10:00 0.0
2018_01_14_S15 01/14/2018 04:15:00 0.0
2018_01_14_S15 01/14/2018 04:20:00 0.0
2018_01_14_S15 01/14/2018 04:25:00 0.0
2018_01_14_S15 01/14/2018 04:30:00 0.0
2018_01_14_S15 01/14/2018 04:35:00 0.0
2018_01_14_S15 01/14/2018 04:40:00 0.0
2018_01_14_S15 01/14/2018 04:45:00 0.0
2018_01_14_S15 01/14/2018 04:50:00 0.0
2018_01_14_S15 01/14/2018 04:55:00 0.0
2018_01_14_S15 01/14/2018 05:00:00 0.0
2018_01_14_S15 01/14/2018 05:05:00 0.0
2018_01_14_S15 01/14/2018 05:10:00 0.0
2018_01_14_S15 01/14/2018 05:15:00 0.0
2018_01_14_S15 01/14/2018 05:20:00 0.0
2018_01_14_S15 01/14/2018 05:25:00 0.0
2018_01_14_S15 01/14/2018 05:30:00 0.0
2018_01_14_S15 01/14/2018 05:35:00 0.0
2018_01_14_S15 01/14/2018 05:40:00 0.0
2018_01_14_S15 01/14/2018 05:45:00 0.0
2018_01_14_S15 01/14/2018 05:50:00 0.0
2018_01_14_S15 01/14/2018 05:55:00 0.0002
2018_01_14_S15 01/14/2018 06:00:00 0.0827
2018_01_14_S15 01/14/2018 06:05:00 6.005
2018_01_14_S15 01/14/2018 06:10:00 1.0464
2018_01_14_S15 01/14/2018 06:15:00 0.3669
2018_01_14_S15 01/14/2018 06:20:00 0.0304
2018_01_14_S15 01/14/2018 06:25:00 0.4011
2018_01_14_S15 01/14/2018 06:30:00 0.0002
2018_01_14_S15 01/14/2018 06:35:00 0.0
2018_01_14_S15 01/14/2018 06:40:00 0.0
2018_01_14_S15 01/14/2018 06:45:00 0.0
2018_01_14_S15 01/14/2018 06:50:00 0.0
2018_01_14_S15 01/14/2018 06:55:00 0.0
2018_01_14_S15 01/14/2018 07:00:00 0.0
2018_01_14_S15 01/14/2018 07:05:00 0.0
2018_01_14_S15 01/14/2018 07:10:00 0.0
2018_01_14_S15 01/14/2018 07:15:00 0.0
2018_01_14_S15 01/14/2018 07:20:00 0.0
2018_01_14_S15 01/14/2018 07:25:00 0.0
2018_01_14_S15 01/14/2018 07:30:00 0.0
2018_01_14_S15 01/14/2018 07:35:00 0.0
2018_01_14_S15 01/14/2018 07:40:00 0.0
2018_01_14_S15 01/14/2018 07:45:00 0.0
2018_01_14_S15 01/14/2018 07:50:00 0.0443
2018_01_14_S15 01/14/2018 07:55:00 0.0099
2018_01_14_S15 01/14/2018 08:00:00 0.0
2018_01_14_S15 01/14/2018 08:05:00 0.0
2018_01_14_S15 01/14/2018 08:10:00 0.0
2018_01_14_S15 01/14/2018 08:15:00 0.0
2018_01_14_S15 01/14/2018 08:20:00 0.0
2018_01_14_S15 01/14/2018 08:25:00 0.0015
2018_01_14_S15 01/14/2018 08:30:00 0.0296
2018_01_14_S15 01/14/2018 08:35:00 0.219
2018_01_14_S15 01/14/2018 08:40:00 0.0387
2018_01_14_S15 01/14/2018 08:45:00 0.0
2018_01_14_S15 01/14/2018 08:50:00 0.0
2018_01_14_S15 01/14/2018 08:55:00 0.0
2018_01_14_S15 01/14/2018 09:00:00 0.0
2018_01_14_S15 01/14/2018 09:05:00 0.0
2018_01_14_S15 01/14/2018 09:10:00 0.0
2018_01_14_S15 01/14/2018 09:15:00 0.0
2018_01_14_S15 01/14/2018 09:20:00 0.0
2018_01_14_S15 01/14/2018 09:25:00 0.0
2018_01_14_S15 01/14/2018 09:30:00 0.0
2018_01_14_S15 01/14/2018 09:35:00 0.0
2018_01_14_S15 01/14/2018 09:40:00 0.0
2018_01_14_S15 01/14/2018 09:45:00 0.0
2018_01_14_S15 01/14/2018 09:50:00 0.0
2018_01_14_S15 01/14/2018 09:55:00 0.0
2018_01_14_S15 01/14/2018 10:00:00 0.0
2018_01_14_S15 01/14/2018 10:05:00 0.0
2018_01_14_S15 01/14/2018 10:10:00 0.0
2018_01_14_S15 01/14/2018 10:15:00 0.0
2018_01_14_S15 01/14/2018 10:20:00 0.0
2018_01_14_S15 01/14/2018 10:25:00 0.0
2018_01_14_S15 01/14/2018 10:30:00 0.0
2018_01_14_S15 01/14/2018 10:35:00 0.0
2018_01_14_S15 01/14/2018 10:40:00 0.0
2018_01_14_S15 01/14/2018 10:45:00 0.0
2018_01_14_S15 01/14/2018 10:50:00 0.0
2018_01_14_S15 01/14/2018 10:55:00 0.0
2018_01_14_S15 01/14/2018 11:00:00 0.0
2018_01_14_S15 01/14/2018 11:05:00 0.0
2018_01_14_S15 01/14/2018 11:10:00 0.0
2018_01_14_S15 01/14/2018 11:15:00 0.0
2018_01_14_S15 01/14/2018 11:20:00 0.0
2018_01_14_S15 01/14/2018 11:25:00 0.0
2018_01_14_S15 01/14/2018 11:30:00 0.0
2018_01_14_S15 01/14/2018 11:35:00 0.0
2018_01_14_S15 01/14/2018 11:40:00 0.0
2018_01_14_S15 01/14/2018 11:45:00 0.0
2018_01_14_S15 01/14/2018 11:50:00 0.0
2018_01_14_S15 01/14/2018 11:55:00 0.0
2018_01_14_S15 01/14/2018 12:00:00 0.0
2018_01_14_S15 01/14/2018 12:05:00 0.0
2018_01_14_S15 01/14/2018 12:10:00 0.0
2018_01_14_S15 01/14/2018 12:15:00 0.0
2018_01_14_S15 01/14/2018 12:20:00 0.0
2018_01_14_S15 01/14/2018 12:25:00 0.0
2018_01_14_S15 01/14/2018 12:30:00 0.0
2018_01_14_S15 01/14/2018 12:35:00 0.0
2018_01_14_S15 01/14/2018 12:40:00 0.0
2018_01_14_S15 01/14/2018 12:45:00 0.0
2018_01_14_S15 01/14/2018 12:50:00 0.0
2018_01_14_S15 01/14/2018 12:55:00 0.0
2018_01_14_S15 01/14/2018 13:00:00 0.0
2018_01_14_S15 01/14/2018 13:05:00 0.0
2018_01_14_S15 01/14/2018 13:10:00 0.0
2018_01_14_S15 01/14/2018 13:15:00 0.0
2018_01_14_S15 01/14/2018 13:20:00 0.0
2018_01_14_S15 01/14/2018 13:25:00 0.0
2018_01_14_S15 01/14/2018 13:30:00 0.0
2018_01_14_S15 01/14/2018 13:35:00 0.0
2018_01_14_S15 01/14/2018 13:40:00 0.0
2018_01_14_S15 01/14/2018 13:45:00 0.0
2018_01_14_S15 01/14/2018 13:50:00 0.0
2018_01_14_S15 01/14/2018 13:55:00 0.0
2018_01_14_S15 01/14/2018 14:00:00 0.0
2018_01_14_S15 01/14/2018 14:05:00 0.0
2018_01_14_S15 01/14/2018 14:10:00 0.0
2018_01_14_S15 01/14/2018 14:15:00 0.0
2018_01_14_S15 01/14/2018 14:20:00 0.0
2018_01_14_S15 01/14/2018 14:25:00 0.0
2018_01_14_S15 01/14/2018 14:30:00 0.0
2018_01_14_S15 01/14/2018 14:35:00 0.0
2018_01_14_S15 01/14/2018 14:40:00 0.0
2018_01_14_S15 01/14/2018 14:45:00 0.0
2018_01_14_S15 01/14/2018 14:50:00 0.0
2018_01_14_S15 01/14/2018 14:55:00 0.0
2018_01_14_S15 01/14/2018 15:00:00 0.0001
2018_01_14_S15 01/14/2018 15:05:00 0.0
2018_01_14_S15 01/14/2018 15:10:00 0.0
2018_01_14_S15 01/14/2018 15:15:00 0.0
2018_01_14_S15 01/14/2018 15:20:00 0.0
2018_01_14_S15 01/14/2018 15:25:00 0.0
2018_01_14_S15 01/14/2018 15:30:00 0.0
2018_01_14_S15 01/14/2018 15:35:00 0.0
2018_01_14_S15 01/14/2018 15:40:00 0.0
2018_01_14_S15 01/14/2018 15:45:00 0.0
2018_01_14_S15 01/14/2018 15:50:00 0.0
2018_01_14_S15 01/14/2018 15:55:00 0.0
2018_01_14_S15 01/14/2018 16:00:00 0.0
2018_01_14_S15 01/14/2018 16:05:00 0.0
2018_01_14_S15 01/14/2018 16:10:00 0.0
2018_01_14_S15 01/14/2018 16:15:00 0.0
2018_01_14_S15 01/14/2018 16:20:00 0.0
2018_01_14_S15 01/14/2018 16:25:00 0.0
2018_01_14_S15 01/14/2018 16:30:00 0.0
2018_01_14_S15 01/14/2018 16:35:00 0.0
2018_01_14_S15 01/14/2018 16:40:00 0.008
2018_01_14_S15 01/14/2018 16:45:00 0.0379
2018_01_14_S15 01/14/2018 16:50:00 0.0473
2018_01_14_S15 01/14/2018 16:55:00 0.2702
2018_01_14_S15 01/14/2018 17:00:00 0.0017
2018_01_14_S15 01/14/2018 17:05:00 0.0113
2018_01_14_S15 01/14/2018 17:10:00 0.4008
2018_01_14_S15 01/14/2018 17:15:00 0.0151
2018_01_14_S15 01/14/2018 17:20:00 0.0
2018_01_14_S15 01/14/2018 17:25:00 0.0
2018_01_14_S15 01/14/2018 17:30:00 0.0
2018_01_14_S15 01/14/2018 17:35:00 0.1649
2018_01_14_S15 01/14/2018 17:40:00 0.0781
2018_01_14_S15 01/14/2018 17:45:00 0.3924
2018_01_14_S15 01/14/2018 17:50:00 0.27
2018_01_14_S15 01/14/2018 17:55:00 0.1317
2018_01_14_S15 01/14/2018 18:00:00 0.603
2018_01_14_S15 01/14/2018 18:05:00 0.3586
2018_01_14_S15 01/14/2018 18:10:00 0.074
2018_01_14_S15 01/14/2018 18:15:00 0.3069
2018_01_14_S15 01/14/2018 18:20:00 1.9372
2018_01_14_S15 01/14/2018 18:25:00 2.2566
2018_01_14_S15 01/14/2018 18:30:00 0.0482
2018_01_14_S15 01/14/2018 18:35:00 0.0
2018_01_14_S15 01/14/2018 18:40:00 0.0
2018_01_14_S15 01/14/2018 18:45:00 0.442
2018_01_14_S15 01/14/2018 18:50:00 0.9332
2018_01_14_S15 01/14/2018 18:55:00 0.2796
2018_01_14_S15 01/14/2018 19:00:00 0.5086
2018_01_14_S15 01/14/2018 19:05:00 0.0
2018_01_14_S15 01/14/2018 19:10:00 0.0
2018_01_14_S15 01/14/2018 19:15:00 0.0
2018_01_14_S15 01/14/2018 19:20:00 0.0
2018_01_14_S15 01/14/2018 19:25:00 0.0
2018_01_14_S15 01/14/2018 19:30:00 0.0
2018_01_14_S15 01/14/2018 19:35:00 0.0
2018_01_14_S15 01/14/2018 19:40:00 0.0
2018_01_14_S15 01/14/2018 19:45:00 0.0
2018_01_14_S15 01/14/2018 19:50:00 0.0
2018_01_14_S15 01/14/2018 19:55:00 0.0
2018_01_14_S15 01/14/2018 20:00:00 0.0
2018_01_14_S15 01/14/2018 20:05:00 0.0
2018_01_14_S15 01/14/2018 20:10:00 0.0
2018_01_14_S15 01/14/2018 20:15:00 0.0
2018_01_14_S15 01/14/2018 20:20:00 0.0
2018_01_14_S15 01/14/2018 20:25:00 0.0
2018_01_14_S15 01/14/2018 20:30:00 0.0
2018_01_14_S15 01/14/2018 20:35:00 0.0
2018_01_14_S15 01/14/2018 20:40:00 0.0
2018_01_14_S15 01/14/2018 20:45:00 0.0
2018_01_14_S15 01/14/2018 20:50:00 0.0
2018_01_14_S15 01/14/2018 20:55:00 0.0
2018_01_14_S15 01/14/2018 21:00:00 0.0
2018_01_14_S15 01/14/2018 21:05:00 0.0
2018_01_14_S15 01/14/2018 21:10:00 0.0
2018_01_14_S15 01/14/2018 21:15:00 0.0
2018_01_14_S15 01/14/2018 21:20:00 0.0
2018_01_14_S15 01/14/2018 21:25:00 0.0
2018_01_14_S15 01/14/2018 21:30:00 0.0
2018_01_14_S15 01/14/2018 21:35:00 0.0
2018_01_14_S15 01/14/2018 21:40:00 0.0
2018_01_14_S15 01/14/2018 21:45:00 0.0
2018_01_14_S15 01/14/2018 21:50:00 0.0
2018_01_14_S15 01/14/2018 21:55:00 0.0
2018_01_14_S15 01/14/2018 22:00:00 0.0
2018_01_14_S15 01/14/2018 22:05:00 0.0
2018_01_14_S15 01/14/2018 22:10:00 0.0
2018_01_14_S15 01/14/2018 22:15:00 0.0
2018_01_14_S15 01/14/2018 22:20:00 0.0
2018_01_14_S15 01/14/2018 22:25:00 0.0
2018_01_14_S15 01/14/2018 22:30:00 0.0
2018_01_14_S15 01/14/2018 22:35:00 0.0
2018_01_14_S15 01/14/2018 22:40:00 0.001
2018_01_14_S15 01/14/2018 22:45:00 0.0074
2018_01_14_S15 01/14/2018 22:50:00 0.0
2018_01_14_S15 01/14/2018 22:55:00 0.0
2018_01_14_S15 01/14/2018 23:00:00 0.0311
2018_01_14_S15 01/14/2018 23:05:00 0.0086
2018_01_14_S15 01/14/2018 23:10:00 0.0092
2018_01_14_S15 01/14/2018 23:15:00 0.0147
2018_01_14_S15 01/14/2018 23:20:00 0.0
2018_01_14_S15 01/14/2018 23:25:00 0.0008
2018_01_14_S15 01/14/2018 23:30:00 0.0
2018_01_14_S15 01/14/2018 23:35:00 0.0
2018_01_14_S15 01/14/2018 23:40:00 0.0
2018_01_14_S15 01/14/2018 23:45:00 0.0
2018_01_14_S15 01/14/2018 23:50:00 0.0
2018_01_14_S15 01/14/2018 23:55:00 0.0
2018_01_14_S15 01/15/2018 00:00:00 0.0
2018_01_14_S15 01/15/2018 00:05:00 0.0
2018_01_14_S15 01/15/2018 00:10:00 0.0
2018_01_14_S15 01/15/2018 00:15:00 0.0
2018_01_14_S15 01/15/2018 00:20:00 0.0
2018_01_14_S15 01/15/2018 00:25:00 0.0
2018_01_14_S15 01/15/2018 00:30:00 0.0
2018_01_14_S15 01/15/2018 00:35:00 0.0
2018_01_14_S15 01/15/2018 00:40:00 0.0
2018_01_14_S15 01/15/2018 00:45:00 0.0
2018_01_14_S15 01/15/2018 00:50:00 0.0
2018_01_14_S15 01/15/2018 00:55:00 0.0
2018_01_14_S15 01/15/2018 01:00:00 0.0
2018_01_14_S15 01/15/2018 01:05:00 0.0
2018_01_14_S15 01/15/2018 01:10:00 0.0
2018_01_14_S15 01/15/2018 01:15:00 0.0
2018_01_14_S15 01/15/2018 01:20:00 0.0
2018_01_14_S15 01/15/2018 01:25:00 0.0
2018_01_14_S15 01/15/2018 01:30:00 0.0
2018_01_14_S15 01/15/2018 01:35:00 0.0
2018_01_14_S15 01/15/2018 01:40:00 0.0
2018_01_14_S15 01/15/2018 01:45:00 0.0
2018_01_14_S15 01/15/2018 01:50:00 0.0
2018_01_14_S15 01/15/2018 01:55:00 0.0
2018_01_14_S15 01/15/2018 02:00:00 0.0
2018_01_14_S15 01/15/2018 02:05:00 0.0
2018_01_14_S15 01/15/2018 02:10:00 0.0
2018_01_14_S15 01/15/2018 02:15:00 0.0
2018_01_14_S15 01/15/2018 02:20:00 0.0
2018_01_14_S15 01/15/2018 02:25:00 0.0187
2018_01_14_S15 01/15/2018 02:30:00 0.0057
2018_01_14_S15 01/15/2018 02:35:00 0.0074
2018_01_14_S15 01/15/2018 02:40:00 0.0312
2018_01_14_S15 01/15/2018 02:45:00 0.1504
2018_01_14_S15 01/15/2018 02:50:00 0.0811
2018_01_14_S15 01/15/2018 02:55:00 0.0002
2018_01_14_S15 01/15/2018 03:00:00 0.0074
2018_01_14_S15 01/15/2018 03:05:00 0.0055
2018_01_14_S15 01/15/2018 03:10:00 0.0
2018_01_14_S15 01/15/2018 03:15:00 0.0
2018_01_14_S15 01/15/2018 03:20:00 0.0
2018_01_14_S15 01/15/2018 03:25:00 0.0
2018_01_14_S15 01/15/2018 03:30:00 0.0
2018_01_14_S15 01/15/2018 03:35:00 0.0
2018_01_14_S15 01/15/2018 03:40:00 0.0
2018_01_14_S15 01/15/2018 03:45:00 0.0
2018_01_14_S15 01/15/2018 03:50:00 0.0
2018_01_14_S15 01/15/2018 03:55:00 0.0
2018_01_14_S15 01/15/2018 04:00:00 0.0
2018_01_14_S15 01/15/2018 04:05:00 0.0
2018_01_14_S15 01/15/2018 04:10:00 0.0
2018_01_14_S15 01/15/2018 04:15:00 0.0
2018_01_14_S15 01/15/2018 04:20:00 0.0
2018_01_14_S15 01/15/2018 04:25:00 0.0
2018_01_14_S15 01/15/2018 04:30:00 0.0
2018_01_14_S15 01/15/2018 04:35:00 0.0
2018_01_14_S15 01/15/2018 04:40:00 0.0
2018_01_14_S15 01/15/2018 04:45:00 0.0
2018_01_14_S15 01/15/2018 04:50:00 0.0
2018_01_14_S15 01/15/2018 04:55:00 0.0
2018_01_14_S15 01/15/2018 05:00:00 0.0
2018_01_14_S15 01/15/2018 05:05:00 0.0
2018_01_14_S15 01/15/2018 05:10:00 0.0
2018_01_14_S15 01/15/2018 05:15:00 0.0
2018_01_14_S15 01/15/2018 05:20:00 0.0
2018_01_14_S15 01/15/2018 05:25:00 0.0
2018_01_14_S15 01/15/2018 05:30:00 0.0
2018_01_14_S15 01/15/2018 05:35:00 0.0
2018_01_14_S15 01/15/2018 05:40:00 0.0
2018_01_14_S15 01/15/2018 05:45:00 0.0
2018_01_14_S15 01/15/2018 05:50:00 0.0
2018_01_14_S15 01/15/2018 05:55:00 0.0
2018_01_14_S15 01/15/2018 06:00:00 0.0
2018_01_14_S15 01/15/2018 06:05:00 0.0
2018_01_14_S15 01/15/2018 06:10:00 0.0
2018_01_14_S15 01/15/2018 06:15:00 0.0
2018_01_14_S15 01/15/2018 06:20:00 0.0004
2018_01_14_S15 01/15/2018 06:25:00 0.1903
2018_01_14_S15 01/15/2018 06:30:00 0.0114
2018_01_14_S15 01/15/2018 06:35:00 0.0
2018_01_14_S15 01/15/2018 06:40:00 0.0
2018_01_14_S15 01/15/2018 06:45:00 0.0
2018_01_14_S15 01/15/2018 06:50:00 0.0
2018_01_14_S15 01/15/2018 06:55:00 0.0
2018_01_14_S15 01/15/2018 07:00:00 0.0
2018_01_14_S15 01/15/2018 07:05:00 0.0
2018_01_14_S15 01/15/2018 07:10:00 0.0
2018_01_14_S15 01/15/2018 07:15:00 0.0
2018_01_14_S15 01/15/2018 07:20:00 0.0008
2018_01_14_S15 01/15/2018 07:25:00 0.0169
2018_01_14_S15 01/15/2018 07:30:00 0.0102
2018_01_14_S15 01/15/2018 07:35:00 0.0
2018_01_14_S15 01/15/2018 07:40:00 0.0
2018_01_14_S15 01/15/2018 07:45:00 0.0
2018_01_14_S15 01/15/2018 07:50:00 0.0
2018_01_14_S15 01/15/2018 07:55:00 0.0
2018_01_14_S15 01/15/2018 08:00:00 0.0

2018_01_14_S16 01/13/2018 08:00:00 0.0
2018_01_14_S16 01/13/2018 08:05:00 0.0
2018_01_14_S16 01/13/2018 08:10:00 0.0
2018_01_14_S16 01/13/2018 08:15:00 0.0
2018_01_14_S16 01/13/2018 08:20:00 0.0
2018_01_14_S16 01/13/2018 08:25:00 0.0
2018_01_14_S16 01/13/2018 08:30:00 0.0
2018_01_14_S16 01/13/2018 08:35:00 0.0
2018_01_14_S16 01/13/2018 08:40:00 0.0
2018_01_14_S16 01/13/2018 08:45:00 0.0
2018_01_14_S16 01/13/2018 08:50:00 0.0
2018_01_14_S16 01/13/2018 08:55:00 0.0
2018_01_14_S16 01/13/2018 09:00:00 0.0
2018_01_14_S16 01/13/2018 09:05:00 0.0
2018_01_14_S16 01/13/2018 09:10:00 0.0
2018_01_14_S16 01/13/2018 09:15:00 0.0
2018_01_14_S16 01/13/2018 09:20:00 0.0
2018_01_14_S16 01/13/2018 09:25:00 0.0
2018_01_14_S16 01/13/2018 09:30:00 0.0
2018_01_14_S16 01/13/2018 09:35:00 0.0
2018_01_14_S16 01/13/2018 09:40:00 0.0
2018_01_14_S16 01/13/2018 09:45:00 0.0
2018_01_14_S16 01/13/2018 09:50:00 0.0
2018_01_14_S16 01/13/2018 09:55:00 0.0
2018_01_14_S16 01/13/2018 10:00:00 0.0
2018_01_14_S16 01/13/2018 10:05:00 0.0
2018_01_14_S16 01/13/2018 10:10:00 0.0
2018_01_14_S16 01/13/2018 10:15:00 0.0
2018_01_14_S16 01/13/2018 10:20:00 0.0
2018_01_14_S16 01/13/2018 10:25:00 0.0
2018_01_14_S16 01/13/2018 10:30:00 0.0
2018_01_14_S16 01/13/2018 10:35:00 0.0
2018_01_14_S16 01/13/2018 10:40:00 0.0
2018_01_14_S16 01/13/2018 10:45:00 0.0
2018_01_14_S16 01/13/2018 10:50:00 0.0
2018_01_14_S16 01/13/2018 10:55:00 0.0
2018_01_14_S16 01/13/2018 11:00:00 0.0
2018_01_14_S16 01/13/2018 11:05:00 0.0
2018_01_14_S16 01/13/2018 11:10:00 0.0
2018_01_14_S16 01/13/2018 11:15:00 0.0
2018_01_14_S16 01/13/2018 11:20:00 0.0
2018_01_14_S16 01/13/2018 11:25:00 0.0
2018_01_14_S16 01/13/2018 11:30:00 0.0
2018_01_14_S16 01/13/2018 11:35:00 0.0
2018_01_14_S16 01/13/2018 11:40:00 0.0
2018_01_14_S16 01/13/2018 11:45:00 0.0
2018_01_14_S16 01/13/2018 11:50:00 0.0
2018_01_14_S16 01/13/2018 11:55:00 0.0
2018_01_14_S16 01/13/2018 12:00:00 0.0
2018_01_14_S16 01/13/2018 12:05:00 0.0
2018_01_14_S16 01/13/2018 12:10:00 0.0
2018_01_14_S16 01/13/2018 12:15:00 0.0
2018_01_14_S16 01/13/2018 12:20:00 0.0
2018_01_14_S16 01/13/2018 12:25:00 0.0
2018_01_14_S16 01/13/2018 12:30:00 0.0
2018_01_14_S16 01/13/2018 12:35:00 0.0
2018_01_14_S16 01/13/2018 12:40:00 0.0
2018_01_14_S16 01/13/2018 12:45:00 0.0
2018_01_14_S16 01/13/2018 12:50:00 0.0
2018_01_14_S16 01/13/2018 12:55:00 0.0
2018_01_14_S16 01/13/2018 13:00:00 0.0
2018_01_14_S16 01/13/2018 13:05:00 0.0
2018_01_14_S16 01/13/2018 13:10:00 0.0
2018_01_14_S16 01/13/2018 13:15:00 0.0
2018_01_14_S16 01/13/2018 13:20:00 0.0
2018_01_14_S16 01/13/2018 13:25:00 0.0
2018_01_14_S16 01/13/2018 13:30:00 0.0
2018_01_14_S16 01/13/2018 13:35:00 0.0
2018_01_14_S16 01/13/2018 13:40:00 0.0
2018_01_14_S16 01/13/2018 13:45:00 0.0
2018_01_14_S16 01/13/2018 13:50:00 0.0
2018_01_14_S16 01/13/2018 13:55:00 0.0
2018_01_14_S16 01/13/2018 14:00:00 0.0
2018_01_14_S16 01/13/2018 14:05:00 0.0
2018_01_14_S16 01/13/2018 14:10:00 0.0
2018_01_14_S16 01/13/2018 14:15:00 0.0
2018_01_14_S16 01/13/2018 14:20:00 0.0
2018_01_14_S16 01/13/2018 14:25:00 0.0
2018_01_14_S16 01/13/2018 14:30:00 0.0
2018_01_14_S16 01/13/2018 14:35:00 0.0
2018_01_14_S16 01/13/2018 14:40:00 0.0
2018_01_14_S16 01/13/2018 14:45:00 0.0
2018_01_14_S16 01/13/2018 14:50:00 0.0
2018_01_14_S16 01/13/2018 14:55:00 0.0
2018_01_14_S16 01/13/2018 15:00:00 0.0
2018_01_14_S16 01/13/2018 15:05:00 0.0
2018_01_14_S16 01/13/2018 15:10:00 0.0
2018_01_14_S16 01/13/2018 15:15:00 0.0
2018_01_14_S16 01/13/2018 15:20:00 0.0
2018_01_14_S16 01/13/2018 15:25:00 0.0
2018_01_14_S16 01/13/2018 15:30:00 0.0
2018_01_14_S16 01/13/2018 15:35:00 0.0
2018_01_14_S16 01/13/2018 15:40:00 0.0
2018_01_14_S16 01/13/2018 15:45:00 0.0
2018_01_14_S16 01/13/2018 15:50:00 0.0
2018_01_14_S16 01/13/2018 15:55:00 0.0
2018_01_14_S16 01/13/2018 16:00:00 0.0
2018_01_14_S16 01/13/2018 16:05:00 0.0
2018_01_14_S16 01/13/2018 16:10:00 0.0
2018_01_14_S16 01/13/2018 16:15:00 0.0
2018_01_14_S16 01/13/2018 16:20:00 0.0
2018_01_14_S16 01/13/2018 16:25:00 0.0
2018_01_14_S16 01/13/2018 16:30:00 0.0
2018_01_14_S16 01/13/2018 16:35:00 0.0
2018_01_14_S16 01/13/2018 16:40:00 0.0
2018_01_14_S16 01/13/2018 16:45:00 0.0
2018_01_14_S16 01/13/2018 16:50:00 0.0
2018_01_14_S16 01/13/2018 16:55:00 0.0
2018_01_14_S16 01/13/2018 17:00:00 0.0
2018_01_14_S16 01/13/2018 17:05:00 0.0
2018_01_14_S16 01/13/2018 17:10:00 0.0
2018_01_14_S16 01/13/2018 17:15:00 0.0
2018_01_14_S16 01/13/2018 17:20:00 0.0
2018_01_14_S16 01/13/2018 17:25:00 0.0
2018_01_14_S16 01/13/2018 17:30:00 0.0
2018_01_14_S16 01/13/2018 17:35:00 0.0
2018_01_14_S16 01/13/2018 17:40:00 0.0
2018_01_14_S16 01/13/2018 17:45:00 0.0
2018_01_14_S16 01/13/2018 17:50:00 0.0
2018_01_14_S16 01/13/2018 17:55:00 0.0
2018_01_14_S16 01/13/2018 18:00:00 0.0
2018_01_14_S16 01/13/2018 18:05:00 0.0
2018_01_14_S16 01/13/2018 18:10:00 0.0
2018_01_14_S16 01/13/2018 18:15:00 0.0
2018_01_14_S16 01/13/2018 18:20:00 0.0
2018_01_14_S16 01/13/2018 18:25:00 0.0
2018_01_14_S16 01/13/2018 18:30:00 0.0
2018_01_14_S16 01/13/2018 18:35:00 0.0
2018_01_14_S16 01/13/2018 18:40:00 0.0
2018_01_14_S16 01/13/2018 18:45:00 0.0
2018_01_14_S16 01/13/2018 18:50:00 0.0
2018_01_14_S16 01/13/2018 18:55:00 0.0
2018_01_14_S16 01/13/2018 19:00:00 0.0
2018_01_14_S16 01/13/2018 19:05:00 0.0
2018_01_14_S16 01/13/2018 19:10:00 0.0
2018_01_14_S16 01/13/2018 19:15:00 0.0
2018_01_14_S16 01/13/2018 19:20:00 0.0
2018_01_14_S16 01/13/2018 19:25:00 0.0
2018_01_14_S16 01/13/2018 19:30:00 0.0
2018_01_14_S16 01/13/2018 19:35:00 0.0
2018_01_14_S16 01/13/2018 19:40:00 0.0
2018_01_14_S16 01/13/2018 19:45:00 0.0
2018_01_14_S16 01/13/2018 19:50:00 0.0
2018_01_14_S16 01/13/2018 19:55:00 0.0
2018_01_14_S16 01/13/2018 20:00:00 0.0
2018_01_14_S16 01/13/2018 20:05:00 0.0
2018_01_14_S16 01/13/2018 20:10:00 0.0
2018_01_14_S16 01/13/2018 20:15:00 0.0
2018_01_14_S16 01/13/2018 20:20:00 0.0
2018_01_14_S16 01/13/2018 20:25:00 0.0
2018_01_14_S16 01/13/2018 20:30:00 0.0
2018_01_14_S16 01/13/2018 20:35:00 0.0
2018_01_14_S16 01/13/2018 20:40:00 0.0
2018_01_14_S16 01/13/2018 20:45:00 0.0
2018_01_14_S16 01/13/2018 20:50:00 0.0
2018_01_14_S16 01/13/2018 20:55:00 0.0
2018_01_14_S16 01/13/2018 21:00:00 0.0
2018_01_14_S16 01/13/2018 21:05:00 0.0
2018_01_14_S16 01/13/2018 21:10:00 0.0
2018_01_14_S16 01/13/2018 21:15:00 0.0
2018_01_14_S16 01/13/2018 21:20:00 0.0
2018_01_14_S16 01/13/2018 21:25:00 0.0
2018_01_14_S16 01/13/2018 21:30:00 0.0
2018_01_14_S16 01/13/2018 21:35:00 0.0
2018_01_14_S16 01/13/2018 21:40:00 0.0
2018_01_14_S16 01/13/2018 21:45:00 0.0
2018_01_14_S16 01/13/2018 21:50:00 0.0
2018_01_14_S16 01/13/2018 21:55:00 0.0
2018_01_14_S16 01/13/2018 22:00:00 0.0
2018_01_14_S16 01/13/2018 22:05:00 0.0
2018_01_14_S16 01/13/2018 22:10:00 0.0
2018_01_14_S16 01/13/2018 22:15:00 0.0
2018_01_14_S16 01/13/2018 22:20:00 0.0
2018_01_14_S16 01/13/2018 22:25:00 0.0
2018_01_14_S16 01/13/2018 22:30:00 0.0
2018_01_14_S16 01/13/2018 22:35:00 0.0
2018_01_14_S16 01/13/2018 22:40:00 0.0
2018_01_14_S16 01/13/2018 22:45:00 0.0
2018_01_14_S16 01/13/2018 22:50:00 0.0
2018_01_14_S16 01/13/2018 22:55:00 0.0
2018_01_14_S16 01/13/2018 23:00:00 0.0
2018_01_14_S16 01/13/2018 23:05:00 0.0
2018_01_14_S16 01/13/2018 23:10:00 0.0
2018_01_14_S16 01/13/2018 23:15:00 0.0
2018_01_14_S16 01/13/2018 23:20:00 0.0
2018_01_14_S16 01/13/2018 23:25:00 0.0
2018_01_14_S16 01/13/2018 23:30:00 0.0
2018_01_14_S16 01/13/2018 23:35:00 0.0
2018_01_14_S16 01/13/2018 23:40:00 0.0
2018_01_14_S16 01/13/2018 23:45:00 0.0
2018_01_14_S16 01/13/2018 23:50:00 0.0
2018_01_14_S16 01/13/2018 23:55:00 0.0
2018_01_14_S16 01/14/2018 00:00:00 0.0
2018_01_14_S16 01/14/2018 00:05:00 0.0
2018_01_14_S16 01/14/2018 00:10:00 0.0
2018_01_14_S16 01/14/2018 00:15:00 0.0
2018_01_14_S16 01/14/2018 00:20:00 0.0
2018_01_14_S16 01/14/2018 00:25:00 0.0
2018_01_14_S16 01/14/2018 00:30:00 0.0
2018_01_14_S16 01/14/2018 00:35:00 0.0
2018_01_14_S16 01/14/2018 00:40:00 0.0
2018_01_14_S16 01/14/2018 00:45:00 0.0
2018_01_14_S16 01/14/2018 00:50:00 0.0
2018_01_14_S16 01/14/2018 00:55:00 0.0
2018_01_14_S16 01/14/2018 01:00:00 0.0
2018_01_14_S16 01/14/2018 01:05:00 0.0
2018_01_14_S16 01/14/2018 01:10:00 0.0
2018_01_14_S16 01/14/2018 01:15:00 0.0
2018_01_14_S16 01/14/2018 01:20:00 0.0
2018_01_14_S16 01/14/2018 01:25:00 0.0
2018_01_14_S16 01/14/2018 01:30:00 0.0
2018_01_14_S16 01/14/2018 01:35:00 0.0
2018_01_14_S16 01/14/2018 01:40:00 0.0
2018_01_14_S16 01/14/2018 01:45:00 0.0
2018_01_14_S16 01/14/2018 01:50:00 0.0
2018_01_14_S16 01/14/2018 01:55:00 0.0
2018_01_14_S16 01/14/2018 02:00:00 0.0
2018_01_14_S16 01/14/2018 02:05:00 0.0
2018_01_14_S16 01/14/2018 02:10:00 0.0
2018_01_14_S16 01/14/2018 02:15:00 0.0
2018_01_14_S16 01/14/2018 02:20:00 0.0
2018_01_14_S16 01/14/2018 02:25:00 0.0
2018_01_14_S16 01/14/2018 02:30:00 0.0
2018_01_14_S16 01/14/2018 02:35:00 0.0
2018_01_14_S16 01/14/2018 02:40:00 0.0
2018_01_14_S16 01/14/2018 02:45:00 0.0
2018_01_14_S16 01/14/2018 02:50:00 0.0
2018_01_14_S16 01/14/2018 02:55:00 0.0
2018_01_14_S16 01/14/2018 03:00:00 0.0
2018_01_14_S16 01/14/2018 03:05:00 0.0155
2018_01_14_S16 01/14/2018 03:10:00 0.2841
2018_01_14_S16 01/14/2018 03:15:00 0.0044
2018_01_14_S16 01/14/2018 03:20:00 0.0
2018_01_14_S16 01/14/2018 03:25:00 0.0
2018_01_14_S16 01/14/2018 03:30:00 0.0
2018_01_14_S16 01/14/2018 03:35:00 0.0
2018_01_14_S16 01/14/2018 03:40:00 0.0
2018_01_14_S16 01/14/2018 03:45:00 0.0
2018_01_14_S16 01/14/2018 03:50:00 0.0
2018_01_14_S16 01/14/2018 03:55:00 0.0
2018_01_14_S16 01/14/2018 04:00:00 0.0
2018_01_14_S16 01/14/2018 04:05:00 0.0
2018_01_14_S16 01/14/2018 04:10:00 0.0
2018_01_14_S16 01/14/2018 04:15:00 0.0
2018_01_14_S16 01/14/2018 04:20:00 0.0
2018_01_14_S16 01/14/2018 04:25:00 0.0
2018_01_14_S16 01/14/2018 04:30:00 0.0
2018_01_14_S16 01/14/2018 04:35:00 0.0
2018_01_14_S16 01/14/2018 04:40:00 0.0
2018_01_14_S16 01/14/2018 04:45:00 0.0
2018_01_14_S16 01/14/2018 04:50:00 0.0
2018_01_14_S16 01/14/2018 04:55:00 0.0
2018_01_14_S16 01/14/2018 05:00:00 0.0
2018_01_14_S16 01/14/2018 05:05:00 0.0
2018_01_14_S16 01/14/2018 05:10:00 0.0
2018_01_14_S16 01/14/2018 05:15:00 0.0
2018_01_14_S16 01/14/2018 05:20:00 0.0
2018_01_14_S16 01/14/2018 05:25:00 0.0
2018_01_14_S16 01/14/2018 05:30:00 0.0
2018_01_14_S16 01/14/2018 05:35:00 0.0
2018_01_14_S16 01/14/2018 05:40:00 0.0
2018_01_14_S16 01/14/2018 05:45:00 0.0
2018_01_14_S16 01/14/2018 05:50:00 0.0
2018_01_14_S16 01/14/2018 05:55:00 0.0
2018_01_14_S16 01/14/2018 06:00:00 0.1657
2018_01_14_S16 01/14/2018 06:05:00 3.7788
2018_01_14_S16 01/14/2018 06:10:00 2.3479
2018_01_14_S16 01/14/2018 06:15:00 0.9537
2018_01_14_S16 01/14/2018 06:20:00 0.0584
2018_01_14_S16 01/14/2018 06:25:00 1.442
2018_01_14_S16 01/14/2018 06:30:00 0.0037
2018_01_14_S16 01/14/2018 06:35:00 0.0
2018_01_14_S16 01/14/2018 06:40:00 0.0
2018_01_14_S16 01/14/2018 06:45:00 0.0
2018_01_14_S16 01/14/2018 06:50:00 0.0
2018_01_14_S16 01/14/2018 06:55:00 0.0
2018_01_14_S16 01/14/2018 07:00:00 0.0
2018_01_14_S16 01/14/2018 07:05:00 0.0
2018_01_14_S16 01/14/2018 07:10:00 0.0
2018_01_14_S16 01/14/2018 07:15:00 0.0
2018_01_14_S16 01/14/2018 07:20:00 0.0
2018_01_14_S16 01/14/2018 07:25:00 0.0
2018_01_14_S16 01/14/2018 07:30:00 0.0
2018_01_14_S16 01/14/2018 07:35:00 0.0
2018_01_14_S16 01/14/2018 07:40:00 0.0
2018_01_14_S16 01/14/2018 07:45:00 0.0
2018_01_14_S16 01/14/2018 07:50:00 0.0016
2018_01_14_S16 01/14/2018 07:55:00 0.0186
2018_01_14_S16 01/14/2018 08:00:00 0.0
2018_01_14_S16 01/14/2018 08:05:00 0.0
2018_01_14_S16 01/14/2018 08:10:00 0.0
2018_01_14_S16 01/14/2018 08:15:00 0.0
2018_01_14_S16 01/14/2018 08:20:00 0.0
2018_01_14_S16 01/14/2018 08:25:00 0.0
2018_01_14_S16 01/14/2018 08:30:00 0.0268
2018_01_14_S16 01/14/2018 08:35:00 0.0967
2018_01_14_S16 01/14/2018 08:40:00 0.2841
2018_01_14_S16 01/14/2018 08:45:00 0.0
2018_01_14_S16 01/14/2018 08:50:00 0.0
2018_01_14_S16 01/14/2018 08:55:00 0.0
2018_01_14_S16 01/14/2018 09:00:00 0.0
2018_01_14_S16 01/14/2018 09:05:00 0.0
2018_01_14_S16 01/14/2018 09:10:00 0.0
2018_01_14_S16 01/14/2018 09:15:00 0.0
2018_01_14_S16 01/14/2018 09:20:00 0.0
2018_01_14_S16 01/14/2018 09:25:00 0.0
2018_01_14_S16 01/14/2018 09:30:00 0.0
2018_01_14_S16 01/14/2018 09:35:00 0.0
2018_01_14_S16 01/14/2018 09:40:00 0.0
2018_01_14_S16 01/14/2018 09:45:00 0.0
2018_01_14_S16 01/14/2018 09:50:00 0.0
2018_01_14_S16 01/14/2018 09:55:00 0.0
2018_01_14_S16 01/14/2018 10:00:00 0.0
2018_01_14_S16 01/14/2018 10:05:00 0.0
2018_01_14_S16 01/14/2018 10:10:00 0.0
2018_01_14_S16 01/14/2018 10:15:00 0.0
2018_01_14_S16 01/14/2018 10:20:00 0.0
2018_01_14_S16 01/14/2018 10:25:00 0.0
2018_01_14_S16 01/14/2018 10:30:00 0.0
2018_01_14_S16 01/14/2018 10:35:00 0.0
2018_01_14_S16 01/14/2018 10:40:00 0.0
2018_01_14_S16 01/14/2018 10:45:00 0.0
2018_01_14_S16 01/14/2018 10:50:00 0.0
2018_01_14_S16 01/14/2018 10:55:00 0.0
2018_01_14_S16 01/14/2018 11:00:00 0.0
2018_01_14_S16 01/14/2018 11:05:00 0.0
2018_01_14_S16 01/14/2018 11:10:00 0.0
2018_01_14_S16 01/14/2018 11:15:00 0.0
2018_01_14_S16 01/14/2018 11:20:00 0.0
2018_01_14_S16 01/14/2018 11:25:00 0.0
2018_01_14_S16 01/14/2018 11:30:00 0.0
2018_01_14_S16 01/14/2018 11:35:00 0.0
2018_01_14_S16 01/14/2018 11:40:00 0.0
2018_01_14_S16 01/14/2018 11:45:00 0.0
2018_01_14_S16 01/14/2018 11:50:00 0.0
2018_01_14_S16 01/14/2018 11:55:00 0.0
2018_01_14_S16 01/14/2018 12:00:00 0.0
2018_01_14_S16 01/14/2018 12:05:00 0.0
2018_01_14_S16 01/14/2018 12:10:00 0.0
2018_01_14_S16 01/14/2018 12:15:00 0.0
2018_01_14_S16 01/14/2018 12:20:00 0.0
2018_01_14_S16 01/14/2018 12:25:00 0.0
2018_01_14_S16 01/14/2018 12:30:00 0.0
2018_01_14_S16 01/14/2018 12:35:00 0.0
2018_01_14_S16 01/14/2018 12:40:00 0.0
2018_01_14_S16 01/14/2018 12:45:00 0.0
2018_01_14_S16 01/14/2018 12:50:00 0.0
2018_01_14_S16 01/14/2018 12:55:00 0.0
2018_01_14_S16 01/14/2018 13:00:00 0.0
2018_01_14_S16 01/14/2018 13:05:00 0.0
2018_01_14_S16 01/14/2018 13:10:00 0.0
2018_01_14_S16 01/14/2018 13:15:00 0.0
2018_01_14_S16 01/14/2018 13:20:00 0.0
2018_01_14_S16 01/14/2018 13:25:00 0.0
2018_01_14_S16 01/14/2018 13:30:00 0.0
2018_01_14_S16 01/14/2018 13:35:00 0.0
2018_01_14_S16 01/14/2018 13:40:00 0.0
2018_01_14_S16 01/14/2018 13:45:00 0.0
2018_01_14_S16 01/14/2018 13:50:00 0.0
2018_01_14_S16 01/14/2018 13:55:00 0.0
2018_01_14_S16 01/14/2018 14:00:00 0.0
2018_01_14_S16 01/14/2018 14:05:00 0.0
2018_01_14_S16 01/14/2018 14:10:00 0.0
2018_01_14_S16 01/14/2018 14:15:00 0.0
2018_01_14_S16 01/14/2018 14:20:00 0.0
2018_01_14_S16 01/14/2018 14:25:00 0.0
2018_01_14_S16 01/14/2018 14:30:00 0.0
2018_01_14_S16 01/14/2018 14:35:00 0.0
2018_01_14_S16 01/14/2018 14:40:00 0.0
2018_01_14_S16 01/14/2018 14:45:00 0.0
2018_01_14_S16 01/14/2018 14:50:00 0.0
2018_01_14_S16 01/14/2018 14:55:00 0.0
2018_01_14_S16 01/14/2018 15:00:00 0.0033
2018_01_14_S16 01/14/2018 15:05:00 0.0
2018_01_14_S16 01/14/2018 15:10:00 0.0
2018_01_14_S16 01/14/2018 15:15:00 0.0
2018_01_14_S16 01/14/2018 15:20:00 0.0
2018_01_14_S16 01/14/2018 15:25:00 0.0
2018_01_14_S16 01/14/2018 15:30:00 0.0
2018_01_14_S16 01/14/2018 15:35:00 0.0
2018_01_14_S16 01/14/2018 15:40:00 0.0
2018_01_14_S16 01/14/2018 15:45:00 0.0
2018_01_14_S16 01/14/2018 15:50:00 0.0
2018_01_14_S16 01/14/2018 15:55:00 0.0
2018_01_14_S16 01/14/2018 16:00:00 0.0
2018_01_14_S16 01/14/2018 16:05:00 0.0
2018_01_14_S16 01/14/2018 16:10:00 0.0
2018_01_14_S16 01/14/2018 16:15:00 0.0
2018_01_14_S16 01/14/2018 16:20:00 0.0
2018_01_14_S16 01/14/2018 16:25:00 0.0
2018_01_14_S16 01/14/2018 16:30:00 0.0
2018_01_14_S16 01/14/2018 16:35:00 0.0
2018_01_14_S16 01/14/2018 16:40:00 0.0094
2018_01_14_S16 01/14/2018 16:45:00 0.0252
2018_01_14_S16 01/14/2018 16:50:00 0.0727
2018_01_14_S16 01/14/2018 16:55:00 0.2374
2018_01_14_S16 01/14/2018 17:00:00 0.006
2018_01_14_S16 01/14/2018 17:05:00 0.0157
2018_01_14_S16 01/14/2018 17:10:00 0.272
2018_01_14_S16 01/14/2018 17:15:00 0.0294
2018_01_14_S16 01/14/2018 17:20:00 0.0
2018_01_14_S16 01/14/2018 17:25:00 0.0
2018_01_14_S16 01/14/2018 17:30:00 0.0
2018_01_14_S16 01/14/2018 17:35:00 0.1346
2018_01_14_S16 01/14/2018 17:40:00 0.0796
2018_01_14_S16 01/14/2018 17:45:00 0.5398
2018_01_14_S16 01/14/2018 17:50:00 0.3283
2018_01_14_S16 01/14/2018 17:55:00 0.1396
2018_01_14_S16 01/14/2018 18:00:00 0.77
2018_01_14_S16 01/14/2018 18:05:00 0.4836
2018_01_14_S16 01/14/2018 18:10:00 0.0649
2018_01_14_S16 01/14/2018 18:15:00 0.2415
2018_01_14_S16 01/14/2018 18:20:00 1.5176
2018_01_14_S16 01/14/2018 18:25:00 3.0396
2018_01_14_S16 01/14/2018 18:30:00 0.2469
2018_01_14_S16 01/14/2018 18:35:00 0.0
2018_01_14_S16 01/14/2018 18:40:00 0.0
2018_01_14_S16 01/14/2018 18:45:00 0.2714
2018_01_14_S16 01/14/2018 18:50:00 0.603
2018_01_14_S16 01/14/2018 18:55:00 0.1305
2018_01_14_S16 01/14/2018 19:00:00 0.6846
2018_01_14_S16 01/14/2018 19:05:00 0.0
2018_01_14_S16 01/14/2018 19:10:00 0.0
2018_01_14_S16 01/14/2018 19:15:00 0.0
2018_01_14_S16 01/14/2018 19:20:00 0.0
2018_01_14_S16 01/14/2018 19:25:00 0.0
2018_01_14_S16 01/14/2018 19:30:00 0.0
2018_01_14_S16 01/14/2018 19:35:00 0.0
2018_01_14_S16 01/14/2018 19:40:00 0.0
2018_01_14_S16 01/14/2018 19:45:00 0.0
2018_01_14_S16 01/14/2018 19:50:00 0.0
2018_01_14_S16 01/14/2018 19:55:00 0.0
2018_01_14_S16 01/14/2018 20:00:00 0.0
2018_01_14_S16 01/14/2018 20:05:00 0.0
2018_01_14_S16 01/14/2018 20:10:00 0.0
2018_01_14_S16 01/14/2018 20:15:00 0.0
2018_01_14_S16 01/14/2018 20:20:00 0.0
2018_01_14_S16 01/14/2018 20:25:00 0.0
2018_01_14_S16 01/14/2018 20:30:00 0.0
2018_01_14_S16 01/14/2018 20:35:00 0.0
2018_01_14_S16 01/14/2018 20:40:00 0.0
2018_01_14_S16 01/14/2018 20:45:00 0.0
2018_01_14_S16 01/14/2018 20:50:00 0.0
2018_01_14_S16 01/14/2018 20:55:00 0.0
2018_01_14_S16 01/14/2018 21:00:00 0.0
2018_01_14_S16 01/14/2018 21:05:00 0.0
2018_01_14_S16 01/14/2018 21:10:00 0.0
2018_01_14_S16 01/14/2018 21:15:00 0.0
2018_01_14_S16 01/14/2018 21:20:00 0.0
2018_01_14_S16 01/14/2018 21:25:00 0.0
2018_01_14_S16 01/14/2018 21:30:00 0.0
2018_01_14_S16 01/14/2018 21:35:00 0.0
2018_01_14_S16 01/14/2018 21:40:00 0.0
2018_01_14_S16 01/14/2018 21:45:00 0.0
2018_01_14_S16 01/14/2018 21:50:00 0.0
2018_01_14_S16 01/14/2018 21:55:00 0.0
2018_01_14_S16 01/14/2018 22:00:00 0.0
2018_01_14_S16 01/14/2018 22:05:00 0.0
2018_01_14_S16 01/14/2018 22:10:00 0.0
2018_01_14_S16 01/14/2018 22:15:00 0.0
2018_01_14_S16 01/14/2018 22:20:00 0.0
2018_01_14_S16 01/14/2018 22:25:00 0.0
2018_01_14_S16 01/14/2018 22:30:00 0.0
2018_01_14_S16 01/14/2018 22:35:00 0.0
2018_01_14_S16 01/14/2018 22:40:00 0.0023
2018_01_14_S16 01/14/2018 22:45:00 0.0008
2018_01_14_S16 01/14/2018 22:50:00 0.0
2018_01_14_S16 01/14/2018 22:55:00 0.0
2018_01_14_S16 01/14/2018 23:00:00 0.0235
2018_01_14_S16 01/14/2018 23:05:00 0.001
2018_01_14_S16 01/14/2018 23:10:00 0.0
2018_01_14_S16 01/14/2018 23:15:00 0.0068
2018_01_14_S16 01/14/2018 23:20:00 0.0
2018_01_14_S16 01/14/2018 23:25:00 0.0023
2018_01_14_S16 01/14/2018 23:30:00 0.0
2018_01_14_S16 01/14/2018 23:35:00 0.0
2018_01_14_S16 01/14/2018 23:40:00 0.0
2018_01_14_S16 01/14/2018 23:45:00 0.0
2018_01_14_S16 01/14/2018 23:50:00 0.0
2018_01_14_S16 01/14/2018 23:55:00 0.0
2018_01_14_S16 01/15/2018 00:00:00 0.0
2018_01_14_S16 01/15/2018 00:05:00 0.0
2018_01_14_S16 01/15/2018 00:10:00 0.0
2018_01_14_S16 01/15/2018 00:15:00 0.0
2018_01_14_S16 01/15/2018 00:20:00 0.0
2018_01_14_S16 01/15/2018 00:25:00 0.0
2018_01_14_S16 01/15/2018 00:30:00 0.0
2018_01_14_S16 01/15/2018 00:35:00 0.0
2018_01_14_S16 01/15/2018 00:40:00 0.0
2018_01_14_S16 01/15/2018 00:45:00 0.0
2018_01_14_S16 01/15/2018 00:50:00 0.0
2018_01_14_S16 01/15/2018 00:55:00 0.0
2018_01_14_S16 01/15/2018 01:00:00 0.0
2018_01_14_S16 01/15/2018 01:05:00 0.0
2018_01_14_S16 01/15/2018 01:10:00 0.0
2018_01_14_S16 01/15/2018 01:15:00 0.0
2018_01_14_S16 01/15/2018 01:20:00 0.0
2018_01_14_S16 01/15/2018 01:25:00 0.0
2018_01_14_S16 01/15/2018 01:30:00 0.0
2018_01_14_S16 01/15/2018 01:35:00 0.0
2018_01_14_S16 01/15/2018 01:40:00 0.0
2018_01_14_S16 01/15/2018 01:45:00 0.0
2018_01_14_S16 01/15/2018 01:50:00 0.0
2018_01_14_S16 01/15/2018 01:55:00 0.0
2018_01_14_S16 01/15/2018 02:00:00 0.0
2018_01_14_S16 01/15/2018 02:05:00 0.0
2018_01_14_S16 01/15/2018 02:10:00 0.0
2018_01_14_S16 01/15/2018 02:15:00 0.0
2018_01_14_S16 01/15/2018 02:20:00 0.0
2018_01_14_S16 01/15/2018 02:25:00 0.0084
2018_01_14_S16 01/15/2018 02:30:00 0.0023
2018_01_14_S16 01/15/2018 02:35:00 0.0028
2018_01_14_S16 01/15/2018 02:40:00 0.051
2018_01_14_S16 01/15/2018 02:45:00 0.1519
2018_01_14_S16 01/15/2018 02:50:00 0.1502
2018_01_14_S16 01/15/2018 02:55:00 0.0106
2018_01_14_S16 01/15/2018 03:00:00 0.001
2018_01_14_S16 01/15/2018 03:05:00 0.0039
2018_01_14_S16 01/15/2018 03:10:00 0.0
2018_01_14_S16 01/15/2018 03:15:00 0.0
2018_01_14_S16 01/15/2018 03:20:00 0.0
2018_01_14_S16 01/15/2018 03:25:00 0.0
2018_01_14_S16 01/15/2018 03:30:00 0.0
2018_01_14_S16 01/15/2018 03:35:00 0.0
2018_01_14_S16 01/15/2018 03:40:00 0.0
2018_01_14_S16 01/15/2018 03:45:00 0.0
2018_01_14_S16 01/15/2018 03:50:00 0.0
2018_01_14_S16 01/15/2018 03:55:00 0.0
2018_01_14_S16 01/15/2018 04:00:00 0.0
2018_01_14_S16 01/15/2018 04:05:00 0.0
2018_01_14_S16 01/15/2018 04:10:00 0.0
2018_01_14_S16 01/15/2018 04:15:00 0.0
2018_01_14_S16 01/15/2018 04:20:00 0.0
2018_01_14_S16 01/15/2018 04:25:00 0.0
2018_01_14_S16 01/15/2018 04:30:00 0.0
2018_01_14_S16 01/15/2018 04:35:00 0.0
2018_01_14_S16 01/15/2018 04:40:00 0.0
2018_01_14_S16 01/15/2018 04:45:00 0.0
2018_01_14_S16 01/15/2018 04:50:00 0.0
2018_01_14_S16 01/15/2018 04:55:00 0.0
2018_01_14_S16 01/15/2018 05:00:00 0.0
2018_01_14_S16 01/15/2018 05:05:00 0.0
2018_01_14_S16 01/15/2018 05:10:00 0.0
2018_01_14_S16 01/15/2018 05:15:00 0.0
2018_01_14_S16 01/15/2018 05:20:00 0.0
2018_01_14_S16 01/15/2018 05:25:00 0.0
2018_01_14_S16 01/15/2018 05:30:00 0.0
2018_01_14_S16 01/15/2018 05:35:00 0.0
2018_01_14_S16 01/15/2018 05:40:00 0.0
2018_01_14_S16 01/15/2018 05:45:00 0.0
2018_01_14_S16 01/15/2018 05:50:00 0.0
2018_01_14_S16 01/15/2018 05:55:00 0.0
2018_01_14_S16 01/15/2018 06:00:00 0.0
2018_01_14_S16 01/15/2018 06:05:00 0.0
2018_01_14_S16 01/15/2018 06:10:00 0.0
2018_01_14_S16 01/15/2018 06:15:00 0.0
2018_01_14_S16 01/15/2018 06:20:00 0.0
2018_01_14_S16 01/15/2018 06:25:00 0.166
2018_01_14_S16 01/15/2018 06:30:00 0.0039
2018_01_14_S16 01/15/2018 06:35:00 0.0
2018_01_14_S16 01/15/2018 06:40:00 0.0
2018_01_14_S16 01/15/2018 06:45:00 0.0
2018_01_14_S16 01/15/2018 06:50:00 0.0
2018_01_14_S16 01/15/2018 06:55:00 0.0
2018_01_14_S16 01/15/2018 07:00:00 0.0
2018_01_14_S16 01/15/2018 07:05:00 0.0
2018_01_14_S16 01/15/2018 07:10:00 0.0
2018_01_14_S16 01/15/2018 07:15:00 0.0
2018_01_14_S16 01/15/2018 07:20:00 0.0033
2018_01_14_S16 01/15/2018 07:25:00 0.0275
2018_01_14_S16 01/15/2018 07:30:00 0.0367
2018_01_14_S16 01/15/2018 07:35:00 0.0
2018_01_14_S16 01/15/2018 07:40:00 0.0
2018_01_14_S16 01/15/2018 07:45:00 0.0
2018_01_14_S16 01/15/2018 07:50:00 0.0
2018_01_14_S16 01/15/2018 07:55:00 0.0
2018_01_14_S16 01/15/2018 08:00:00 0.0

2018_01_14_S17 01/13/2018 08:00:00 0.0
2018_01_14_S17 01/13/2018 08:05:00 0.0
2018_01_14_S17 01/13/2018 08:10:00 0.0
2018_01_14_S17 01/13/2018 08:15:00 0.0
2018_01_14_S17 01/13/2018 08:20:00 0.0
2018_01_14_S17 01/13/2018 08:25:00 0.0
2018_01_14_S17 01/13/2018 08:30:00 0.0
2018_01_14_S17 01/13/2018 08:35:00 0.0
2018_01_14_S17 01/13/2018 08:40:00 0.0
2018_01_14_S17 01/13/2018 08:45:00 0.0
2018_01_14_S17 01/13/2018 08:50:00 0.0
2018_01_14_S17 01/13/2018 08:55:00 0.0
2018_01_14_S17 01/13/2018 09:00:00 0.0
2018_01_14_S17 01/13/2018 09:05:00 0.0
2018_01_14_S17 01/13/2018 09:10:00 0.0
2018_01_14_S17 01/13/2018 09:15:00 0.0
2018_01_14_S17 01/13/2018 09:20:00 0.0
2018_01_14_S17 01/13/2018 09:25:00 0.0
2018_01_14_S17 01/13/2018 09:30:00 0.0
2018_01_14_S17 01/13/2018 09:35:00 0.0
2018_01_14_S17 01/13/2018 09:40:00 0.0
2018_01_14_S17 01/13/2018 09:45:00 0.0
2018_01_14_S17 01/13/2018 09:50:00 0.0
2018_01_14_S17 01/13/2018 09:55:00 0.0
2018_01_14_S17 01/13/2018 10:00:00 0.0
2018_01_14_S17 01/13/2018 10:05:00 0.0
2018_01_14_S17 01/13/2018 10:10:00 0.0
2018_01_14_S17 01/13/2018 10:15:00 0.0
2018_01_14_S17 01/13/2018 10:20:00 0.0
2018_01_14_S17 01/13/2018 10:25:00 0.0
2018_01_14_S17 01/13/2018 10:30:00 0.0
2018_01_14_S17 01/13/2018 10:35:00 0.0
2018_01_14_S17 01/13/2018 10:40:00 0.0
2018_01_14_S17 01/13/2018 10:45:00 0.0
2018_01_14_S17 01/13/2018 10:50:00 0.0
2018_01_14_S17 01/13/2018 10:55:00 0.0
2018_01_14_S17 01/13/2018 11:00:00 0.0
2018_01_14_S17 01/13/2018 11:05:00 0.0
2018_01_14_S17 01/13/2018 11:10:00 0.0
2018_01_14_S17 01/13/2018 11:15:00 0.0
2018_01_14_S17 01/13/2018 11:20:00 0.0
2018_01_14_S17 01/13/2018 11:25:00 0.0
2018_01_14_S17 01/13/2018 11:30:00 0.0
2018_01_14_S17 01/13/2018 11:35:00 0.0
2018_01_14_S17 01/13/2018 11:40:00 0.0
2018_01_14_S17 01/13/2018 11:45:00 0.0
2018_01_14_S17 01/13/2018 11:50:00 0.0
2018_01_14_S17 01/13/2018 11:55:00 0.0
2018_01_14_S17 01/13/2018 12:00:00 0.0
2018_01_14_S17 01/13/2018 12:05:00 0.0
2018_01_14_S17 01/13/2018 12:10:00 0.0
2018_01_14_S17 01/13/2018 12:15:00 0.0
2018_01_14_S17 01/13/2018 12:20:00 0.0
2018_01_14_S17 01/13/2018 12:25:00 0.0
2018_01_14_S17 01/13/2018 12:30:00 0.0
2018_01_14_S17 01/13/2018 12:35:00 0.0
2018_01_14_S17 01/13/2018 12:40:00 0.0
2018_01_14_S17 01/13/2018 12:45:00 0.0
2018_01_14_S17 01/13/2018 12:50:00 0.0
2018_01_14_S17 01/13/2018 12:55:00 0.0
2018_01_14_S17 01/13/2018 13:00:00 0.0
2018_01_14_S17 01/13/2018 13:05:00 0.0
2018_01_14_S17 01/13/2018 13:10:00 0.0
2018_01_14_S17 01/13/2018 13:15:00 0.0
2018_01_14_S17 01/13/2018 13:20:00 0.0
2018_01_14_S17 01/13/2018 13:25:00 0.0
2018_01_14_S17 01/13/2018 13:30:00 0.0
2018_01_14_S17 01/13/2018 13:35:00 0.0
2018_01_14_S17 01/13/2018 13:40:00 0.0
2018_01_14_S17 01/13/2018 13:45:00 0.0
2018_01_14_S17 01/13/2018 13:50:00 0.0
2018_01_14_S17 01/13/2018 13:55:00 0.0
2018_01_14_S17 01/13/2018 14:00:00 0.0
2018_01_14_S17 01/13/2018 14:05:00 0.0
2018_01_14_S17 01/13/2018 14:10:00 0.0
2018_01_14_S17 01/13/2018 14:15:00 0.0
2018_01_14_S17 01/13/2018 14:20:00 0.0
2018_01_14_S17 01/13/2018 14:25:00 0.0
2018_01_14_S17 01/13/2018 14:30:00 0.0
2018_01_14_S17 01/13/2018 14:35:00 0.0
2018_01_14_S17 01/13/2018 14:40:00 0.0
2018_01_14_S17 01/13/2018 14:45:00 0.0
2018_01_14_S17 01/13/2018 14:50:00 0.0
2018_01_14_S17 01/13/2018 14:55:00 0.0
2018_01_14_S17 01/13/2018 15:00:00 0.0
2018_01_14_S17 01/13/2018 15:05:00 0.0
2018_01_14_S17 01/13/2018 15:10:00 0.0
2018_01_14_S17 01/13/2018 15:15:00 0.0
2018_01_14_S17 01/13/2018 15:20:00 0.0
2018_01_14_S17 01/13/2018 15:25:00 0.0
2018_01_14_S17 01/13/2018 15:30:00 0.0
2018_01_14_S17 01/13/2018 15:35:00 0.0
2018_01_14_S17 01/13/2018 15:40:00 0.0
2018_01_14_S17 01/13/2018 15:45:00 0.0
2018_01_14_S17 01/13/2018 15:50:00 0.0
2018_01_14_S17 01/13/2018 15:55:00 0.0
2018_01_14_S17 01/13/2018 16:00:00 0.0
2018_01_14_S17 01/13/2018 16:05:00 0.0
2018_01_14_S17 01/13/2018 16:10:00 0.0
2018_01_14_S17 01/13/2018 16:15:00 0.0
2018_01_14_S17 01/13/2018 16:20:00 0.0
2018_01_14_S17 01/13/2018 16:25:00 0.0
2018_01_14_S17 01/13/2018 16:30:00 0.0
2018_01_14_S17 01/13/2018 16:35:00 0.0
2018_01_14_S17 01/13/2018 16:40:00 0.0
2018_01_14_S17 01/13/2018 16:45:00 0.0
2018_01_14_S17 01/13/2018 16:50:00 0.0
2018_01_14_S17 01/13/2018 16:55:00 0.0
2018_01_14_S17 01/13/2018 17:00:00 0.0
2018_01_14_S17 01/13/2018 17:05:00 0.0
2018_01_14_S17 01/13/2018 17:10:00 0.0
2018_01_14_S17 01/13/2018 17:15:00 0.0
2018_01_14_S17 01/13/2018 17:20:00 0.0
2018_01_14_S17 01/13/2018 17:25:00 0.0
2018_01_14_S17 01/13/2018 17:30:00 0.0
2018_01_14_S17 01/13/2018 17:35:00 0.0
2018_01_14_S17 01/13/2018 17:40:00 0.0
2018_01_14_S17 01/13/2018 17:45:00 0.0
2018_01_14_S17 01/13/2018 17:50:00 0.0
2018_01_14_S17 01/13/2018 17:55:00 0.0
2018_01_14_S17 01/13/2018 18:00:00 0.0
2018_01_14_S17 01/13/2018 18:05:00 0.0
2018_01_14_S17 01/13/2018 18:10:00 0.0
2018_01_14_S17 01/13/2018 18:15:00 0.0
2018_01_14_S17 01/13/2018 18:20:00 0.0
2018_01_14_S17 01/13/2018 18:25:00 0.0
2018_01_14_S17 01/13/2018 18:30:00 0.0
2018_01_14_S17 01/13/2018 18:35:00 0.0
2018_01_14_S17 01/13/2018 18:40:00 0.0
2018_01_14_S17 01/13/2018 18:45:00 0.0
2018_01_14_S17 01/13/2018 18:50:00 0.0
2018_01_14_S17 01/13/2018 18:55:00 0.0
2018_01_14_S17 01/13/2018 19:00:00 0.0
2018_01_14_S17 01/13/2018 19:05:00 0.0
2018_01_14_S17 01/13/2018 19:10:00 0.0
2018_01_14_S17 01/13/2018 19:15:00 0.0
2018_01_14_S17 01/13/2018 19:20:00 0.0
2018_01_14_S17 01/13/2018 19:25:00 0.0
2018_01_14_S17 01/13/2018 19:30:00 0.0
2018_01_14_S17 01/13/2018 19:35:00 0.0
2018_01_14_S17 01/13/2018 19:40:00 0.0
2018_01_14_S17 01/13/2018 19:45:00 0.0
2018_01_14_S17 01/13/2018 19:50:00 0.0
2018_01_14_S17 01/13/2018 19:55:00 0.0
2018_01_14_S17 01/13/2018 20:00:00 0.0
2018_01_14_S17 01/13/2018 20:05:00 0.0
2018_01_14_S17 01/13/2018 20:10:00 0.0
2018_01_14_S17 01/13/2018 20:15:00 0.0
2018_01_14_S17 01/13/2018 20:20:00 0.0
2018_01_14_S17 01/13/2018 20:25:00 0.0
2018_01_14_S17 01/13/2018 20:30:00 0.0
2018_01_14_S17 01/13/2018 20:35:00 0.0
2018_01_14_S17 01/13/2018 20:40:00 0.0
2018_01_14_S17 01/13/2018 20:45:00 0.0
2018_01_14_S17 01/13/2018 20:50:00 0.0
2018_01_14_S17 01/13/2018 20:55:00 0.0
2018_01_14_S17 01/13/2018 21:00:00 0.0
2018_01_14_S17 01/13/2018 21:05:00 0.0
2018_01_14_S17 01/13/2018 21:10:00 0.0
2018_01_14_S17 01/13/2018 21:15:00 0.0
2018_01_14_S17 01/13/2018 21:20:00 0.0
2018_01_14_S17 01/13/2018 21:25:00 0.0
2018_01_14_S17 01/13/2018 21:30:00 0.0
2018_01_14_S17 01/13/2018 21:35:00 0.0
2018_01_14_S17 01/13/2018 21:40:00 0.0
2018_01_14_S17 01/13/2018 21:45:00 0.0
2018_01_14_S17 01/13/2018 21:50:00 0.0
2018_01_14_S17 01/13/2018 21:55:00 0.0
2018_01_14_S17 01/13/2018 22:00:00 0.0
2018_01_14_S17 01/13/2018 22:05:00 0.0
2018_01_14_S17 01/13/2018 22:10:00 0.0
2018_01_14_S17 01/13/2018 22:15:00 0.0
2018_01_14_S17 01/13/2018 22:20:00 0.0
2018_01_14_S17 01/13/2018 22:25:00 0.0
2018_01_14_S17 01/13/2018 22:30:00 0.0
2018_01_14_S17 01/13/2018 22:35:00 0.0
2018_01_14_S17 01/13/2018 22:40:00 0.0
2018_01_14_S17 01/13/2018 22:45:00 0.0
2018_01_14_S17 01/13/2018 22:50:00 0.0
2018_01_14_S17 01/13/2018 22:55:00 0.0
2018_01_14_S17 01/13/2018 23:00:00 0.0
2018_01_14_S17 01/13/2018 23:05:00 0.0
2018_01_14_S17 01/13/2018 23:10:00 0.0
2018_01_14_S17 01/13/2018 23:15:00 0.0
2018_01_14_S17 01/13/2018 23:20:00 0.0
2018_01_14_S17 01/13/2018 23:25:00 0.0
2018_01_14_S17 01/13/2018 23:30:00 0.0
2018_01_14_S17 01/13/2018 23:35:00 0.0
2018_01_14_S17 01/13/2018 23:40:00 0.0
2018_01_14_S17 01/13/2018 23:45:00 0.0
2018_01_14_S17 01/13/2018 23:50:00 0.0
2018_01_14_S17 01/13/2018 23:55:00 0.0
2018_01_14_S17 01/14/2018 00:00:00 0.0
2018_01_14_S17 01/14/2018 00:05:00 0.0
2018_01_14_S17 01/14/2018 00:10:00 0.0
2018_01_14_S17 01/14/2018 00:15:00 0.0
2018_01_14_S17 01/14/2018 00:20:00 0.0
2018_01_14_S17 01/14/2018 00:25:00 0.0
2018_01_14_S17 01/14/2018 00:30:00 0.0
2018_01_14_S17 01/14/2018 00:35:00 0.0
2018_01_14_S17 01/14/2018 00:40:00 0.0
2018_01_14_S17 01/14/2018 00:45:00 0.0
2018_01_14_S17 01/14/2018 00:50:00 0.0
2018_01_14_S17 01/14/2018 00:55:00 0.0
2018_01_14_S17 01/14/2018 01:00:00 0.0
2018_01_14_S17 01/14/2018 01:05:00 0.0
2018_01_14_S17 01/14/2018 01:10:00 0.0
2018_01_14_S17 01/14/2018 01:15:00 0.0
2018_01_14_S17 01/14/2018 01:20:00 0.0
2018_01_14_S17 01/14/2018 01:25:00 0.0
2018_01_14_S17 01/14/2018 01:30:00 0.0
2018_01_14_S17 01/14/2018 01:35:00 0.0
2018_01_14_S17 01/14/2018 01:40:00 0.0
2018_01_14_S17 01/14/2018 01:45:00 0.0
2018_01_14_S17 01/14/2018 01:50:00 0.0
2018_01_14_S17 01/14/2018 01:55:00 0.0
2018_01_14_S17 01/14/2018 02:00:00 0.0
2018_01_14_S17 01/14/2018 02:05:00 0.0
2018_01_14_S17 01/14/2018 02:10:00 0.0
2018_01_14_S17 01/14/2018 02:15:00 0.0
2018_01_14_S17 01/14/2018 02:20:00 0.0
2018_01_14_S17 01/14/2018 02:25:00 0.0
2018_01_14_S17 01/14/2018 02:30:00 0.0
2018_01_14_S17 01/14/2018 02:35:00 0.0
2018_01_14_S17 01/14/2018 02:40:00 0.0
2018_01_14_S17 01/14/2018 02:45:00 0.0
2018_01_14_S17 01/14/2018 02:50:00 0.0
2018_01_14_S17 01/14/2018 02:55:00 0.0
2018_01_14_S17 01/14/2018 03:00:00 0.0
2018_01_14_S17 01/14/2018 03:05:00 0.0191
2018_01_14_S17 01/14/2018 03:10:00 0.0583
2018_01_14_S17 01/14/2018 03:15:00 0.0043
2018_01_14_S17 01/14/2018 03:20:00 0.0
2018_01_14_S17 01/14/2018 03:25:00 0.0
2018_01_14_S17 01/14/2018 03:30:00 0.0
2018_01_14_S17 01/14/2018 03:35:00 0.0
2018_01_14_S17 01/14/2018 03:40:00 0.0
2018_01_14_S17 01/14/2018 03:45:00 0.0
2018_01_14_S17 01/14/2018 03:50:00 0.0
2018_01_14_S17 01/14/2018 03:55:00 0.0
2018_01_14_S17 01/14/2018 04:00:00 0.0
2018_01_14_S17 01/14/2018 04:05:00 0.0
2018_01_14_S17 01/14/2018 04:10:00 0.0
2018_01_14_S17 01/14/2018 04:15:00 0.0
2018_01_14_S17 01/14/2018 04:20:00 0.0
2018_01_14_S17 01/14/2018 04:25:00 0.0
2018_01_14_S17 01/14/2018 04:30:00 0.0
2018_01_14_S17 01/14/2018 04:35:00 0.0
2018_01_14_S17 01/14/2018 04:40:00 0.0
2018_01_14_S17 01/14/2018 04:45:00 0.0
2018_01_14_S17 01/14/2018 04:50:00 0.0
2018_01_14_S17 01/14/2018 04:55:00 0.0
2018_01_14_S17 01/14/2018 05:00:00 0.0
2018_01_14_S17 01/14/2018 05:05:00 0.0
2018_01_14_S17 01/14/2018 05:10:00 0.0
2018_01_14_S17 01/14/2018 05:15:00 0.0
2018_01_14_S17 01/14/2018 05:20:00 0.0
2018_01_14_S17 01/14/2018 05:25:00 0.0
2018_01_14_S17 01/14/2018 05:30:00 0.0
2018_01_14_S17 01/14/2018 05:35:00 0.0
2018_01_14_S17 01/14/2018 05:40:00 0.0
2018_01_14_S17 01/14/2018 05:45:00 0.0
2018_01_14_S17 01/14/2018 05:50:00 0.0
2018_01_14_S17 01/14/2018 05:55:00 0.0027
2018_01_14_S17 01/14/2018 06:00:00 0.6331
2018_01_14_S17 01/14/2018 06:05:00 5.8413
2018_01_14_S17 01/14/2018 06:10:00 1.3116
2018_01_14_S17 01/14/2018 06:15:00 0.0327
2018_01_14_S17 01/14/2018 06:20:00 0.013
2018_01_14_S17 01/14/2018 06:25:00 1.8075
2018_01_14_S17 01/14/2018 06:30:00 0.0082
2018_01_14_S17 01/14/2018 06:35:00 0.0024
2018_01_14_S17 01/14/2018 06:40:00 0.0
2018_01_14_S17 01/14/2018 06:45:00 0.0
2018_01_14_S17 01/14/2018 06:50:00 0.0
2018_01_14_S17 01/14/2018 06:55:00 0.0
2018_01_14_S17 01/14/2018 07:00:00 0.0
2018_01_14_S17 01/14/2018 07:05:00 0.0
2018_01_14_S17 01/14/2018 07:10:00 0.0
2018_01_14_S17 01/14/2018 07:15:00 0.0
2018_01_14_S17 01/14/2018 07:20:00 0.0
2018_01_14_S17 01/14/2018 07:25:00 0.0
2018_01_14_S17 01/14/2018 07:30:00 0.0
2018_01_14_S17 01/14/2018 07:35:00 0.0
2018_01_14_S17 01/14/2018 07:40:00 0.0
2018_01_14_S17 01/14/2018 07:45:00 0.0
2018_01_14_S17 01/14/2018 07:50:00 0.0209
2018_01_14_S17 01/14/2018 07:55:00 0.0099
2018_01_14_S17 01/14/2018 08:00:00 0.0
2018_01_14_S17 01/14/2018 08:05:00 0.0
2018_01_14_S17 01/14/2018 08:10:00 0.0
2018_01_14_S17 01/14/2018 08:15:00 0.0
2018_01_14_S17 01/14/2018 08:20:00 0.0
2018_01_14_S17 01/14/2018 08:25:00 0.0
2018_01_14_S17 01/14/2018 08:30:00 0.029
2018_01_14_S17 01/14/2018 08:35:00 0.0824
2018_01_14_S17 01/14/2018 08:40:00 0.1204
2018_01_14_S17 01/14/2018 08:45:00 0.0
2018_01_14_S17 01/14/2018 08:50:00 0.0
2018_01_14_S17 01/14/2018 08:55:00 0.0
2018_01_14_S17 01/14/2018 09:00:00 0.0
2018_01_14_S17 01/14/2018 09:05:00 0.0
2018_01_14_S17 01/14/2018 09:10:00 0.0
2018_01_14_S17 01/14/2018 09:15:00 0.0
2018_01_14_S17 01/14/2018 09:20:00 0.0
2018_01_14_S17 01/14/2018 09:25:00 0.0
2018_01_14_S17 01/14/2018 09:30:00 0.0
2018_01_14_S17 01/14/2018 09:35:00 0.0
2018_01_14_S17 01/14/2018 09:40:00 0.0
2018_01_14_S17 01/14/2018 09:45:00 0.0
2018_01_14_S17 01/14/2018 09:50:00 0.0
2018_01_14_S17 01/14/2018 09:55:00 0.0
2018_01_14_S17 01/14/2018 10:00:00 0.0
2018_01_14_S17 01/14/2018 10:05:00 0.0
2018_01_14_S17 01/14/2018 10:10:00 0.0
2018_01_14_S17 01/14/2018 10:15:00 0.0
2018_01_14_S17 01/14/2018 10:20:00 0.0
2018_01_14_S17 01/14/2018 10:25:00 0.0
2018_01_14_S17 01/14/2018 10:30:00 0.0
2018_01_14_S17 01/14/2018 10:35:00 0.0
2018_01_14_S17 01/14/2018 10:40:00 0.0
2018_01_14_S17 01/14/2018 10:45:00 0.0
2018_01_14_S17 01/14/2018 10:50:00 0.0
2018_01_14_S17 01/14/2018 10:55:00 0.0
2018_01_14_S17 01/14/2018 11:00:00 0.0
2018_01_14_S17 01/14/2018 11:05:00 0.0
2018_01_14_S17 01/14/2018 11:10:00 0.0
2018_01_14_S17 01/14/2018 11:15:00 0.0
2018_01_14_S17 01/14/2018 11:20:00 0.0
2018_01_14_S17 01/14/2018 11:25:00 0.0
2018_01_14_S17 01/14/2018 11:30:00 0.0
2018_01_14_S17 01/14/2018 11:35:00 0.0
2018_01_14_S17 01/14/2018 11:40:00 0.0
2018_01_14_S17 01/14/2018 11:45:00 0.0
2018_01_14_S17 01/14/2018 11:50:00 0.0
2018_01_14_S17 01/14/2018 11:55:00 0.0
2018_01_14_S17 01/14/2018 12:00:00 0.0
2018_01_14_S17 01/14/2018 12:05:00 0.0
2018_01_14_S17 01/14/2018 12:10:00 0.0
2018_01_14_S17 01/14/2018 12:15:00 0.0
2018_01_14_S17 01/14/2018 12:20:00 0.0
2018_01_14_S17 01/14/2018 12:25:00 0.0
2018_01_14_S17 01/14/2018 12:30:00 0.0
2018_01_14_S17 01/14/2018 12:35:00 0.0
2018_01_14_S17 01/14/2018 12:40:00 0.0
2018_01_14_S17 01/14/2018 12:45:00 0.0
2018_01_14_S17 01/14/2018 12:50:00 0.0
2018_01_14_S17 01/14/2018 12:55:00 0.0
2018_01_14_S17 01/14/2018 13:00:00 0.0
2018_01_14_S17 01/14/2018 13:05:00 0.0
2018_01_14_S17 01/14/2018 13:10:00 0.0
2018_01_14_S17 01/14/2018 13:15:00 0.0
2018_01_14_S17 01/14/2018 13:20:00 0.0
2018_01_14_S17 01/14/2018 13:25:00 0.0
2018_01_14_S17 01/14/2018 13:30:00 0.0
2018_01_14_S17 01/14/2018 13:35:00 0.0
2018_01_14_S17 01/14/2018 13:40:00 0.0
2018_01_14_S17 01/14/2018 13:45:00 0.0
2018_01_14_S17 01/14/2018 13:50:00 0.0
2018_01_14_S17 01/14/2018 13:55:00 0.0
2018_01_14_S17 01/14/2018 14:00:00 0.0
2018_01_14_S17 01/14/2018 14:05:00 0.0
2018_01_14_S17 01/14/2018 14:10:00 0.0
2018_01_14_S17 01/14/2018 14:15:00 0.0
2018_01_14_S17 01/14/2018 14:20:00 0.0
2018_01_14_S17 01/14/2018 14:25:00 0.0
2018_01_14_S17 01/14/2018 14:30:00 0.0
2018_01_14_S17 01/14/2018 14:35:00 0.0
2018_01_14_S17 01/14/2018 14:40:00 0.0
2018_01_14_S17 01/14/2018 14:45:00 0.0
2018_01_14_S17 01/14/2018 14:50:00 0.0
2018_01_14_S17 01/14/2018 14:55:00 0.0
2018_01_14_S17 01/14/2018 15:00:00 0.0015
2018_01_14_S17 01/14/2018 15:05:00 0.0
2018_01_14_S17 01/14/2018 15:10:00 0.0
2018_01_14_S17 01/14/2018 15:15:00 0.0
2018_01_14_S17 01/14/2018 15:20:00 0.0
2018_01_14_S17 01/14/2018 15:25:00 0.0
2018_01_14_S17 01/14/2018 15:30:00 0.0
2018_01_14_S17 01/14/2018 15:35:00 0.0
2018_01_14_S17 01/14/2018 15:40:00 0.0
2018_01_14_S17 01/14/2018 15:45:00 0.0
2018_01_14_S17 01/14/2018 15:50:00 0.0
2018_01_14_S17 01/14/2018 15:55:00 0.0
2018_01_14_S17 01/14/2018 16:00:00 0.0
2018_01_14_S17 01/14/2018 16:05:00 0.0
2018_01_14_S17 01/14/2018 16:10:00 0.0
2018_01_14_S17 01/14/2018 16:15:00 0.0
2018_01_14_S17 01/14/2018 16:20:00 0.0
2018_01_14_S17 01/14/2018 16:25:00 0.0006
2018_01_14_S17 01/14/2018 16:30:00 0.0
2018_01_14_S17 01/14/2018 16:35:00 0.0
2018_01_14_S17 01/14/2018 16:40:00 0.0088
2018_01_14_S17 01/14/2018 16:45:00 0.0222
2018_01_14_S17 01/14/2018 16:50:00 0.0974
2018_01_14_S17 01/14/2018 16:55:00 0.3295
2018_01_14_S17 01/14/2018 17:00:00 0.0088
2018_01_14_S17 01/14/2018 17:05:00 0.013
2018_01_14_S17 01/14/2018 17:10:00 0.3173
2018_01_14_S17 01/14/2018 17:15:00 0.0363
2018_01_14_S17 01/14/2018 17:20:00 0.0
2018_01_14_S17 01/14/2018 17:25:00 0.0006
2018_01_14_S17 01/14/2018 17:30:00 0.0
2018_01_14_S17 01/14/2018 17:35:00 0.1567
2018_01_14_S17 01/14/2018 17:40:00 0.0562
2018_01_14_S17 01/14/2018 17:45:00 0.5257
2018_01_14_S17 01/14/2018 17:50:00 0.3905
2018_01_14_S17 01/14/2018 17:55:00 0.1256
2018_01_14_S17 01/14/2018 18:00:00 0.6405
2018_01_14_S17 01/14/2018 18:05:00 0.4469
2018_01_14_S17 01/14/2018 18:10:00 0.1924
2018_01_14_S17 01/14/2018 18:15:00 0.3087
2018_01_14_S17 01/14/2018 18:20:00 1.5238
2018_01_14_S17 01/14/2018 18:25:00 3.6422
2018_01_14_S17 01/14/2018 18:30:00 0.0833
2018_01_14_S17 01/14/2018 18:35:00 0.0016
2018_01_14_S17 01/14/2018 18:40:00 0.0
2018_01_14_S17 01/14/2018 18:45:00 0.3319
2018_01_14_S17 01/14/2018 18:50:00 1.5054
2018_01_14_S17 01/14/2018 18:55:00 0.0535
2018_01_14_S17 01/14/2018 19:00:00 1.701
2018_01_14_S17 01/14/2018 19:05:00 0.0
2018_01_14_S17 01/14/2018 19:10:00 0.0
2018_01_14_S17 01/14/2018 19:15:00 0.0
2018_01_14_S17 01/14/2018 19:20:00 0.0
2018_01_14_S17 01/14/2018 19:25:00 0.0
2018_01_14_S17 01/14/2018 19:30:00 0.0
2018_01_14_S17 01/14/2018 19:35:00 0.0
2018_01_14_S17 01/14/2018 19:40:00 0.0
2018_01_14_S17 01/14/2018 19:45:00 0.0
2018_01_14_S17 01/14/2018 19:50:00 0.0
2018_01_14_S17 01/14/2018 19:55:00 0.0
2018_01_14_S17 01/14/2018 20:00:00 0.0
2018_01_14_S17 01/14/2018 20:05:00 0.0
2018_01_14_S17 01/14/2018 20:10:00 0.0
2018_01_14_S17 01/14/2018 20:15:00 0.0
2018_01_14_S17 01/14/2018 20:20:00 0.0
2018_01_14_S17 01/14/2018 20:25:00 0.0
2018_01_14_S17 01/14/2018 20:30:00 0.0
2018_01_14_S17 01/14/2018 20:35:00 0.0
2018_01_14_S17 01/14/2018 20:40:00 0.0
2018_01_14_S17 01/14/2018 20:45:00 0.0
2018_01_14_S17 01/14/2018 20:50:00 0.0
2018_01_14_S17 01/14/2018 20:55:00 0.0
2018_01_14_S17 01/14/2018 21:00:00 0.0
2018_01_14_S17 01/14/2018 21:05:00 0.0
2018_01_14_S17 01/14/2018 21:10:00 0.0
2018_01_14_S17 01/14/2018 21:15:00 0.0
2018_01_14_S17 01/14/2018 21:20:00 0.0
2018_01_14_S17 01/14/2018 21:25:00 0.0
2018_01_14_S17 01/14/2018 21:30:00 0.0
2018_01_14_S17 01/14/2018 21:35:00 0.0
2018_01_14_S17 01/14/2018 21:40:00 0.0
2018_01_14_S17 01/14/2018 21:45:00 0.0
2018_01_14_S17 01/14/2018 21:50:00 0.0
2018_01_14_S17 01/14/2018 21:55:00 0.0
2018_01_14_S17 01/14/2018 22:00:00 0.0
2018_01_14_S17 01/14/2018 22:05:00 0.0
2018_01_14_S17 01/14/2018 22:10:00 0.0
2018_01_14_S17 01/14/2018 22:15:00 0.0
2018_01_14_S17 01/14/2018 22:20:00 0.0
2018_01_14_S17 01/14/2018 22:25:00 0.0
2018_01_14_S17 01/14/2018 22:30:00 0.0
2018_01_14_S17 01/14/2018 22:35:00 0.0
2018_01_14_S17 01/14/2018 22:40:00 0.0046
2018_01_14_S17 01/14/2018 22:45:00 0.0
2018_01_14_S17 01/14/2018 22:50:00 0.0
2018_01_14_S17 01/14/2018 22:55:00 0.002
2018_01_14_S17 01/14/2018 23:00:00 0.0248
2018_01_14_S17 01/14/2018 23:05:00 0.0
2018_01_14_S17 01/14/2018 23:10:00 0.0111
2018_01_14_S17 01/14/2018 23:15:00 0.006
2018_01_14_S17 01/14/2018 23:20:00 0.0009
2018_01_14_S17 01/14/2018 23:25:00 0.005
2018_01_14_S17 01/14/2018 23:30:00 0.0
2018_01_14_S17 01/14/2018 23:35:00 0.0
2018_01_14_S17 01/14/2018 23:40:00 0.0
2018_01_14_S17 01/14/2018 23:45:00 0.0
2018_01_14_S17 01/14/2018 23:50:00 0.0
2018_01_14_S17 01/14/2018 23:55:00 0.0
2018_01_14_S17 01/15/2018 00:00:00 0.0
2018_01_14_S17 01/15/2018 00:05:00 0.0
2018_01_14_S17 01/15/2018 00:10:00 0.0
2018_01_14_S17 01/15/2018 00:15:00 0.0
2018_01_14_S17 01/15/2018 00:20:00 0.0
2018_01_14_S17 01/15/2018 00:25:00 0.0
2018_01_14_S17 01/15/2018 00:30:00 0.0
2018_01_14_S17 01/15/2018 00:35:00 0.0
2018_01_14_S17 01/15/2018 00:40:00 0.0
2018_01_14_S17 01/15/2018 00:45:00 0.0
2018_01_14_S17 01/15/2018 00:50:00 0.0
2018_01_14_S17 01/15/2018 00:55:00 0.0
2018_01_14_S17 01/15/2018 01:00:00 0.0
2018_01_14_S17 01/15/2018 01:05:00 0.0
2018_01_14_S17 01/15/2018 01:10:00 0.0
2018_01_14_S17 01/15/2018 01:15:00 0.0
2018_01_14_S17 01/15/2018 01:20:00 0.0
2018_01_14_S17 01/15/2018 01:25:00 0.0
2018_01_14_S17 01/15/2018 01:30:00 0.0
2018_01_14_S17 01/15/2018 01:35:00 0.0
2018_01_14_S17 01/15/2018 01:40:00 0.0
2018_01_14_S17 01/15/2018 01:45:00 0.0
2018_01_14_S17 01/15/2018 01:50:00 0.0
2018_01_14_S17 01/15/2018 01:55:00 0.0
2018_01_14_S17 01/15/2018 02:00:00 0.0
2018_01_14_S17 01/15/2018 02:05:00 0.0
2018_01_14_S17 01/15/2018 02:10:00 0.0
2018_01_14_S17 01/15/2018 02:15:00 0.0
2018_01_14_S17 01/15/2018 02:20:00 0.0
2018_01_14_S17 01/15/2018 02:25:00 0.0269
2018_01_14_S17 01/15/2018 02:30:00 0.006
2018_01_14_S17 01/15/2018 02:35:00 0.0007
2018_01_14_S17 01/15/2018 02:40:00 0.0807
2018_01_14_S17 01/15/2018 02:45:00 0.3078
2018_01_14_S17 01/15/2018 02:50:00 0.1378
2018_01_14_S17 01/15/2018 02:55:00 0.0046
2018_01_14_S17 01/15/2018 03:00:00 0.0059
2018_01_14_S17 01/15/2018 03:05:00 0.0056
2018_01_14_S17 01/15/2018 03:10:00 0.0
2018_01_14_S17 01/15/2018 03:15:00 0.0
2018_01_14_S17 01/15/2018 03:20:00 0.0
2018_01_14_S17 01/15/2018 03:25:00 0.0
2018_01_14_S17 01/15/2018 03:30:00 0.0
2018_01_14_S17 01/15/2018 03:35:00 0.0
2018_01_14_S17 01/15/2018 03:40:00 0.0
2018_01_14_S17 01/15/2018 03:45:00 0.0
2018_01_14_S17 01/15/2018 03:50:00 0.0
2018_01_14_S17 01/15/2018 03:55:00 0.0
2018_01_14_S17 01/15/2018 04:00:00 0.0
2018_01_14_S17 01/15/2018 04:05:00 0.0
2018_01_14_S17 01/15/2018 04:10:00 0.0
2018_01_14_S17 01/15/2018 04:15:00 0.0
2018_01_14_S17 01/15/2018 04:20:00 0.0
2018_01_14_S17 01/15/2018 04:25:00 0.0
2018_01_14_S17 01/15/2018 04:30:00 0.0
2018_01_14_S17 01/15/2018 04:35:00 0.0
2018_01_14_S17 01/15/2018 04:40:00 0.0
2018_01_14_S17 01/15/2018 04:45:00 0.0
2018_01_14_S17 01/15/2018 04:50:00 0.0
2018_01_14_S17 01/15/2018 04:55:00 0.0
2018_01_14_S17 01/15/2018 05:00:00 0.0
2018_01_14_S17 01/15/2018 05:05:00 0.0
2018_01_14_S17 01/15/2018 05:10:00 0.0
2018_01_14_S17 01/15/2018 05:15:00 0.0
2018_01_14_S17 01/15/2018 05:20:00 0.0
2018_01_14_S17 01/15/2018 05:25:00 0.0
2018_01_14_S17 01/15/2018 05:30:00 0.0
2018_01_14_S17 01/15/2018 05:35:00 0.0
2018_01_14_S17 01/15/2018 05:40:00 0.0
2018_01_14_S17 01/15/2018 05:45:00 0.0
2018_01_14_S17 01/15/2018 05:50:00 0.0
2018_01_14_S17 01/15/2018 05:55:00 0.0
2018_01_14_S17 01/15/2018 06:00:00 0.0
2018_01_14_S17 01/15/2018 06:05:00 0.0
2018_01_14_S17 01/15/2018 06:10:00 0.0
2018_01_14_S17 01/15/2018 06:15:00 0.0
2018_01_14_S17 01/15/2018 06:20:00 0.0028
2018_01_14_S17 01/15/2018 06:25:00 0.0447
2018_01_14_S17 01/15/2018 06:30:00 0.0013
2018_01_14_S17 01/15/2018 06:35:00 0.0
2018_01_14_S17 01/15/2018 06:40:00 0.0
2018_01_14_S17 01/15/2018 06:45:00 0.0
2018_01_14_S17 01/15/2018 06:50:00 0.0
2018_01_14_S17 01/15/2018 06:55:00 0.0
2018_01_14_S17 01/15/2018 07:00:00 0.0006
2018_01_14_S17 01/15/2018 07:05:00 0.0
2018_01_14_S17 01/15/2018 07:10:00 0.0
2018_01_14_S17 01/15/2018 07:15:00 0.0
2018_01_14_S17 01/15/2018 07:20:00 0.0178
2018_01_14_S17 01/15/2018 07:25:00 0.1268
2018_01_14_S17 01/15/2018 07:30:00 0.0611
2018_01_14_S17 01/15/2018 07:35:00 0.0
2018_01_14_S17 01/15/2018 07:40:00 0.0
2018_01_14_S17 01/15/2018 07:45:00 0.0
2018_01_14_S17 01/15/2018 07:50:00 0.0
2018_01_14_S17 01/15/2018 07:55:00 0.0
2018_01_14_S17 01/15/2018 08:00:00 0.0

2018_01_14_S18 01/13/2018 08:00:00 0.0
2018_01_14_S18 01/13/2018 08:05:00 0.0
2018_01_14_S18 01/13/2018 08:10:00 0.0
2018_01_14_S18 01/13/2018 08:15:00 0.0
2018_01_14_S18 01/13/2018 08:20:00 0.0
2018_01_14_S18 01/13/2018 08:25:00 0.0
2018_01_14_S18 01/13/2018 08:30:00 0.0
2018_01_14_S18 01/13/2018 08:35:00 0.0
2018_01_14_S18 01/13/2018 08:40:00 0.0
2018_01_14_S18 01/13/2018 08:45:00 0.0
2018_01_14_S18 01/13/2018 08:50:00 0.0
2018_01_14_S18 01/13/2018 08:55:00 0.0
2018_01_14_S18 01/13/2018 09:00:00 0.0
2018_01_14_S18 01/13/2018 09:05:00 0.0
2018_01_14_S18 01/13/2018 09:10:00 0.0
2018_01_14_S18 01/13/2018 09:15:00 0.0
2018_01_14_S18 01/13/2018 09:20:00 0.0
2018_01_14_S18 01/13/2018 09:25:00 0.0
2018_01_14_S18 01/13/2018 09:30:00 0.0
2018_01_14_S18 01/13/2018 09:35:00 0.0
2018_01_14_S18 01/13/2018 09:40:00 0.0
2018_01_14_S18 01/13/2018 09:45:00 0.0
2018_01_14_S18 01/13/2018 09:50:00 0.0
2018_01_14_S18 01/13/2018 09:55:00 0.0
2018_01_14_S18 01/13/2018 10:00:00 0.0
2018_01_14_S18 01/13/2018 10:05:00 0.0
2018_01_14_S18 01/13/2018 10:10:00 0.0
2018_01_14_S18 01/13/2018 10:15:00 0.0
2018_01_14_S18 01/13/2018 10:20:00 0.0
2018_01_14_S18 01/13/2018 10:25:00 0.0
2018_01_14_S18 01/13/2018 10:30:00 0.0
2018_01_14_S18 01/13/2018 10:35:00 0.0
2018_01_14_S18 01/13/2018 10:40:00 0.0
2018_01_14_S18 01/13/2018 10:45:00 0.0
2018_01_14_S18 01/13/2018 10:50:00 0.0
2018_01_14_S18 01/13/2018 10:55:00 0.0
2018_01_14_S18 01/13/2018 11:00:00 0.0
2018_01_14_S18 01/13/2018 11:05:00 0.0
2018_01_14_S18 01/13/2018 11:10:00 0.0
2018_01_14_S18 01/13/2018 11:15:00 0.0
2018_01_14_S18 01/13/2018 11:20:00 0.0
2018_01_14_S18 01/13/2018 11:25:00 0.0
2018_01_14_S18 01/13/2018 11:30:00 0.0
2018_01_14_S18 01/13/2018 11:35:00 0.0
2018_01_14_S18 01/13/2018 11:40:00 0.0
2018_01_14_S18 01/13/2018 11:45:00 0.0
2018_01_14_S18 01/13/2018 11:50:00 0.0
2018_01_14_S18 01/13/2018 11:55:00 0.0
2018_01_14_S18 01/13/2018 12:00:00 0.0
2018_01_14_S18 01/13/2018 12:05:00 0.0
2018_01_14_S18 01/13/2018 12:10:00 0.0
2018_01_14_S18 01/13/2018 12:15:00 0.0
2018_01_14_S18 01/13/2018 12:20:00 0.0
2018_01_14_S18 01/13/2018 12:25:00 0.0
2018_01_14_S18 01/13/2018 12:30:00 0.0
2018_01_14_S18 01/13/2018 12:35:00 0.0
2018_01_14_S18 01/13/2018 12:40:00 0.0
2018_01_14_S18 01/13/2018 12:45:00 0.0
2018_01_14_S18 01/13/2018 12:50:00 0.0
2018_01_14_S18 01/13/2018 12:55:00 0.0
2018_01_14_S18 01/13/2018 13:00:00 0.0
2018_01_14_S18 01/13/2018 13:05:00 0.0
2018_01_14_S18 01/13/2018 13:10:00 0.0
2018_01_14_S18 01/13/2018 13:15:00 0.0
2018_01_14_S18 01/13/2018 13:20:00 0.0
2018_01_14_S18 01/13/2018 13:25:00 0.0
2018_01_14_S18 01/13/2018 13:30:00 0.0
2018_01_14_S18 01/13/2018 13:35:00 0.0
2018_01_14_S18 01/13/2018 13:40:00 0.0
2018_01_14_S18 01/13/2018 13:45:00 0.0
2018_01_14_S18 01/13/2018 13:50:00 0.0
2018_01_14_S18 01/13/2018 13:55:00 0.0
2018_01_14_S18 01/13/2018 14:00:00 0.0
2018_01_14_S18 01/13/2018 14:05:00 0.0
2018_01_14_S18 01/13/2018 14:10:00 0.0
2018_01_14_S18 01/13/2018 14:15:00 0.0
2018_01_14_S18 01/13/2018 14:20:00 0.0
2018_01_14_S18 01/13/2018 14:25:00 0.0
2018_01_14_S18 01/13/2018 14:30:00 0.0
2018_01_14_S18 01/13/2018 14:35:00 0.0
2018_01_14_S18 01/13/2018 14:40:00 0.0
2018_01_14_S18 01/13/2018 14:45:00 0.0
2018_01_14_S18 01/13/2018 14:50:00 0.0
2018_01_14_S18 01/13/2018 14:55:00 0.0
2018_01_14_S18 01/13/2018 15:00:00 0.0
2018_01_14_S18 01/13/2018 15:05:00 0.0
2018_01_14_S18 01/13/2018 15:10:00 0.0
2018_01_14_S18 01/13/2018 15:15:00 0.0
2018_01_14_S18 01/13/2018 15:20:00 0.0
2018_01_14_S18 01/13/2018 15:25:00 0.0
2018_01_14_S18 01/13/2018 15:30:00 0.0
2018_01_14_S18 01/13/2018 15:35:00 0.0
2018_01_14_S18 01/13/2018 15:40:00 0.0
2018_01_14_S18 01/13/2018 15:45:00 0.0
2018_01_14_S18 01/13/2018 15:50:00 0.0
2018_01_14_S18 01/13/2018 15:55:00 0.0
2018_01_14_S18 01/13/2018 16:00:00 0.0
2018_01_14_S18 01/13/2018 16:05:00 0.0
2018_01_14_S18 01/13/2018 16:10:00 0.0
2018_01_14_S18 01/13/2018 16:15:00 0.0
2018_01_14_S18 01/13/2018 16:20:00 0.0
2018_01_14_S18 01/13/2018 16:25:00 0.0
2018_01_14_S18 01/13/2018 16:30:00 0.0
2018_01_14_S18 01/13/2018 16:35:00 0.0
2018_01_14_S18 01/13/2018 16:40:00 0.0
2018_01_14_S18 01/13/2018 16:45:00 0.0
2018_01_14_S18 01/13/2018 16:50:00 0.0
2018_01_14_S18 01/13/2018 16:55:00 0.0
2018_01_14_S18 01/13/2018 17:00:00 0.0
2018_01_14_S18 01/13/2018 17:05:00 0.0
2018_01_14_S18 01/13/2018 17:10:00 0.0
2018_01_14_S18 01/13/2018 17:15:00 0.0
2018_01_14_S18 01/13/2018 17:20:00 0.0
2018_01_14_S18 01/13/2018 17:25:00 0.0
2018_01_14_S18 01/13/2018 17:30:00 0.0
2018_01_14_S18 01/13/2018 17:35:00 0.0
2018_01_14_S18 01/13/2018 17:40:00 0.0
2018_01_14_S18 01/13/2018 17:45:00 0.0
2018_01_14_S18 01/13/2018 17:50:00 0.0
2018_01_14_S18 01/13/2018 17:55:00 0.0
2018_01_14_S18 01/13/2018 18:00:00 0.0
2018_01_14_S18 01/13/2018 18:05:00 0.0
2018_01_14_S18 01/13/2018 18:10:00 0.0
2018_01_14_S18 01/13/2018 18:15:00 0.0
2018_01_14_S18 01/13/2018 18:20:00 0.0
2018_01_14_S18 01/13/2018 18:25:00 0.0
2018_01_14_S18 01/13/2018 18:30:00 0.0
2018_01_14_S18 01/13/2018 18:35:00 0.0
2018_01_14_S18 01/13/2018 18:40:00 0.0
2018_01_14_S18 01/13/2018 18:45:00 0.0
2018_01_14_S18 01/13/2018 18:50:00 0.0
2018_01_14_S18 01/13/2018 18:55:00 0.0
2018_01_14_S18 01/13/2018 19:00:00 0.0
2018_01_14_S18 01/13/2018 19:05:00 0.0
2018_01_14_S18 01/13/2018 19:10:00 0.0
2018_01_14_S18 01/13/2018 19:15:00 0.0
2018_01_14_S18 01/13/2018 19:20:00 0.0
2018_01_14_S18 01/13/2018 19:25:00 0.0
2018_01_14_S18 01/13/2018 19:30:00 0.0
2018_01_14_S18 01/13/2018 19:35:00 0.0
2018_01_14_S18 01/13/2018 19:40:00 0.0
2018_01_14_S18 01/13/2018 19:45:00 0.0
2018_01_14_S18 01/13/2018 19:50:00 0.0
2018_01_14_S18 01/13/2018 19:55:00 0.0
2018_01_14_S18 01/13/2018 20:00:00 0.0
2018_01_14_S18 01/13/2018 20:05:00 0.0
2018_01_14_S18 01/13/2018 20:10:00 0.0
2018_01_14_S18 01/13/2018 20:15:00 0.0
2018_01_14_S18 01/13/2018 20:20:00 0.0
2018_01_14_S18 01/13/2018 20:25:00 0.0
2018_01_14_S18 01/13/2018 20:30:00 0.0
2018_01_14_S18 01/13/2018 20:35:00 0.0
2018_01_14_S18 01/13/2018 20:40:00 0.0
2018_01_14_S18 01/13/2018 20:45:00 0.0
2018_01_14_S18 01/13/2018 20:50:00 0.0
2018_01_14_S18 01/13/2018 20:55:00 0.0
2018_01_14_S18 01/13/2018 21:00:00 0.0
2018_01_14_S18 01/13/2018 21:05:00 0.0
2018_01_14_S18 01/13/2018 21:10:00 0.0
2018_01_14_S18 01/13/2018 21:15:00 0.0
2018_01_14_S18 01/13/2018 21:20:00 0.0
2018_01_14_S18 01/13/2018 21:25:00 0.0
2018_01_14_S18 01/13/2018 21:30:00 0.0
2018_01_14_S18 01/13/2018 21:35:00 0.0
2018_01_14_S18 01/13/2018 21:40:00 0.0
2018_01_14_S18 01/13/2018 21:45:00 0.0
2018_01_14_S18 01/13/2018 21:50:00 0.0
2018_01_14_S18 01/13/2018 21:55:00 0.0
2018_01_14_S18 01/13/2018 22:00:00 0.0
2018_01_14_S18 01/13/2018 22:05:00 0.0
2018_01_14_S18 01/13/2018 22:10:00 0.0
2018_01_14_S18 01/13/2018 22:15:00 0.0
2018_01_14_S18 01/13/2018 22:20:00 0.0
2018_01_14_S18 01/13/2018 22:25:00 0.0
2018_01_14_S18 01/13/2018 22:30:00 0.0
2018_01_14_S18 01/13/2018 22:35:00 0.0
2018_01_14_S18 01/13/2018 22:40:00 0.0
2018_01_14_S18 01/13/2018 22:45:00 0.0
2018_01_14_S18 01/13/2018 22:50:00 0.0
2018_01_14_S18 01/13/2018 22:55:00 0.0
2018_01_14_S18 01/13/2018 23:00:00 0.0
2018_01_14_S18 01/13/2018 23:05:00 0.0
2018_01_14_S18 01/13/2018 23:10:00 0.0
2018_01_14_S18 01/13/2018 23:15:00 0.0
2018_01_14_S18 01/13/2018 23:20:00 0.0
2018_01_14_S18 01/13/2018 23:25:00 0.0
2018_01_14_S18 01/13/2018 23:30:00 0.0
2018_01_14_S18 01/13/2018 23:35:00 0.0
2018_01_14_S18 01/13/2018 23:40:00 0.0
2018_01_14_S18 01/13/2018 23:45:00 0.0
2018_01_14_S18 01/13/2018 23:50:00 0.0
2018_01_14_S18 01/13/2018 23:55:00 0.0
2018_01_14_S18 01/14/2018 00:00:00 0.0
2018_01_14_S18 01/14/2018 00:05:00 0.0
2018_01_14_S18 01/14/2018 00:10:00 0.0
2018_01_14_S18 01/14/2018 00:15:00 0.0
2018_01_14_S18 01/14/2018 00:20:00 0.0
2018_01_14_S18 01/14/2018 00:25:00 0.0
2018_01_14_S18 01/14/2018 00:30:00 0.0
2018_01_14_S18 01/14/2018 00:35:00 0.0
2018_01_14_S18 01/14/2018 00:40:00 0.0
2018_01_14_S18 01/14/2018 00:45:00 0.0
2018_01_14_S18 01/14/2018 00:50:00 0.0
2018_01_14_S18 01/14/2018 00:55:00 0.0
2018_01_14_S18 01/14/2018 01:00:00 0.0
2018_01_14_S18 01/14/2018 01:05:00 0.0
2018_01_14_S18 01/14/2018 01:10:00 0.0
2018_01_14_S18 01/14/2018 01:15:00 0.0
2018_01_14_S18 01/14/2018 01:20:00 0.0
2018_01_14_S18 01/14/2018 01:25:00 0.0
2018_01_14_S18 01/14/2018 01:30:00 0.0
2018_01_14_S18 01/14/2018 01:35:00 0.0
2018_01_14_S18 01/14/2018 01:40:00 0.0
2018_01_14_S18 01/14/2018 01:45:00 0.0
2018_01_14_S18 01/14/2018 01:50:00 0.0
2018_01_14_S18 01/14/2018 01:55:00 0.0
2018_01_14_S18 01/14/2018 02:00:00 0.0
2018_01_14_S18 01/14/2018 02:05:00 0.0
2018_01_14_S18 01/14/2018 02:10:00 0.0
2018_01_14_S18 01/14/2018 02:15:00 0.0
2018_01_14_S18 01/14/2018 02:20:00 0.0
2018_01_14_S18 01/14/2018 02:25:00 0.0
2018_01_14_S18 01/14/2018 02:30:00 0.0
2018_01_14_S18 01/14/2018 02:35:00 0.0
2018_01_14_S18 01/14/2018 02:40:00 0.0
2018_01_14_S18 01/14/2018 02:45:00 0.0
2018_01_14_S18 01/14/2018 02:50:00 0.0
2018_01_14_S18 01/14/2018 02:55:00 0.0
2018_01_14_S18 01/14/2018 03:00:00 0.0039
2018_01_14_S18 01/14/2018 03:05:00 0.0204
2018_01_14_S18 01/14/2018 03:10:00 0.0113
2018_01_14_S18 01/14/2018 03:15:00 0.0004
2018_01_14_S18 01/14/2018 03:20:00 0.0
2018_01_14_S18 01/14/2018 03:25:00 0.0
2018_01_14_S18 01/14/2018 03:30:00 0.0
2018_01_14_S18 01/14/2018 03:35:00 0.0
2018_01_14_S18 01/14/2018 03:40:00 0.0
2018_01_14_S18 01/14/2018 03:45:00 0.0
2018_01_14_S18 01/14/2018 03:50:00 0.0
2018_01_14_S18 01/14/2018 03:55:00 0.0
2018_01_14_S18 01/14/2018 04:00:00 0.0
2018_01_14_S18 01/14/2018 04:05:00 0.0
2018_01_14_S18 01/14/2018 04:10:00 0.0
2018_01_14_S18 01/14/2018 04:15:00 0.0
2018_01_14_S18 01/14/2018 04:20:00 0.0
2018_01_14_S18 01/14/2018 04:25:00 0.0
2018_01_14_S18 01/14/2018 04:30:00 0.0
2018_01_14_S18 01/14/2018 04:35:00 0.0
2018_01_14_S18 01/14/2018 04:40:00 0.0
2018_01_14_S18 01/14/2018 04:45:00 0.0
2018_01_14_S18 01/14/2018 04:50:00 0.0
2018_01_14_S18 01/14/2018 04:55:00 0.0
2018_01_14_S18 01/14/2018 05:00:00 0.0
2018_01_14_S18 01/14/2018 05:05:00 0.0044
2018_01_14_S18 01/14/2018 05:10:00 0.0
2018_01_14_S18 01/14/2018 05:15:00 0.0
2018_01_14_S18 01/14/2018 05:20:00 0.0
2018_01_14_S18 01/14/2018 05:25:00 0.0
2018_01_14_S18 01/14/2018 05:30:00 0.0
2018_01_14_S18 01/14/2018 05:35:00 0.0
2018_01_14_S18 01/14/2018 05:40:00 0.0
2018_01_14_S18 01/14/2018 05:45:00 0.0
2018_01_14_S18 01/14/2018 05:50:00 0.0
2018_01_14_S18 01/14/2018 05:55:00 0.0131
2018_01_14_S18 01/14/2018 06:00:00 1.4474
2018_01_14_S18 01/14/2018 06:05:00 4.762
2018_01_14_S18 01/14/2018 06:10:00 0.1131
2018_01_14_S18 01/14/2018 06:15:00 0.0001
2018_01_14_S18 01/14/2018 06:20:00 0.0655
2018_01_14_S18 01/14/2018 06:25:00 0.9477
2018_01_14_S18 01/14/2018 06:30:00 0.0009
2018_01_14_S18 01/14/2018 06:35:00 0.0009
2018_01_14_S18 01/14/2018 06:40:00 0.0
2018_01_14_S18 01/14/2018 06:45:00 0.0
2018_01_14_S18 01/14/2018 06:50:00 0.0
2018_01_14_S18 01/14/2018 06:55:00 0.0
2018_01_14_S18 01/14/2018 07:00:00 0.0
2018_01_14_S18 01/14/2018 07:05:00 0.0
2018_01_14_S18 01/14/2018 07:10:00 0.0
2018_01_14_S18 01/14/2018 07:15:00 0.0
2018_01_14_S18 01/14/2018 07:20:00 0.0
2018_01_14_S18 01/14/2018 07:25:00 0.0
2018_01_14_S18 01/14/2018 07:30:00 0.0
2018_01_14_S18 01/14/2018 07:35:00 0.0
2018_01_14_S18 01/14/2018 07:40:00 0.0
2018_01_14_S18 01/14/2018 07:45:00 0.0
2018_01_14_S18 01/14/2018 07:50:00 0.0231
2018_01_14_S18 01/14/2018 07:55:00 0.0069
2018_01_14_S18 01/14/2018 08:00:00 0.0
2018_01_14_S18 01/14/2018 08:05:00 0.0
2018_01_14_S18 01/14/2018 08:10:00 0.0
2018_01_14_S18 01/14/2018 08:15:00 0.0
2018_01_14_S18 01/14/2018 08:20:00 0.0
2018_01_14_S18 01/14/2018 08:25:00 0.0011
2018_01_14_S18 01/14/2018 08:30:00 0.0071
2018_01_14_S18 01/14/2018 08:35:00 0.0761
2018_01_14_S18 01/14/2018 08:40:00 0.0112
2018_01_14_S18 01/14/2018 08:45:00 0.0
2018_01_14_S18 01/14/2018 08:50:00 0.0
2018_01_14_S18 01/14/2018 08:55:00 0.0
2018_01_14_S18 01/14/2018 09:00:00 0.0
2018_01_14_S18 01/14/2018 09:05:00 0.0
2018_01_14_S18 01/14/2018 09:10:00 0.0
2018_01_14_S18 01/14/2018 09:15:00 0.0
2018_01_14_S18 01/14/2018 09:20:00 0.0
2018_01_14_S18 01/14/2018 09:25:00 0.0
2018_01_14_S18 01/14/2018 09:30:00 0.0
2018_01_14_S18 01/14/2018 09:35:00 0.0
2018_01_14_S18 01/14/2018 09:40:00 0.0
2018_01_14_S18 01/14/2018 09:45:00 0.0
2018_01_14_S18 01/14/2018 09:50:00 0.0
2018_01_14_S18 01/14/2018 09:55:00 0.0
2018_01_14_S18 01/14/2018 10:00:00 0.0
2018_01_14_S18 01/14/2018 10:05:00 0.0
2018_01_14_S18 01/14/2018 10:10:00 0.0
2018_01_14_S18 01/14/2018 10:15:00 0.0
2018_01_14_S18 01/14/2018 10:20:00 0.0
2018_01_14_S18 01/14/2018 10:25:00 0.0
2018_01_14_S18 01/14/2018 10:30:00 0.0
2018_01_14_S18 01/14/2018 10:35:00 0.0
2018_01_14_S18 01/14/2018 10:40:00 0.0
2018_01_14_S18 01/14/2018 10:45:00 0.0
2018_01_14_S18 01/14/2018 10:50:00 0.0
2018_01_14_S18 01/14/2018 10:55:00 0.0
2018_01_14_S18 01/14/2018 11:00:00 0.0
2018_01_14_S18 01/14/2018 11:05:00 0.0
2018_01_14_S18 01/14/2018 11:10:00 0.0
2018_01_14_S18 01/14/2018 11:15:00 0.0
2018_01_14_S18 01/14/2018 11:20:00 0.0
2018_01_14_S18 01/14/2018 11:25:00 0.0
2018_01_14_S18 01/14/2018 11:30:00 0.0
2018_01_14_S18 01/14/2018 11:35:00 0.0
2018_01_14_S18 01/14/2018 11:40:00 0.0
2018_01_14_S18 01/14/2018 11:45:00 0.0
2018_01_14_S18 01/14/2018 11:50:00 0.0
2018_01_14_S18 01/14/2018 11:55:00 0.0
2018_01_14_S18 01/14/2018 12:00:00 0.0
2018_01_14_S18 01/14/2018 12:05:00 0.0
2018_01_14_S18 01/14/2018 12:10:00 0.0
2018_01_14_S18 01/14/2018 12:15:00 0.0
2018_01_14_S18 01/14/2018 12:20:00 0.0
2018_01_14_S18 01/14/2018 12:25:00 0.0
2018_01_14_S18 01/14/2018 12:30:00 0.0
2018_01_14_S18 01/14/2018 12:35:00 0.0
2018_01_14_S18 01/14/2018 12:40:00 0.0
2018_01_14_S18 01/14/2018 12:45:00 0.0
2018_01_14_S18 01/14/2018 12:50:00 0.0
2018_01_14_S18 01/14/2018 12:55:00 0.0
2018_01_14_S18 01/14/2018 13:00:00 0.0
2018_01_14_S18 01/14/2018 13:05:00 0.0
2018_01_14_S18 01/14/2018 13:10:00 0.0
2018_01_14_S18 01/14/2018 13:15:00 0.0
2018_01_14_S18 01/14/2018 13:20:00 0.0
2018_01_14_S18 01/14/2018 13:25:00 0.0
2018_01_14_S18 01/14/2018 13:30:00 0.0
2018_01_14_S18 01/14/2018 13:35:00 0.0
2018_01_14_S18 01/14/2018 13:40:00 0.0
2018_01_14_S18 01/14/2018 13:45:00 0.0
2018_01_14_S18 01/14/2018 13:50:00 0.0
2018_01_14_S18 01/14/2018 13:55:00 0.0
2018_01_14_S18 01/14/2018 14:00:00 0.0
2018_01_14_S18 01/14/2018 14:05:00 0.0
2018_01_14_S18 01/14/2018 14:10:00 0.0
2018_01_14_S18 01/14/2018 14:15:00 0.0
2018_01_14_S18 01/14/2018 14:20:00 0.0
2018_01_14_S18 01/14/2018 14:25:00 0.0
2018_01_14_S18 01/14/2018 14:30:00 0.0
2018_01_14_S18 01/14/2018 14:35:00 0.0
2018_01_14_S18 01/14/2018 14:40:00 0.0
2018_01_14_S18 01/14/2018 14:45:00 0.0
2018_01_14_S18 01/14/2018 14:50:00 0.0
2018_01_14_S18 01/14/2018 14:55:00 0.0
2018_01_14_S18 01/14/2018 15:00:00 0.0
2018_01_14_S18 01/14/2018 15:05:00 0.0
2018_01_14_S18 01/14/2018 15:10:00 0.0
2018_01_14_S18 01/14/2018 15:15:00 0.0
2018_01_14_S18 01/14/2018 15:20:00 0.0
2018_01_14_S18 01/14/2018 15:25:00 0.0
2018_01_14_S18 01/14/2018 15:30:00 0.0
2018_01_14_S18 01/14/2018 15:35:00 0.0
2018_01_14_S18 01/14/2018 15:40:00 0.0
2018_01_14_S18 01/14/2018 15:45:00 0.0
2018_01_14_S18 01/14/2018 15:50:00 0.0
2018_01_14_S18 01/14/2018 15:55:00 0.0
2018_01_14_S18 01/14/2018 16:00:00 0.0
2018_01_14_S18 01/14/2018 16:05:00 0.0
2018_01_14_S18 01/14/2018 16:10:00 0.0
2018_01_14_S18 01/14/2018 16:15:00 0.0
2018_01_14_S18 01/14/2018 16:20:00 0.0
2018_01_14_S18 01/14/2018 16:25:00 0.0
2018_01_14_S18 01/14/2018 16:30:00 0.0
2018_01_14_S18 01/14/2018 16:35:00 0.0
2018_01_14_S18 01/14/2018 16:40:00 0.0105
2018_01_14_S18 01/14/2018 16:45:00 0.0212
2018_01_14_S18 01/14/2018 16:50:00 0.1406
2018_01_14_S18 01/14/2018 16:55:00 0.2057
2018_01_14_S18 01/14/2018 17:00:00 0.0071
2018_01_14_S18 01/14/2018 17:05:00 0.0126
2018_01_14_S18 01/14/2018 17:10:00 0.3545
2018_01_14_S18 01/14/2018 17:15:00 0.0473
2018_01_14_S18 01/14/2018 17:20:00 0.0
2018_01_14_S18 01/14/2018 17:25:00 0.0
2018_01_14_S18 01/14/2018 17:30:00 0.0
2018_01_14_S18 01/14/2018 17:35:00 0.1358
2018_01_14_S18 01/14/2018 17:40:00 0.0538
2018_01_14_S18 01/14/2018 17:45:00 0.5023
2018_01_14_S18 01/14/2018 17:50:00 0.4714
2018_01_14_S18 01/14/2018 17:55:00 0.1423
2018_01_14_S18 01/14/2018 18:00:00 0.3689
2018_01_14_S18 01/14/2018 18:05:00 0.2124
2018_01_14_S18 01/14/2018 18:10:00 0.3789
2018_01_14_S18 01/14/2018 18:15:00 0.3207
2018_01_14_S18 01/14/2018 18:20:00 1.8916
2018_01_14_S18 01/14/2018 18:25:00 4.085
2018_01_14_S18 01/14/2018 18:30:00 0.0873
2018_01_14_S18 01/14/2018 18:35:00 0.0073
2018_01_14_S18 01/14/2018 18:40:00 0.0
2018_01_14_S18 01/14/2018 18:45:00 0.3432
2018_01_14_S18 01/14/2018 18:50:00 1.5948
2018_01_14_S18 01/14/2018 18:55:00 0.0137
2018_01_14_S18 01/14/2018 19:00:00 1.6603
2018_01_14_S18 01/14/2018 19:05:00 0.0
2018_01_14_S18 01/14/2018 19:10:00 0.0
2018_01_14_S18 01/14/2018 19:15:00 0.0
2018_01_14_S18 01/14/2018 19:20:00 0.0
2018_01_14_S18 01/14/2018 19:25:00 0.0
2018_01_14_S18 01/14/2018 19:30:00 0.0
2018_01_14_S18 01/14/2018 19:35:00 0.0
2018_01_14_S18 01/14/2018 19:40:00 0.0
2018_01_14_S18 01/14/2018 19:45:00 0.0
2018_01_14_S18 01/14/2018 19:50:00 0.0
2018_01_14_S18 01/14/2018 19:55:00 0.0
2018_01_14_S18 01/14/2018 20:00:00 0.0
2018_01_14_S18 01/14/2018 20:05:00 0.0
2018_01_14_S18 01/14/2018 20:10:00 0.0
2018_01_14_S18 01/14/2018 20:15:00 0.0
2018_01_14_S18 01/14/2018 20:20:00 0.0
2018_01_14_S18 01/14/2018 20:25:00 0.0
2018_01_14_S18 01/14/2018 20:30:00 0.0
2018_01_14_S18 01/14/2018 20:35:00 0.0
2018_01_14_S18 01/14/2018 20:40:00 0.0
2018_01_14_S18 01/14/2018 20:45:00 0.0
2018_01_14_S18 01/14/2018 20:50:00 0.0
2018_01_14_S18 01/14/2018 20:55:00 0.0
2018_01_14_S18 01/14/2018 21:00:00 0.0
2018_01_14_S18 01/14/2018 21:05:00 0.0
2018_01_14_S18 01/14/2018 21:10:00 0.0
2018_01_14_S18 01/14/2018 21:15:00 0.0
2018_01_14_S18 01/14/2018 21:20:00 0.0
2018_01_14_S18 01/14/2018 21:25:00 0.0
2018_01_14_S18 01/14/2018 21:30:00 0.0
2018_01_14_S18 01/14/2018 21:35:00 0.0
2018_01_14_S18 01/14/2018 21:40:00 0.0
2018_01_14_S18 01/14/2018 21:45:00 0.0
2018_01_14_S18 01/14/2018 21:50:00 0.0
2018_01_14_S18 01/14/2018 21:55:00 0.0
2018_01_14_S18 01/14/2018 22:00:00 0.0
2018_01_14_S18 01/14/2018 22:05:00 0.0
2018_01_14_S18 01/14/2018 22:10:00 0.0
2018_01_14_S18 01/14/2018 22:15:00 0.0
2018_01_14_S18 01/14/2018 22:20:00 0.0
2018_01_14_S18 01/14/2018 22:25:00 0.0
2018_01_14_S18 01/14/2018 22:30:00 0.0
2018_01_14_S18 01/14/2018 22:35:00 0.0
2018_01_14_S18 01/14/2018 22:40:00 0.0046
2018_01_14_S18 01/14/2018 22:45:00 0.0
2018_01_14_S18 01/14/2018 22:50:00 0.0
2018_01_14_S18 01/14/2018 22:55:00 0.0266
2018_01_14_S18 01/14/2018 23:00:00 0.0221
2018_01_14_S18 01/14/2018 23:05:00 0.0
2018_01_14_S18 01/14/2018 23:10:00 0.0189
2018_01_14_S18 01/14/2018 23:15:00 0.0057
2018_01_14_S18 01/14/2018 23:20:00 0.0054
2018_01_14_S18 01/14/2018 23:25:00 0.0044
2018_01_14_S18 01/14/2018 23:30:00 0.0
2018_01_14_S18 01/14/2018 23:35:00 0.0
2018_01_14_S18 01/14/2018 23:40:00 0.0
2018_01_14_S18 01/14/2018 23:45:00 0.0
2018_01_14_S18 01/14/2018 23:50:00 0.0
2018_01_14_S18 01/14/2018 23:55:00 0.0
2018_01_14_S18 01/15/2018 00:00:00 0.0
2018_01_14_S18 01/15/2018 00:05:00 0.0
2018_01_14_S18 01/15/2018 00:10:00 0.0
2018_01_14_S18 01/15/2018 00:15:00 0.0
2018_01_14_S18 01/15/2018 00:20:00 0.0
2018_01_14_S18 01/15/2018 00:25:00 0.0
2018_01_14_S18 01/15/2018 00:30:00 0.0
2018_01_14_S18 01/15/2018 00:35:00 0.0
2018_01_14_S18 01/15/2018 00:40:00 0.0
2018_01_14_S18 01/15/2018 00:45:00 0.0
2018_01_14_S18 01/15/2018 00:50:00 0.0
2018_01_14_S18 01/15/2018 00:55:00 0.0
2018_01_14_S18 01/15/2018 01:00:00 0.0
2018_01_14_S18 01/15/2018 01:05:00 0.0
2018_01_14_S18 01/15/2018 01:10:00 0.0
2018_01_14_S18 01/15/2018 01:15:00 0.0
2018_01_14_S18 01/15/2018 01:20:00 0.0
2018_01_14_S18 01/15/2018 01:25:00 0.0
2018_01_14_S18 01/15/2018 01:30:00 0.0
2018_01_14_S18 01/15/2018 01:35:00 0.0
2018_01_14_S18 01/15/2018 01:40:00 0.0
2018_01_14_S18 01/15/2018 01:45:00 0.0
2018_01_14_S18 01/15/2018 01:50:00 0.0
2018_01_14_S18 01/15/2018 01:55:00 0.0
2018_01_14_S18 01/15/2018 02:00:00 0.0
2018_01_14_S18 01/15/2018 02:05:00 0.0
2018_01_14_S18 01/15/2018 02:10:00 0.0
2018_01_14_S18 01/15/2018 02:15:00 0.0
2018_01_14_S18 01/15/2018 02:20:00 0.0
2018_01_14_S18 01/15/2018 02:25:00 0.0292
2018_01_14_S18 01/15/2018 02:30:00 0.0116
2018_01_14_S18 01/15/2018 02:35:00 0.0006
2018_01_14_S18 01/15/2018 02:40:00 0.0914
2018_01_14_S18 01/15/2018 02:45:00 0.4199
2018_01_14_S18 01/15/2018 02:50:00 0.0569
2018_01_14_S18 01/15/2018 02:55:00 0.0006
2018_01_14_S18 01/15/2018 03:00:00 0.0048
2018_01_14_S18 01/15/2018 03:05:00 0.0034
2018_01_14_S18 01/15/2018 03:10:00 0.0
2018_01_14_S18 01/15/2018 03:15:00 0.0
2018_01_14_S18 01/15/2018 03:20:00 0.0
2018_01_14_S18 01/15/2018 03:25:00 0.0
2018_01_14_S18 01/15/2018 03:30:00 0.0
2018_01_14_S18 01/15/2018 03:35:00 0.0
2018_01_14_S18 01/15/2018 03:40:00 0.0
2018_01_14_S18 01/15/2018 03:45:00 0.0
2018_01_14_S18 01/15/2018 03:50:00 0.0
2018_01_14_S18 01/15/2018 03:55:00 0.0
2018_01_14_S18 01/15/2018 04:00:00 0.0
2018_01_14_S18 01/15/2018 04:05:00 0.0
2018_01_14_S18 01/15/2018 04:10:00 0.0
2018_01_14_S18 01/15/2018 04:15:00 0.0
2018_01_14_S18 01/15/2018 04:20:00 0.0
2018_01_14_S18 01/15/2018 04:25:00 0.0
2018_01_14_S18 01/15/2018 04:30:00 0.0
2018_01_14_S18 01/15/2018 04:35:00 0.0
2018_01_14_S18 01/15/2018 04:40:00 0.0
2018_01_14_S18 01/15/2018 04:45:00 0.0
2018_01_14_S18 01/15/2018 04:50:00 0.0
2018_01_14_S18 01/15/2018 04:55:00 0.0
2018_01_14_S18 01/15/2018 05:00:00 0.0
2018_01_14_S18 01/15/2018 05:05:00 0.0
2018_01_14_S18 01/15/2018 05:10:00 0.0
2018_01_14_S18 01/15/2018 05:15:00 0.0
2018_01_14_S18 01/15/2018 05:20:00 0.0
2018_01_14_S18 01/15/2018 05:25:00 0.0
2018_01_14_S18 01/15/2018 05:30:00 0.0
2018_01_14_S18 01/15/2018 05:35:00 0.0
2018_01_14_S18 01/15/2018 05:40:00 0.0
2018_01_14_S18 01/15/2018 05:45:00 0.0
2018_01_14_S18 01/15/2018 05:50:00 0.0
2018_01_14_S18 01/15/2018 05:55:00 0.0
2018_01_14_S18 01/15/2018 06:00:00 0.0
2018_01_14_S18 01/15/2018 06:05:00 0.0
2018_01_14_S18 01/15/2018 06:10:00 0.0
2018_01_14_S18 01/15/2018 06:15:00 0.0
2018_01_14_S18 01/15/2018 06:20:00 0.0168
2018_01_14_S18 01/15/2018 06:25:00 0.0007
2018_01_14_S18 01/15/2018 06:30:00 0.0
2018_01_14_S18 01/15/2018 06:35:00 0.0
2018_01_14_S18 01/15/2018 06:40:00 0.0
2018_01_14_S18 01/15/2018 06:45:00 0.0
2018_01_14_S18 01/15/2018 06:50:00 0.0
2018_01_14_S18 01/15/2018 06:55:00 0.0
2018_01_14_S18 01/15/2018 07:00:00 0.0
2018_01_14_S18 01/15/2018 07:05:00 0.0
2018_01_14_S18 01/15/2018 07:10:00 0.0
2018_01_14_S18 01/15/2018 07:15:00 0.0
2018_01_14_S18 01/15/2018 07:20:00 0.0095
2018_01_14_S18 01/15/2018 07:25:00 0.0558
2018_01_14_S18 01/15/2018 07:30:00 0.025
2018_01_14_S18 01/15/2018 07:35:00 0.0
2018_01_14_S18 01/15/2018 07:40:00 0.0
2018_01_14_S18 01/15/2018 07:45:00 0.0
2018_01_14_S18 01/15/2018 07:50:00 0.0
2018_01_14_S18 01/15/2018 07:55:00 0.0
2018_01_14_S18 01/15/2018 08:00:00 0.0

2018_01_14_S19 01/13/2018 08:00:00 0.0
2018_01_14_S19 01/13/2018 08:05:00 0.0
2018_01_14_S19 01/13/2018 08:10:00 0.0
2018_01_14_S19 01/13/2018 08:15:00 0.0
2018_01_14_S19 01/13/2018 08:20:00 0.0
2018_01_14_S19 01/13/2018 08:25:00 0.0
2018_01_14_S19 01/13/2018 08:30:00 0.0
2018_01_14_S19 01/13/2018 08:35:00 0.0
2018_01_14_S19 01/13/2018 08:40:00 0.0
2018_01_14_S19 01/13/2018 08:45:00 0.0
2018_01_14_S19 01/13/2018 08:50:00 0.0
2018_01_14_S19 01/13/2018 08:55:00 0.0
2018_01_14_S19 01/13/2018 09:00:00 0.0
2018_01_14_S19 01/13/2018 09:05:00 0.0
2018_01_14_S19 01/13/2018 09:10:00 0.0
2018_01_14_S19 01/13/2018 09:15:00 0.0
2018_01_14_S19 01/13/2018 09:20:00 0.0
2018_01_14_S19 01/13/2018 09:25:00 0.0
2018_01_14_S19 01/13/2018 09:30:00 0.0
2018_01_14_S19 01/13/2018 09:35:00 0.0
2018_01_14_S19 01/13/2018 09:40:00 0.0
2018_01_14_S19 01/13/2018 09:45:00 0.0
2018_01_14_S19 01/13/2018 09:50:00 0.0
2018_01_14_S19 01/13/2018 09:55:00 0.0
2018_01_14_S19 01/13/2018 10:00:00 0.0
2018_01_14_S19 01/13/2018 10:05:00 0.0
2018_01_14_S19 01/13/2018 10:10:00 0.0
2018_01_14_S19 01/13/2018 10:15:00 0.0
2018_01_14_S19 01/13/2018 10:20:00 0.0
2018_01_14_S19 01/13/2018 10:25:00 0.0
2018_01_14_S19 01/13/2018 10:30:00 0.0
2018_01_14_S19 01/13/2018 10:35:00 0.0
2018_01_14_S19 01/13/2018 10:40:00 0.0
2018_01_14_S19 01/13/2018 10:45:00 0.0
2018_01_14_S19 01/13/2018 10:50:00 0.0
2018_01_14_S19 01/13/2018 10:55:00 0.0
2018_01_14_S19 01/13/2018 11:00:00 0.0
2018_01_14_S19 01/13/2018 11:05:00 0.0
2018_01_14_S19 01/13/2018 11:10:00 0.0
2018_01_14_S19 01/13/2018 11:15:00 0.0
2018_01_14_S19 01/13/2018 11:20:00 0.0
2018_01_14_S19 01/13/2018 11:25:00 0.0
2018_01_14_S19 01/13/2018 11:30:00 0.0
2018_01_14_S19 01/13/2018 11:35:00 0.0
2018_01_14_S19 01/13/2018 11:40:00 0.0
2018_01_14_S19 01/13/2018 11:45:00 0.0
2018_01_14_S19 01/13/2018 11:50:00 0.0
2018_01_14_S19 01/13/2018 11:55:00 0.0
2018_01_14_S19 01/13/2018 12:00:00 0.0
2018_01_14_S19 01/13/2018 12:05:00 0.0
2018_01_14_S19 01/13/2018 12:10:00 0.0
2018_01_14_S19 01/13/2018 12:15:00 0.0
2018_01_14_S19 01/13/2018 12:20:00 0.0
2018_01_14_S19 01/13/2018 12:25:00 0.0
2018_01_14_S19 01/13/2018 12:30:00 0.0
2018_01_14_S19 01/13/2018 12:35:00 0.0
2018_01_14_S19 01/13/2018 12:40:00 0.0
2018_01_14_S19 01/13/2018 12:45:00 0.0
2018_01_14_S19 01/13/2018 12:50:00 0.0
2018_01_14_S19 01/13/2018 12:55:00 0.0
2018_01_14_S19 01/13/2018 13:00:00 0.0
2018_01_14_S19 01/13/2018 13:05:00 0.0
2018_01_14_S19 01/13/2018 13:10:00 0.0
2018_01_14_S19 01/13/2018 13:15:00 0.0
2018_01_14_S19 01/13/2018 13:20:00 0.0
2018_01_14_S19 01/13/2018 13:25:00 0.0
2018_01_14_S19 01/13/2018 13:30:00 0.0
2018_01_14_S19 01/13/2018 13:35:00 0.0
2018_01_14_S19 01/13/2018 13:40:00 0.0
2018_01_14_S19 01/13/2018 13:45:00 0.0
2018_01_14_S19 01/13/2018 13:50:00 0.0
2018_01_14_S19 01/13/2018 13:55:00 0.0
2018_01_14_S19 01/13/2018 14:00:00 0.0
2018_01_14_S19 01/13/2018 14:05:00 0.0
2018_01_14_S19 01/13/2018 14:10:00 0.0
2018_01_14_S19 01/13/2018 14:15:00 0.0
2018_01_14_S19 01/13/2018 14:20:00 0.0
2018_01_14_S19 01/13/2018 14:25:00 0.0
2018_01_14_S19 01/13/2018 14:30:00 0.0
2018_01_14_S19 01/13/2018 14:35:00 0.0
2018_01_14_S19 01/13/2018 14:40:00 0.0
2018_01_14_S19 01/13/2018 14:45:00 0.0
2018_01_14_S19 01/13/2018 14:50:00 0.0
2018_01_14_S19 01/13/2018 14:55:00 0.0
2018_01_14_S19 01/13/2018 15:00:00 0.0
2018_01_14_S19 01/13/2018 15:05:00 0.0
2018_01_14_S19 01/13/2018 15:10:00 0.0
2018_01_14_S19 01/13/2018 15:15:00 0.0
2018_01_14_S19 01/13/2018 15:20:00 0.0
2018_01_14_S19 01/13/2018 15:25:00 0.0
2018_01_14_S19 01/13/2018 15:30:00 0.0
2018_01_14_S19 01/13/2018 15:35:00 0.0
2018_01_14_S19 01/13/2018 15:40:00 0.0
2018_01_14_S19 01/13/2018 15:45:00 0.0
2018_01_14_S19 01/13/2018 15:50:00 0.0
2018_01_14_S19 01/13/2018 15:55:00 0.0
2018_01_14_S19 01/13/2018 16:00:00 0.0
2018_01_14_S19 01/13/2018 16:05:00 0.0
2018_01_14_S19 01/13/2018 16:10:00 0.0
2018_01_14_S19 01/13/2018 16:15:00 0.0
2018_01_14_S19 01/13/2018 16:20:00 0.0
2018_01_14_S19 01/13/2018 16:25:00 0.0
2018_01_14_S19 01/13/2018 16:30:00 0.0
2018_01_14_S19 01/13/2018 16:35:00 0.0
2018_01_14_S19 01/13/2018 16:40:00 0.0
2018_01_14_S19 01/13/2018 16:45:00 0.0
2018_01_14_S19 01/13/2018 16:50:00 0.0
2018_01_14_S19 01/13/2018 16:55:00 0.0
2018_01_14_S19 01/13/2018 17:00:00 0.0
2018_01_14_S19 01/13/2018 17:05:00 0.0
2018_01_14_S19 01/13/2018 17:10:00 0.0
2018_01_14_S19 01/13/2018 17:15:00 0.0
2018_01_14_S19 01/13/2018 17:20:00 0.0
2018_01_14_S19 01/13/2018 17:25:00 0.0
2018_01_14_S19 01/13/2018 17:30:00 0.0
2018_01_14_S19 01/13/2018 17:35:00 0.0
2018_01_14_S19 01/13/2018 17:40:00 0.0
2018_01_14_S19 01/13/2018 17:45:00 0.0
2018_01_14_S19 01/13/2018 17:50:00 0.0
2018_01_14_S19 01/13/2018 17:55:00 0.0
2018_01_14_S19 01/13/2018 18:00:00 0.0
2018_01_14_S19 01/13/2018 18:05:00 0.0
2018_01_14_S19 01/13/2018 18:10:00 0.0
2018_01_14_S19 01/13/2018 18:15:00 0.0
2018_01_14_S19 01/13/2018 18:20:00 0.0
2018_01_14_S19 01/13/2018 18:25:00 0.0
2018_01_14_S19 01/13/2018 18:30:00 0.0
2018_01_14_S19 01/13/2018 18:35:00 0.0
2018_01_14_S19 01/13/2018 18:40:00 0.0
2018_01_14_S19 01/13/2018 18:45:00 0.0
2018_01_14_S19 01/13/2018 18:50:00 0.0
2018_01_14_S19 01/13/2018 18:55:00 0.0
2018_01_14_S19 01/13/2018 19:00:00 0.0
2018_01_14_S19 01/13/2018 19:05:00 0.0
2018_01_14_S19 01/13/2018 19:10:00 0.0
2018_01_14_S19 01/13/2018 19:15:00 0.0
2018_01_14_S19 01/13/2018 19:20:00 0.0
2018_01_14_S19 01/13/2018 19:25:00 0.0
2018_01_14_S19 01/13/2018 19:30:00 0.0
2018_01_14_S19 01/13/2018 19:35:00 0.0
2018_01_14_S19 01/13/2018 19:40:00 0.0
2018_01_14_S19 01/13/2018 19:45:00 0.0
2018_01_14_S19 01/13/2018 19:50:00 0.0
2018_01_14_S19 01/13/2018 19:55:00 0.0
2018_01_14_S19 01/13/2018 20:00:00 0.0
2018_01_14_S19 01/13/2018 20:05:00 0.0
2018_01_14_S19 01/13/2018 20:10:00 0.0
2018_01_14_S19 01/13/2018 20:15:00 0.0
2018_01_14_S19 01/13/2018 20:20:00 0.0
2018_01_14_S19 01/13/2018 20:25:00 0.0
2018_01_14_S19 01/13/2018 20:30:00 0.0
2018_01_14_S19 01/13/2018 20:35:00 0.0
2018_01_14_S19 01/13/2018 20:40:00 0.0
2018_01_14_S19 01/13/2018 20:45:00 0.0
2018_01_14_S19 01/13/2018 20:50:00 0.0
2018_01_14_S19 01/13/2018 20:55:00 0.0
2018_01_14_S19 01/13/2018 21:00:00 0.0
2018_01_14_S19 01/13/2018 21:05:00 0.0
2018_01_14_S19 01/13/2018 21:10:00 0.0
2018_01_14_S19 01/13/2018 21:15:00 0.0
2018_01_14_S19 01/13/2018 21:20:00 0.0
2018_01_14_S19 01/13/2018 21:25:00 0.0
2018_01_14_S19 01/13/2018 21:30:00 0.0
2018_01_14_S19 01/13/2018 21:35:00 0.0
2018_01_14_S19 01/13/2018 21:40:00 0.0
2018_01_14_S19 01/13/2018 21:45:00 0.0
2018_01_14_S19 01/13/2018 21:50:00 0.0
2018_01_14_S19 01/13/2018 21:55:00 0.0
2018_01_14_S19 01/13/2018 22:00:00 0.0
2018_01_14_S19 01/13/2018 22:05:00 0.0
2018_01_14_S19 01/13/2018 22:10:00 0.0
2018_01_14_S19 01/13/2018 22:15:00 0.0
2018_01_14_S19 01/13/2018 22:20:00 0.0
2018_01_14_S19 01/13/2018 22:25:00 0.0
2018_01_14_S19 01/13/2018 22:30:00 0.0
2018_01_14_S19 01/13/2018 22:35:00 0.0
2018_01_14_S19 01/13/2018 22:40:00 0.0
2018_01_14_S19 01/13/2018 22:45:00 0.0
2018_01_14_S19 01/13/2018 22:50:00 0.0
2018_01_14_S19 01/13/2018 22:55:00 0.0
2018_01_14_S19 01/13/2018 23:00:00 0.0
2018_01_14_S19 01/13/2018 23:05:00 0.0
2018_01_14_S19 01/13/2018 23:10:00 0.0
2018_01_14_S19 01/13/2018 23:15:00 0.0
2018_01_14_S19 01/13/2018 23:20:00 0.0
2018_01_14_S19 01/13/2018 23:25:00 0.0
2018_01_14_S19 01/13/2018 23:30:00 0.0
2018_01_14_S19 01/13/2018 23:35:00 0.0
2018_01_14_S19 01/13/2018 23:40:00 0.0
2018_01_14_S19 01/13/2018 23:45:00 0.0
2018_01_14_S19 01/13/2018 23:50:00 0.0
2018_01_14_S19 01/13/2018 23:55:00 0.0
2018_01_14_S19 01/14/2018 00:00:00 0.0
2018_01_14_S19 01/14/2018 00:05:00 0.0
2018_01_14_S19 01/14/2018 00:10:00 0.0
2018_01_14_S19 01/14/2018 00:15:00 0.0
2018_01_14_S19 01/14/2018 00:20:00 0.0
2018_01_14_S19 01/14/2018 00:25:00 0.0
2018_01_14_S19 01/14/2018 00:30:00 0.0
2018_01_14_S19 01/14/2018 00:35:00 0.0
2018_01_14_S19 01/14/2018 00:40:00 0.0
2018_01_14_S19 01/14/2018 00:45:00 0.0
2018_01_14_S19 01/14/2018 00:50:00 0.0
2018_01_14_S19 01/14/2018 00:55:00 0.0
2018_01_14_S19 01/14/2018 01:00:00 0.0
2018_01_14_S19 01/14/2018 01:05:00 0.0
2018_01_14_S19 01/14/2018 01:10:00 0.0
2018_01_14_S19 01/14/2018 01:15:00 0.0
2018_01_14_S19 01/14/2018 01:20:00 0.0
2018_01_14_S19 01/14/2018 01:25:00 0.0
2018_01_14_S19 01/14/2018 01:30:00 0.0
2018_01_14_S19 01/14/2018 01:35:00 0.0
2018_01_14_S19 01/14/2018 01:40:00 0.0
2018_01_14_S19 01/14/2018 01:45:00 0.0
2018_01_14_S19 01/14/2018 01:50:00 0.0
2018_01_14_S19 01/14/2018 01:55:00 0.0
2018_01_14_S19 01/14/2018 02:00:00 0.0
2018_01_14_S19 01/14/2018 02:05:00 0.0
2018_01_14_S19 01/14/2018 02:10:00 0.0
2018_01_14_S19 01/14/2018 02:15:00 0.0
2018_01_14_S19 01/14/2018 02:20:00 0.0
2018_01_14_S19 01/14/2018 02:25:00 0.0
2018_01_14_S19 01/14/2018 02:30:00 0.0
2018_01_14_S19 01/14/2018 02:35:00 0.0
2018_01_14_S19 01/14/2018 02:40:00 0.0
2018_01_14_S19 01/14/2018 02:45:00 0.0
2018_01_14_S19 01/14/2018 02:50:00 0.0
2018_01_14_S19 01/14/2018 02:55:00 0.0
2018_01_14_S19 01/14/2018 03:00:00 0.0044
2018_01_14_S19 01/14/2018 03:05:00 0.0164
2018_01_14_S19 01/14/2018 03:10:00 0.009
2018_01_14_S19 01/14/2018 03:15:00 0.0004
2018_01_14_S19 01/14/2018 03:20:00 0.0
2018_01_14_S19 01/14/2018 03:25:00 0.0
2018_01_14_S19 01/14/2018 03:30:00 0.0
2018_01_14_S19 01/14/2018 03:35:00 0.0
2018_01_14_S19 01/14/2018 03:40:00 0.0
2018_01_14_S19 01/14/2018 03:45:00 0.0
2018_01_14_S19 01/14/2018 03:50:00 0.0
2018_01_14_S19 01/14/2018 03:55:00 0.0
2018_01_14_S19 01/14/2018 04:00:00 0.0
2018_01_14_S19 01/14/2018 04:05:00 0.0
2018_01_14_S19 01/14/2018 04:10:00 0.0
2018_01_14_S19 01/14/2018 04:15:00 0.0
2018_01_14_S19 01/14/2018 04:20:00 0.0
2018_01_14_S19 01/14/2018 04:25:00 0.0
2018_01_14_S19 01/14/2018 04:30:00 0.0
2018_01_14_S19 01/14/2018 04:35:00 0.0
2018_01_14_S19 01/14/2018 04:40:00 0.0
2018_01_14_S19 01/14/2018 04:45:00 0.0
2018_01_14_S19 01/14/2018 04:50:00 0.0
2018_01_14_S19 01/14/2018 04:55:00 0.0
2018_01_14_S19 01/14/2018 05:00:00 0.0
2018_01_14_S19 01/14/2018 05:05:00 0.0034
2018_01_14_S19 01/14/2018 05:10:00 0.0
2018_01_14_S19 01/14/2018 05:15:00 0.0
2018_01_14_S19 01/14/2018 05:20:00 0.0
2018_01_14_S19 01/14/2018 05:25:00 0.0
2018_01_14_S19 01/14/2018 05:30:00 0.0
2018_01_14_S19 01/14/2018 05:35:00 0.0
2018_01_14_S19 01/14/2018 05:40:00 0.0
2018_01_14_S19 01/14/2018 05:45:00 0.0
2018_01_14_S19 01/14/2018 05:50:00 0.0
2018_01_14_S19 01/14/2018 05:55:00 0.0179
2018_01_14_S19 01/14/2018 06:00:00 2.7824
2018_01_14_S19 01/14/2018 06:05:00 3.5658
2018_01_14_S19 01/14/2018 06:10:00 0.1261
2018_01_14_S19 01/14/2018 06:15:00 0.0
2018_01_14_S19 01/14/2018 06:20:00 0.0502
2018_01_14_S19 01/14/2018 06:25:00 1.3791
2018_01_14_S19 01/14/2018 06:30:00 0.0026
2018_01_14_S19 01/14/2018 06:35:00 0.0007
2018_01_14_S19 01/14/2018 06:40:00 0.0
2018_01_14_S19 01/14/2018 06:45:00 0.0
2018_01_14_S19 01/14/2018 06:50:00 0.0
2018_01_14_S19 01/14/2018 06:55:00 0.0
2018_01_14_S19 01/14/2018 07:00:00 0.0
2018_01_14_S19 01/14/2018 07:05:00 0.0
2018_01_14_S19 01/14/2018 07:10:00 0.0
2018_01_14_S19 01/14/2018 07:15:00 0.0
2018_01_14_S19 01/14/2018 07:20:00 0.0
2018_01_14_S19 01/14/2018 07:25:00 0.0
2018_01_14_S19 01/14/2018 07:30:00 0.0
2018_01_14_S19 01/14/2018 07:35:00 0.0
2018_01_14_S19 01/14/2018 07:40:00 0.0
2018_01_14_S19 01/14/2018 07:45:00 0.0
2018_01_14_S19 01/14/2018 07:50:00 0.0155
2018_01_14_S19 01/14/2018 07:55:00 0.0099
2018_01_14_S19 01/14/2018 08:00:00 0.0
2018_01_14_S19 01/14/2018 08:05:00 0.0
2018_01_14_S19 01/14/2018 08:10:00 0.0
2018_01_14_S19 01/14/2018 08:15:00 0.0
2018_01_14_S19 01/14/2018 08:20:00 0.0
2018_01_14_S19 01/14/2018 08:25:00 0.0
2018_01_14_S19 01/14/2018 08:30:00 0.0157
2018_01_14_S19 01/14/2018 08:35:00 0.0286
2018_01_14_S19 01/14/2018 08:40:00 0.2055
2018_01_14_S19 01/14/2018 08:45:00 0.0
2018_01_14_S19 01/14/2018 08:50:00 0.0
2018_01_14_S19 01/14/2018 08:55:00 0.0
2018_01_14_S19 01/14/2018 09:00:00 0.0
2018_01_14_S19 01/14/2018 09:05:00 0.0
2018_01_14_S19 01/14/2018 09:10:00 0.0
2018_01_14_S19 01/14/2018 09:15:00 0.0
2018_01_14_S19 01/14/2018 09:20:00 0.0
2018_01_14_S19 01/14/2018 09:25:00 0.0
2018_01_14_S19 01/14/2018 09:30:00 0.0
2018_01_14_S19 01/14/2018 09:35:00 0.0
2018_01_14_S19 01/14/2018 09:40:00 0.0
2018_01_14_S19 01/14/2018 09:45:00 0.0
2018_01_14_S19 01/14/2018 09:50:00 0.0
2018_01_14_S19 01/14/2018 09:55:00 0.0
2018_01_14_S19 01/14/2018 10:00:00 0.0
2018_01_14_S19 01/14/2018 10:05:00 0.0
2018_01_14_S19 01/14/2018 10:10:00 0.0
2018_01_14_S19 01/14/2018 10:15:00 0.0
2018_01_14_S19 01/14/2018 10:20:00 0.0
2018_01_14_S19 01/14/2018 10:25:00 0.0
2018_01_14_S19 01/14/2018 10:30:00 0.0
2018_01_14_S19 01/14/2018 10:35:00 0.0
2018_01_14_S19 01/14/2018 10:40:00 0.0
2018_01_14_S19 01/14/2018 10:45:00 0.0
2018_01_14_S19 01/14/2018 10:50:00 0.0
2018_01_14_S19 01/14/2018 10:55:00 0.0
2018_01_14_S19 01/14/2018 11:00:00 0.0
2018_01_14_S19 01/14/2018 11:05:00 0.0
2018_01_14_S19 01/14/2018 11:10:00 0.0
2018_01_14_S19 01/14/2018 11:15:00 0.0
2018_01_14_S19 01/14/2018 11:20:00 0.0
2018_01_14_S19 01/14/2018 11:25:00 0.0
2018_01_14_S19 01/14/2018 11:30:00 0.0
2018_01_14_S19 01/14/2018 11:35:00 0.0
2018_01_14_S19 01/14/2018 11:40:00 0.0
2018_01_14_S19 01/14/2018 11:45:00 0.0
2018_01_14_S19 01/14/2018 11:50:00 0.0
2018_01_14_S19 01/14/2018 11:55:00 0.0
2018_01_14_S19 01/14/2018 12:00:00 0.0
2018_01_14_S19 01/14/2018 12:05:00 0.0
2018_01_14_S19 01/14/2018 12:10:00 0.0
2018_01_14_S19 01/14/2018 12:15:00 0.0
2018_01_14_S19 01/14/2018 12:20:00 0.0
2018_01_14_S19 01/14/2018 12:25:00 0.0
2018_01_14_S19 01/14/2018 12:30:00 0.0
2018_01_14_S19 01/14/2018 12:35:00 0.0
2018_01_14_S19 01/14/2018 12:40:00 0.0
2018_01_14_S19 01/14/2018 12:45:00 0.0
2018_01_14_S19 01/14/2018 12:50:00 0.0
2018_01_14_S19 01/14/2018 12:55:00 0.0
2018_01_14_S19 01/14/2018 13:00:00 0.0
2018_01_14_S19 01/14/2018 13:05:00 0.0
2018_01_14_S19 01/14/2018 13:10:00 0.0
2018_01_14_S19 01/14/2018 13:15:00 0.0
2018_01_14_S19 01/14/2018 13:20:00 0.0
2018_01_14_S19 01/14/2018 13:25:00 0.0
2018_01_14_S19 01/14/2018 13:30:00 0.0
2018_01_14_S19 01/14/2018 13:35:00 0.0
2018_01_14_S19 01/14/2018 13:40:00 0.0
2018_01_14_S19 01/14/2018 13:45:00 0.0
2018_01_14_S19 01/14/2018 13:50:00 0.0
2018_01_14_S19 01/14/2018 13:55:00 0.0
2018_01_14_S19 01/14/2018 14:00:00 0.0
2018_01_14_S19 01/14/2018 14:05:00 0.0
2018_01_14_S19 01/14/2018 14:10:00 0.0
2018_01_14_S19 01/14/2018 14:15:00 0.0
2018_01_14_S19 01/14/2018 14:20:00 0.0
2018_01_14_S19 01/14/2018 14:25:00 0.0
2018_01_14_S19 01/14/2018 14:30:00 0.0
2018_01_14_S19 01/14/2018 14:35:00 0.0
2018_01_14_S19 01/14/2018 14:40:00 0.0
2018_01_14_S19 01/14/2018 14:45:00 0.0
2018_01_14_S19 01/14/2018 14:50:00 0.0
2018_01_14_S19 01/14/2018 14:55:00 0.0
2018_01_14_S19 01/14/2018 15:00:00 0.0
2018_01_14_S19 01/14/2018 15:05:00 0.0
2018_01_14_S19 01/14/2018 15:10:00 0.0
2018_01_14_S19 01/14/2018 15:15:00 0.0
2018_01_14_S19 01/14/2018 15:20:00 0.0
2018_01_14_S19 01/14/2018 15:25:00 0.0
2018_01_14_S19 01/14/2018 15:30:00 0.0
2018_01_14_S19 01/14/2018 15:35:00 0.0
2018_01_14_S19 01/14/2018 15:40:00 0.0
2018_01_14_S19 01/14/2018 15:45:00 0.0
2018_01_14_S19 01/14/2018 15:50:00 0.0
2018_01_14_S19 01/14/2018 15:55:00 0.0
2018_01_14_S19 01/14/2018 16:00:00 0.0
2018_01_14_S19 01/14/2018 16:05:00 0.0
2018_01_14_S19 01/14/2018 16:10:00 0.0
2018_01_14_S19 01/14/2018 16:15:00 0.0
2018_01_14_S19 01/14/2018 16:20:00 0.0
2018_01_14_S19 01/14/2018 16:25:00 0.0
2018_01_14_S19 01/14/2018 16:30:00 0.0
2018_01_14_S19 01/14/2018 16:35:00 0.0
2018_01_14_S19 01/14/2018 16:40:00 0.0282
2018_01_14_S19 01/14/2018 16:45:00 0.0159
2018_01_14_S19 01/14/2018 16:50:00 0.1298
2018_01_14_S19 01/14/2018 16:55:00 0.1064
2018_01_14_S19 01/14/2018 17:00:00 0.0031
2018_01_14_S19 01/14/2018 17:05:00 0.0103
2018_01_14_S19 01/14/2018 17:10:00 0.3686
2018_01_14_S19 01/14/2018 17:15:00 0.0397
2018_01_14_S19 01/14/2018 17:20:00 0.0
2018_01_14_S19 01/14/2018 17:25:00 0.0008
2018_01_14_S19 01/14/2018 17:30:00 0.0
2018_01_14_S19 01/14/2018 17:35:00 0.1354
2018_01_14_S19 01/14/2018 17:40:00 0.0673
2018_01_14_S19 01/14/2018 17:45:00 0.5279
2018_01_14_S19 01/14/2018 17:50:00 0.3565
2018_01_14_S19 01/14/2018 17:55:00 0.1634
2018_01_14_S19 01/14/2018 18:00:00 0.3398
2018_01_14_S19 01/14/2018 18:05:00 0.3345
2018_01_14_S19 01/14/2018 18:10:00 0.4226
2018_01_14_S19 01/14/2018 18:15:00 0.5474
2018_01_14_S19 01/14/2018 18:20:00 2.2545
2018_01_14_S19 01/14/2018 18:25:00 3.4442
2018_01_14_S19 01/14/2018 18:30:00 0.1917
2018_01_14_S19 01/14/2018 18:35:00 0.0092
2018_01_14_S19 01/14/2018 18:40:00 0.0
2018_01_14_S19 01/14/2018 18:45:00 0.3935
2018_01_14_S19 01/14/2018 18:50:00 3.6786
2018_01_14_S19 01/14/2018 18:55:00 0.0051
2018_01_14_S19 01/14/2018 19:00:00 1.3812
2018_01_14_S19 01/14/2018 19:05:00 0.0
2018_01_14_S19 01/14/2018 19:10:00 0.0
2018_01_14_S19 01/14/2018 19:15:00 0.0
2018_01_14_S19 01/14/2018 19:20:00 0.0
2018_01_14_S19 01/14/2018 19:25:00 0.0
2018_01_14_S19 01/14/2018 19:30:00 0.0
2018_01_14_S19 01/14/2018 19:35:00 0.0
2018_01_14_S19 01/14/2018 19:40:00 0.0
2018_01_14_S19 01/14/2018 19:45:00 0.0
2018_01_14_S19 01/14/2018 19:50:00 0.0
2018_01_14_S19 01/14/2018 19:55:00 0.0
2018_01_14_S19 01/14/2018 20:00:00 0.0
2018_01_14_S19 01/14/2018 20:05:00 0.0
2018_01_14_S19 01/14/2018 20:10:00 0.0
2018_01_14_S19 01/14/2018 20:15:00 0.0
2018_01_14_S19 01/14/2018 20:20:00 0.0
2018_01_14_S19 01/14/2018 20:25:00 0.0
2018_01_14_S19 01/14/2018 20:30:00 0.0
2018_01_14_S19 01/14/2018 20:35:00 0.0
2018_01_14_S19 01/14/2018 20:40:00 0.0
2018_01_14_S19 01/14/2018 20:45:00 0.0
2018_01_14_S19 01/14/2018 20:50:00 0.0
2018_01_14_S19 01/14/2018 20:55:00 0.0
2018_01_14_S19 01/14/2018 21:00:00 0.0
2018_01_14_S19 01/14/2018 21:05:00 0.0
2018_01_14_S19 01/14/2018 21:10:00 0.0
2018_01_14_S19 01/14/2018 21:15:00 0.0
2018_01_14_S19 01/14/2018 21:20:00 0.0
2018_01_14_S19 01/14/2018 21:25:00 0.0
2018_01_14_S19 01/14/2018 21:30:00 0.0
2018_01_14_S19 01/14/2018 21:35:00 0.0
2018_01_14_S19 01/14/2018 21:40:00 0.0
2018_01_14_S19 01/14/2018 21:45:00 0.0
2018_01_14_S19 01/14/2018 21:50:00 0.0
2018_01_14_S19 01/14/2018 21:55:00 0.0
2018_01_14_S19 01/14/2018 22:00:00 0.0
2018_01_14_S19 01/14/2018 22:05:00 0.0
2018_01_14_S19 01/14/2018 22:10:00 0.0
2018_01_14_S19 01/14/2018 22:15:00 0.0
2018_01_14_S19 01/14/2018 22:20:00 0.0
2018_01_14_S19 01/14/2018 22:25:00 0.0
2018_01_14_S19 01/14/2018 22:30:00 0.0
2018_01_14_S19 01/14/2018 22:35:00 0.0
2018_01_14_S19 01/14/2018 22:40:00 0.004
2018_01_14_S19 01/14/2018 22:45:00 0.0
2018_01_14_S19 01/14/2018 22:50:00 0.0
2018_01_14_S19 01/14/2018 22:55:00 0.0178
2018_01_14_S19 01/14/2018 23:00:00 0.0156
2018_01_14_S19 01/14/2018 23:05:00 0.0
2018_01_14_S19 01/14/2018 23:10:00 0.0101
2018_01_14_S19 01/14/2018 23:15:00 0.0014
2018_01_14_S19 01/14/2018 23:20:00 0.008
2018_01_14_S19 01/14/2018 23:25:00 0.0052
2018_01_14_S19 01/14/2018 23:30:00 0.0
2018_01_14_S19 01/14/2018 23:35:00 0.0
2018_01_14_S19 01/14/2018 23:40:00 0.0
2018_01_14_S19 01/14/2018 23:45:00 0.0
2018_01_14_S19 01/14/2018 23:50:00 0.0
2018_01_14_S19 01/14/2018 23:55:00 0.0
2018_01_14_S19 01/15/2018 00:00:00 0.0
2018_01_14_S19 01/15/2018 00:05:00 0.0
2018_01_14_S19 01/15/2018 00:10:00 0.0
2018_01_14_S19 01/15/2018 00:15:00 0.0
2018_01_14_S19 01/15/2018 00:20:00 0.0
2018_01_14_S19 01/15/2018 00:25:00 0.0
2018_01_14_S19 01/15/2018 00:30:00 0.0
2018_01_14_S19 01/15/2018 00:35:00 0.0
2018_01_14_S19 01/15/2018 00:40:00 0.0
2018_01_14_S19 01/15/2018 00:45:00 0.0
2018_01_14_S19 01/15/2018 00:50:00 0.0
2018_01_14_S19 01/15/2018 00:55:00 0.0
2018_01_14_S19 01/15/2018 01:00:00 0.0
2018_01_14_S19 01/15/2018 01:05:00 0.0
2018_01_14_S19 01/15/2018 01:10:00 0.0
2018_01_14_S19 01/15/2018 01:15:00 0.0
2018_01_14_S19 01/15/2018 01:20:00 0.0
2018_01_14_S19 01/15/2018 01:25:00 0.0
2018_01_14_S19 01/15/2018 01:30:00 0.0
2018_01_14_S19 01/15/2018 01:35:00 0.0
2018_01_14_S19 01/15/2018 01:40:00 0.0
2018_01_14_S19 01/15/2018 01:45:00 0.0
2018_01_14_S19 01/15/2018 01:50:00 0.0
2018_01_14_S19 01/15/2018 01:55:00 0.0
2018_01_14_S19 01/15/2018 02:00:00 0.0
2018_01_14_S19 01/15/2018 02:05:00 0.0
2018_01_14_S19 01/15/2018 02:10:00 0.0
2018_01_14_S19 01/15/2018 02:15:00 0.0
2018_01_14_S19 01/15/2018 02:20:00 0.0
2018_01_14_S19 01/15/2018 02:25:00 0.0149
2018_01_14_S19 01/15/2018 02:30:00 0.0048
2018_01_14_S19 01/15/2018 02:35:00 0.0
2018_01_14_S19 01/15/2018 02:40:00 0.1149
2018_01_14_S19 01/15/2018 02:45:00 0.4897
2018_01_14_S19 01/15/2018 02:50:00 0.1521
2018_01_14_S19 01/15/2018 02:55:00 0.0047
2018_01_14_S19 01/15/2018 03:00:00 0.011
2018_01_14_S19 01/15/2018 03:05:00 0.0062
2018_01_14_S19 01/15/2018 03:10:00 0.0
2018_01_14_S19 01/15/2018 03:15:00 0.0
2018_01_14_S19 01/15/2018 03:20:00 0.0
2018_01_14_S19 01/15/2018 03:25:00 0.0
2018_01_14_S19 01/15/2018 03:30:00 0.0
2018_01_14_S19 01/15/2018 03:35:00 0.0
2018_01_14_S19 01/15/2018 03:40:00 0.0
2018_01_14_S19 01/15/2018 03:45:00 0.0
2018_01_14_S19 01/15/2018 03:50:00 0.0
2018_01_14_S19 01/15/2018 03:55:00 0.0
2018_01_14_S19 01/15/2018 04:00:00 0.0
2018_01_14_S19 01/15/2018 04:05:00 0.0
2018_01_14_S19 01/15/2018 04:10:00 0.0
2018_01_14_S19 01/15/2018 04:15:00 0.0
2018_01_14_S19 01/15/2018 04:20:00 0.0
2018_01_14_S19 01/15/2018 04:25:00 0.0
2018_01_14_S19 01/15/2018 04:30:00 0.0
2018_01_14_S19 01/15/2018 04:35:00 0.0
2018_01_14_S19 01/15/2018 04:40:00 0.0
2018_01_14_S19 01/15/2018 04:45:00 0.0
2018_01_14_S19 01/15/2018 04:50:00 0.0
2018_01_14_S19 01/15/2018 04:55:00 0.0
2018_01_14_S19 01/15/2018 05:00:00 0.0
2018_01_14_S19 01/15/2018 05:05:00 0.0
2018_01_14_S19 01/15/2018 05:10:00 0.0
2018_01_14_S19 01/15/2018 05:15:00 0.0
2018_01_14_S19 01/15/2018 05:20:00 0.0
2018_01_14_S19 01/15/2018 05:25:00 0.0
2018_01_14_S19 01/15/2018 05:30:00 0.0
2018_01_14_S19 01/15/2018 05:35:00 0.0
2018_01_14_S19 01/15/2018 05:40:00 0.0
2018_01_14_S19 01/15/2018 05:45:00 0.0
2018_01_14_S19 01/15/2018 05:50:00 0.0
2018_01_14_S19 01/15/2018 05:55:00 0.0
2018_01_14_S19 01/15/2018 06:00:00 0.0
2018_01_14_S19 01/15/2018 06:05:00 0.0
2018_01_14_S19 01/15/2018 06:10:00 0.0
2018_01_14_S19 01/15/2018 06:15:00 0.0
2018_01_14_S19 01/15/2018 06:20:00 0.0174
2018_01_14_S19 01/15/2018 06:25:00 0.0
2018_01_14_S19 01/15/2018 06:30:00 0.0
2018_01_14_S19 01/15/2018 06:35:00 0.0
2018_01_14_S19 01/15/2018 06:40:00 0.0
2018_01_14_S19 01/15/2018 06:45:00 0.0
2018_01_14_S19 01/15/2018 06:50:00 0.0
2018_01_14_S19 01/15/2018 06:55:00 0.0
2018_01_14_S19 01/15/2018 07:00:00 0.0
2018_01_14_S19 01/15/2018 07:05:00 0.0
2018_01_14_S19 01/15/2018 07:10:00 0.0
2018_01_14_S19 01/15/2018 07:15:00 0.0
2018_01_14_S19 01/15/2018 07:20:00 0.0327
2018_01_14_S19 01/15/2018 07:25:00 0.2095
2018_01_14_S19 01/15/2018 07:30:00 0.0197
2018_01_14_S19 01/15/2018 07:35:00 0.0
2018_01_14_S19 01/15/2018 07:40:00 0.0
2018_01_14_S19 01/15/2018 07:45:00 0.0
2018_01_14_S19 01/15/2018 07:50:00 0.0
2018_01_14_S19 01/15/2018 07:55:00 0.0
2018_01_14_S19 01/15/2018 08:00:00 0.0

2018_01_14_S20 01/13/2018 08:00:00 0.0
2018_01_14_S20 01/13/2018 08:05:00 0.0
2018_01_14_S20 01/13/2018 08:10:00 0.0
2018_01_14_S20 01/13/2018 08:15:00 0.0
2018_01_14_S20 01/13/2018 08:20:00 0.0
2018_01_14_S20 01/13/2018 08:25:00 0.0
2018_01_14_S20 01/13/2018 08:30:00 0.0
2018_01_14_S20 01/13/2018 08:35:00 0.0
2018_01_14_S20 01/13/2018 08:40:00 0.0
2018_01_14_S20 01/13/2018 08:45:00 0.0
2018_01_14_S20 01/13/2018 08:50:00 0.0
2018_01_14_S20 01/13/2018 08:55:00 0.0
2018_01_14_S20 01/13/2018 09:00:00 0.0
2018_01_14_S20 01/13/2018 09:05:00 0.0
2018_01_14_S20 01/13/2018 09:10:00 0.0
2018_01_14_S20 01/13/2018 09:15:00 0.0
2018_01_14_S20 01/13/2018 09:20:00 0.0
2018_01_14_S20 01/13/2018 09:25:00 0.0
2018_01_14_S20 01/13/2018 09:30:00 0.0
2018_01_14_S20 01/13/2018 09:35:00 0.0
2018_01_14_S20 01/13/2018 09:40:00 0.0
2018_01_14_S20 01/13/2018 09:45:00 0.0
2018_01_14_S20 01/13/2018 09:50:00 0.0
2018_01_14_S20 01/13/2018 09:55:00 0.0
2018_01_14_S20 01/13/2018 10:00:00 0.0
2018_01_14_S20 01/13/2018 10:05:00 0.0
2018_01_14_S20 01/13/2018 10:10:00 0.0
2018_01_14_S20 01/13/2018 10:15:00 0.0
2018_01_14_S20 01/13/2018 10:20:00 0.0
2018_01_14_S20 01/13/2018 10:25:00 0.0
2018_01_14_S20 01/13/2018 10:30:00 0.0
2018_01_14_S20 01/13/2018 10:35:00 0.0
2018_01_14_S20 01/13/2018 10:40:00 0.0
2018_01_14_S20 01/13/2018 10:45:00 0.0
2018_01_14_S20 01/13/2018 10:50:00 0.0
2018_01_14_S20 01/13/2018 10:55:00 0.0
2018_01_14_S20 01/13/2018 11:00:00 0.0
2018_01_14_S20 01/13/2018 11:05:00 0.0
2018_01_14_S20 01/13/2018 11:10:00 0.0
2018_01_14_S20 01/13/2018 11:15:00 0.0
2018_01_14_S20 01/13/2018 11:20:00 0.0
2018_01_14_S20 01/13/2018 11:25:00 0.0
2018_01_14_S20 01/13/2018 11:30:00 0.0
2018_01_14_S20 01/13/2018 11:35:00 0.0
2018_01_14_S20 01/13/2018 11:40:00 0.0
2018_01_14_S20 01/13/2018 11:45:00 0.0
2018_01_14_S20 01/13/2018 11:50:00 0.0
2018_01_14_S20 01/13/2018 11:55:00 0.0
2018_01_14_S20 01/13/2018 12:00:00 0.0
2018_01_14_S20 01/13/2018 12:05:00 0.0
2018_01_14_S20 01/13/2018 12:10:00 0.0
2018_01_14_S20 01/13/2018 12:15:00 0.0
2018_01_14_S20 01/13/2018 12:20:00 0.0
2018_01_14_S20 01/13/2018 12:25:00 0.0
2018_01_14_S20 01/13/2018 12:30:00 0.0
2018_01_14_S20 01/13/2018 12:35:00 0.0
2018_01_14_S20 01/13/2018 12:40:00 0.0
2018_01_14_S20 01/13/2018 12:45:00 0.0
2018_01_14_S20 01/13/2018 12:50:00 0.0
2018_01_14_S20 01/13/2018 12:55:00 0.0
2018_01_14_S20 01/13/2018 13:00:00 0.0
2018_01_14_S20 01/13/2018 13:05:00 0.0
2018_01_14_S20 01/13/2018 13:10:00 0.0
2018_01_14_S20 01/13/2018 13:15:00 0.0
2018_01_14_S20 01/13/2018 13:20:00 0.0
2018_01_14_S20 01/13/2018 13:25:00 0.0
2018_01_14_S20 01/13/2018 13:30:00 0.0
2018_01_14_S20 01/13/2018 13:35:00 0.0
2018_01_14_S20 01/13/2018 13:40:00 0.0
2018_01_14_S20 01/13/2018 13:45:00 0.0
2018_01_14_S20 01/13/2018 13:50:00 0.0
2018_01_14_S20 01/13/2018 13:55:00 0.0
2018_01_14_S20 01/13/2018 14:00:00 0.0
2018_01_14_S20 01/13/2018 14:05:00 0.0
2018_01_14_S20 01/13/2018 14:10:00 0.0
2018_01_14_S20 01/13/2018 14:15:00 0.0
2018_01_14_S20 01/13/2018 14:20:00 0.0
2018_01_14_S20 01/13/2018 14:25:00 0.0
2018_01_14_S20 01/13/2018 14:30:00 0.0
2018_01_14_S20 01/13/2018 14:35:00 0.0
2018_01_14_S20 01/13/2018 14:40:00 0.0
2018_01_14_S20 01/13/2018 14:45:00 0.0
2018_01_14_S20 01/13/2018 14:50:00 0.0
2018_01_14_S20 01/13/2018 14:55:00 0.0
2018_01_14_S20 01/13/2018 15:00:00 0.0
2018_01_14_S20 01/13/2018 15:05:00 0.0
2018_01_14_S20 01/13/2018 15:10:00 0.0
2018_01_14_S20 01/13/2018 15:15:00 0.0
2018_01_14_S20 01/13/2018 15:20:00 0.0
2018_01_14_S20 01/13/2018 15:25:00 0.0
2018_01_14_S20 01/13/2018 15:30:00 0.0
2018_01_14_S20 01/13/2018 15:35:00 0.0
2018_01_14_S20 01/13/2018 15:40:00 0.0
2018_01_14_S20 01/13/2018 15:45:00 0.0
2018_01_14_S20 01/13/2018 15:50:00 0.0
2018_01_14_S20 01/13/2018 15:55:00 0.0
2018_01_14_S20 01/13/2018 16:00:00 0.0
2018_01_14_S20 01/13/2018 16:05:00 0.0
2018_01_14_S20 01/13/2018 16:10:00 0.0
2018_01_14_S20 01/13/2018 16:15:00 0.0
2018_01_14_S20 01/13/2018 16:20:00 0.0
2018_01_14_S20 01/13/2018 16:25:00 0.0
2018_01_14_S20 01/13/2018 16:30:00 0.0
2018_01_14_S20 01/13/2018 16:35:00 0.0
2018_01_14_S20 01/13/2018 16:40:00 0.0
2018_01_14_S20 01/13/2018 16:45:00 0.0
2018_01_14_S20 01/13/2018 16:50:00 0.0
2018_01_14_S20 01/13/2018 16:55:00 0.0
2018_01_14_S20 01/13/2018 17:00:00 0.0
2018_01_14_S20 01/13/2018 17:05:00 0.0
2018_01_14_S20 01/13/2018 17:10:00 0.0
2018_01_14_S20 01/13/2018 17:15:00 0.0
2018_01_14_S20 01/13/2018 17:20:00 0.0
2018_01_14_S20 01/13/2018 17:25:00 0.0
2018_01_14_S20 01/13/2018 17:30:00 0.0
2018_01_14_S20 01/13/2018 17:35:00 0.0
2018_01_14_S20 01/13/2018 17:40:00 0.0
2018_01_14_S20 01/13/2018 17:45:00 0.0
2018_01_14_S20 01/13/2018 17:50:00 0.0
2018_01_14_S20 01/13/2018 17:55:00 0.0
2018_01_14_S20 01/13/2018 18:00:00 0.0
2018_01_14_S20 01/13/2018 18:05:00 0.0
2018_01_14_S20 01/13/2018 18:10:00 0.0
2018_01_14_S20 01/13/2018 18:15:00 0.0
2018_01_14_S20 01/13/2018 18:20:00 0.0
2018_01_14_S20 01/13/2018 18:25:00 0.0
2018_01_14_S20 01/13/2018 18:30:00 0.0
2018_01_14_S20 01/13/2018 18:35:00 0.0
2018_01_14_S20 01/13/2018 18:40:00 0.0
2018_01_14_S20 01/13/2018 18:45:00 0.0
2018_01_14_S20 01/13/2018 18:50:00 0.0
2018_01_14_S20 01/13/2018 18:55:00 0.0
2018_01_14_S20 01/13/2018 19:00:00 0.0
2018_01_14_S20 01/13/2018 19:05:00 0.0
2018_01_14_S20 01/13/2018 19:10:00 0.0
2018_01_14_S20 01/13/2018 19:15:00 0.0
2018_01_14_S20 01/13/2018 19:20:00 0.0
2018_01_14_S20 01/13/2018 19:25:00 0.0
2018_01_14_S20 01/13/2018 19:30:00 0.0
2018_01_14_S20 01/13/2018 19:35:00 0.0
2018_01_14_S20 01/13/2018 19:40:00 0.0
2018_01_14_S20 01/13/2018 19:45:00 0.0
2018_01_14_S20 01/13/2018 19:50:00 0.0
2018_01_14_S20 01/13/2018 19:55:00 0.0
2018_01_14_S20 01/13/2018 20:00:00 0.0
2018_01_14_S20 01/13/2018 20:05:00 0.0
2018_01_14_S20 01/13/2018 20:10:00 0.0
2018_01_14_S20 01/13/2018 20:15:00 0.0
2018_01_14_S20 01/13/2018 20:20:00 0.0
2018_01_14_S20 01/13/2018 20:25:00 0.0
2018_01_14_S20 01/13/2018 20:30:00 0.0
2018_01_14_S20 01/13/2018 20:35:00 0.0
2018_01_14_S20 01/13/2018 20:40:00 0.0
2018_01_14_S20 01/13/2018 20:45:00 0.0
2018_01_14_S20 01/13/2018 20:50:00 0.0
2018_01_14_S20 01/13/2018 20:55:00 0.0
2018_01_14_S20 01/13/2018 21:00:00 0.0
2018_01_14_S20 01/13/2018 21:05:00 0.0
2018_01_14_S20 01/13/2018 21:10:00 0.0
2018_01_14_S20 01/13/2018 21:15:00 0.0
2018_01_14_S20 01/13/2018 21:20:00 0.0
2018_01_14_S20 01/13/2018 21:25:00 0.0
2018_01_14_S20 01/13/2018 21:30:00 0.0
2018_01_14_S20 01/13/2018 21:35:00 0.0
2018_01_14_S20 01/13/2018 21:40:00 0.0
2018_01_14_S20 01/13/2018 21:45:00 0.0
2018_01_14_S20 01/13/2018 21:50:00 0.0
2018_01_14_S20 01/13/2018 21:55:00 0.0
2018_01_14_S20 01/13/2018 22:00:00 0.0
2018_01_14_S20 01/13/2018 22:05:00 0.0
2018_01_14_S20 01/13/2018 22:10:00 0.0
2018_01_14_S20 01/13/2018 22:15:00 0.0
2018_01_14_S20 01/13/2018 22:20:00 0.0
2018_01_14_S20 01/13/2018 22:25:00 0.0
2018_01_14_S20 01/13/2018 22:30:00 0.0
2018_01_14_S20 01/13/2018 22:35:00 0.0
2018_01_14_S20 01/13/2018 22:40:00 0.0
2018_01_14_S20 01/13/2018 22:45:00 0.0
2018_01_14_S20 01/13/2018 22:50:00 0.0
2018_01_14_S20 01/13/2018 22:55:00 0.0
2018_01_14_S20 01/13/2018 23:00:00 0.0
2018_01_14_S20 01/13/2018 23:05:00 0.0
2018_01_14_S20 01/13/2018 23:10:00 0.0
2018_01_14_S20 01/13/2018 23:15:00 0.0
2018_01_14_S20 01/13/2018 23:20:00 0.0
2018_01_14_S20 01/13/2018 23:25:00 0.0
2018_01_14_S20 01/13/2018 23:30:00 0.0
2018_01_14_S20 01/13/2018 23:35:00 0.0
2018_01_14_S20 01/13/2018 23:40:00 0.0
2018_01_14_S20 01/13/2018 23:45:00 0.0
2018_01_14_S20 01/13/2018 23:50:00 0.0
2018_01_14_S20 01/13/2018 23:55:00 0.0
2018_01_14_S20 01/14/2018 00:00:00 0.0
2018_01_14_S20 01/14/2018 00:05:00 0.0
2018_01_14_S20 01/14/2018 00:10:00 0.0
2018_01_14_S20 01/14/2018 00:15:00 0.0
2018_01_14_S20 01/14/2018 00:20:00 0.0
2018_01_14_S20 01/14/2018 00:25:00 0.0
2018_01_14_S20 01/14/2018 00:30:00 0.0
2018_01_14_S20 01/14/2018 00:35:00 0.0
2018_01_14_S20 01/14/2018 00:40:00 0.0
2018_01_14_S20 01/14/2018 00:45:00 0.0
2018_01_14_S20 01/14/2018 00:50:00 0.0
2018_01_14_S20 01/14/2018 00:55:00 0.0
2018_01_14_S20 01/14/2018 01:00:00 0.0
2018_01_14_S20 01/14/2018 01:05:00 0.0
2018_01_14_S20 01/14/2018 01:10:00 0.0
2018_01_14_S20 01/14/2018 01:15:00 0.0
2018_01_14_S20 01/14/2018 01:20:00 0.0
2018_01_14_S20 01/14/2018 01:25:00 0.0
2018_01_14_S20 01/14/2018 01:30:00 0.0
2018_01_14_S20 01/14/2018 01:35:00 0.0
2018_01_14_S20 01/14/2018 01:40:00 0.0
2018_01_14_S20 01/14/2018 01:45:00 0.0
2018_01_14_S20 01/14/2018 01:50:00 0.0
2018_01_14_S20 01/14/2018 01:55:00 0.0
2018_01_14_S20 01/14/2018 02:00:00 0.0
2018_01_14_S20 01/14/2018 02:05:00 0.0
2018_01_14_S20 01/14/2018 02:10:00 0.0
2018_01_14_S20 01/14/2018 02:15:00 0.0
2018_01_14_S20 01/14/2018 02:20:00 0.0
2018_01_14_S20 01/14/2018 02:25:00 0.0
2018_01_14_S20 01/14/2018 02:30:00 0.0
2018_01_14_S20 01/14/2018 02:35:00 0.0
2018_01_14_S20 01/14/2018 02:40:00 0.0
2018_01_14_S20 01/14/2018 02:45:00 0.0
2018_01_14_S20 01/14/2018 02:50:00 0.0
2018_01_14_S20 01/14/2018 02:55:00 0.0
2018_01_14_S20 01/14/2018 03:00:00 0.0079
2018_01_14_S20 01/14/2018 03:05:00 0.0146
2018_01_14_S20 01/14/2018 03:10:00 0.0663
2018_01_14_S20 01/14/2018 03:15:00 0.0
2018_01_14_S20 01/14/2018 03:20:00 0.0
2018_01_14_S20 01/14/2018 03:25:00 0.0
2018_01_14_S20 01/14/2018 03:30:00 0.0
2018_01_14_S20 01/14/2018 03:35:00 0.0
2018_01_14_S20 01/14/2018 03:40:00 0.0
2018_01_14_S20 01/14/2018 03:45:00 0.0
2018_01_14_S20 01/14/2018 03:50:00 0.0
2018_01_14_S20 01/14/2018 03:55:00 0.0
2018_01_14_S20 01/14/2018 04:00:00 0.0
2018_01_14_S20 01/14/2018 04:05:00 0.0
2018_01_14_S20 01/14/2018 04:10:00 0.0
2018_01_14_S20 01/14/2018 04:15:00 0.0
2018_01_14_S20 01/14/2018 04:20:00 0.0
2018_01_14_S20 01/14/2018 04:25:00 0.0
2018_01_14_S20 01/14/2018 04:30:00 0.0
2018_01_14_S20 01/14/2018 04:35:00 0.0
2018_01_14_S20 01/14/2018 04:40:00 0.0
2018_01_14_S20 01/14/2018 04:45:00 0.0
2018_01_14_S20 01/14/2018 04:50:00 0.0
2018_01_14_S20 01/14/2018 04:55:00 0.0
2018_01_14_S20 01/14/2018 05:00:00 0.0016
2018_01_14_S20 01/14/2018 05:05:00 0.0047
2018_01_14_S20 01/14/2018 05:10:00 0.004
2018_01_14_S20 01/14/2018 05:15:00 0.0
2018_01_14_S20 01/14/2018 05:20:00 0.0
2018_01_14_S20 01/14/2018 05:25:00 0.0
2018_01_14_S20 01/14/2018 05:30:00 0.0
2018_01_14_S20 01/14/2018 05:35:00 0.0
2018_01_14_S20 01/14/2018 05:40:00 0.0
2018_01_14_S20 01/14/2018 05:45:00 0.0
2018_01_14_S20 01/14/2018 05:50:00 0.0
2018_01_14_S20 01/14/2018 05:55:00 0.0196
2018_01_14_S20 01/14/2018 06:00:00 4.2764
2018_01_14_S20 01/14/2018 06:05:00 2.0372
2018_01_14_S20 01/14/2018 06:10:00 0.1088
2018_01_14_S20 01/14/2018 06:15:00 0.0
2018_01_14_S20 01/14/2018 06:20:00 0.0456
2018_01_14_S20 01/14/2018 06:25:00 1.2889
2018_01_14_S20 01/14/2018 06:30:00 0.0042
2018_01_14_S20 01/14/2018 06:35:00 0.0
2018_01_14_S20 01/14/2018 06:40:00 0.0
2018_01_14_S20 01/14/2018 06:45:00 0.0
2018_01_14_S20 01/14/2018 06:50:00 0.0
2018_01_14_S20 01/14/2018 06:55:00 0.0
2018_01_14_S20 01/14/2018 07:00:00 0.0
2018_01_14_S20 01/14/2018 07:05:00 0.0
2018_01_14_S20 01/14/2018 07:10:00 0.0
2018_01_14_S20 01/14/2018 07:15:00 0.0
2018_01_14_S20 01/14/2018 07:20:00 0.0
2018_01_14_S20 01/14/2018 07:25:00 0.0
2018_01_14_S20 01/14/2018 07:30:00 0.0
2018_01_14_S20 01/14/2018 07:35:00 0.0
2018_01_14_S20 01/14/2018 07:40:00 0.0
2018_01_14_S20 01/14/2018 07:45:00 0.0
2018_01_14_S20 01/14/2018 07:50:00 0.0148
2018_01_14_S20 01/14/2018 07:55:00 0.0094
2018_01_14_S20 01/14/2018 08:00:00 0.0
2018_01_14_S20 01/14/2018 08:05:00 0.0
2018_01_14_S20 01/14/2018 08:10:00 0.0
2018_01_14_S20 01/14/2018 08:15:00 0.0
2018_01_14_S20 01/14/2018 08:20:00 0.0
2018_01_14_S20 01/14/2018 08:25:00 0.0
2018_01_14_S20 01/14/2018 08:30:00 0.0212
2018_01_14_S20 01/14/2018 08:35:00 0.0104
2018_01_14_S20 01/14/2018 08:40:00 0.3572
2018_01_14_S20 01/14/2018 08:45:00 0.0007
2018_01_14_S20 01/14/2018 08:50:00 0.0
2018_01_14_S20 01/14/2018 08:55:00 0.0
2018_01_14_S20 01/14/2018 09:00:00 0.0
2018_01_14_S20 01/14/2018 09:05:00 0.0
2018_01_14_S20 01/14/2018 09:10:00 0.0
2018_01_14_S20 01/14/2018 09:15:00 0.0
2018_01_14_S20 01/14/2018 09:20:00 0.0
2018_01_14_S20 01/14/2018 09:25:00 0.0
2018_01_14_S20 01/14/2018 09:30:00 0.0
2018_01_14_S20 01/14/2018 09:35:00 0.0
2018_01_14_S20 01/14/2018 09:40:00 0.0
2018_01_14_S20 01/14/2018 09:45:00 0.0
2018_01_14_S20 01/14/2018 09:50:00 0.0
2018_01_14_S20 01/14/2018 09:55:00 0.0
2018_01_14_S20 01/14/2018 10:00:00 0.0
2018_01_14_S20 01/14/2018 10:05:00 0.0
2018_01_14_S20 01/14/2018 10:10:00 0.0
2018_01_14_S20 01/14/2018 10:15:00 0.0
2018_01_14_S20 01/14/2018 10:20:00 0.0
2018_01_14_S20 01/14/2018 10:25:00 0.0
2018_01_14_S20 01/14/2018 10:30:00 0.0
2018_01_14_S20 01/14/2018 10:35:00 0.0
2018_01_14_S20 01/14/2018 10:40:00 0.0
2018_01_14_S20 01/14/2018 10:45:00 0.0
2018_01_14_S20 01/14/2018 10:50:00 0.0
2018_01_14_S20 01/14/2018 10:55:00 0.0
2018_01_14_S20 01/14/2018 11:00:00 0.0
2018_01_14_S20 01/14/2018 11:05:00 0.0
2018_01_14_S20 01/14/2018 11:10:00 0.0
2018_01_14_S20 01/14/2018 11:15:00 0.0
2018_01_14_S20 01/14/2018 11:20:00 0.0
2018_01_14_S20 01/14/2018 11:25:00 0.0
2018_01_14_S20 01/14/2018 11:30:00 0.0
2018_01_14_S20 01/14/2018 11:35:00 0.0
2018_01_14_S20 01/14/2018 11:40:00 0.0
2018_01_14_S20 01/14/2018 11:45:00 0.0
2018_01_14_S20 01/14/2018 11:50:00 0.0
2018_01_14_S20 01/14/2018 11:55:00 0.0
2018_01_14_S20 01/14/2018 12:00:00 0.0
2018_01_14_S20 01/14/2018 12:05:00 0.0
2018_01_14_S20 01/14/2018 12:10:00 0.0
2018_01_14_S20 01/14/2018 12:15:00 0.0
2018_01_14_S20 01/14/2018 12:20:00 0.0
2018_01_14_S20 01/14/2018 12:25:00 0.0
2018_01_14_S20 01/14/2018 12:30:00 0.0
2018_01_14_S20 01/14/2018 12:35:00 0.0
2018_01_14_S20 01/14/2018 12:40:00 0.0
2018_01_14_S20 01/14/2018 12:45:00 0.0
2018_01_14_S20 01/14/2018 12:50:00 0.0
2018_01_14_S20 01/14/2018 12:55:00 0.0
2018_01_14_S20 01/14/2018 13:00:00 0.0
2018_01_14_S20 01/14/2018 13:05:00 0.0
2018_01_14_S20 01/14/2018 13:10:00 0.0
2018_01_14_S20 01/14/2018 13:15:00 0.0
2018_01_14_S20 01/14/2018 13:20:00 0.0
2018_01_14_S20 01/14/2018 13:25:00 0.0
2018_01_14_S20 01/14/2018 13:30:00 0.0
2018_01_14_S20 01/14/2018 13:35:00 0.0
2018_01_14_S20 01/14/2018 13:40:00 0.0
2018_01_14_S20 01/14/2018 13:45:00 0.0
2018_01_14_S20 01/14/2018 13:50:00 0.0
2018_01_14_S20 01/14/2018 13:55:00 0.0
2018_01_14_S20 01/14/2018 14:00:00 0.0
2018_01_14_S20 01/14/2018 14:05:00 0.0
2018_01_14_S20 01/14/2018 14:10:00 0.0
2018_01_14_S20 01/14/2018 14:15:00 0.0
2018_01_14_S20 01/14/2018 14:20:00 0.0
2018_01_14_S20 01/14/2018 14:25:00 0.0
2018_01_14_S20 01/14/2018 14:30:00 0.0
2018_01_14_S20 01/14/2018 14:35:00 0.0
2018_01_14_S20 01/14/2018 14:40:00 0.0
2018_01_14_S20 01/14/2018 14:45:00 0.0
2018_01_14_S20 01/14/2018 14:50:00 0.0
2018_01_14_S20 01/14/2018 14:55:00 0.0
2018_01_14_S20 01/14/2018 15:00:00 0.0
2018_01_14_S20 01/14/2018 15:05:00 0.0
2018_01_14_S20 01/14/2018 15:10:00 0.0
2018_01_14_S20 01/14/2018 15:15:00 0.0
2018_01_14_S20 01/14/2018 15:20:00 0.0
2018_01_14_S20 01/14/2018 15:25:00 0.0
2018_01_14_S20 01/14/2018 15:30:00 0.0
2018_01_14_S20 01/14/2018 15:35:00 0.0
2018_01_14_S20 01/14/2018 15:40:00 0.0
2018_01_14_S20 01/14/2018 15:45:00 0.0
2018_01_14_S20 01/14/2018 15:50:00 0.0
2018_01_14_S20 01/14/2018 15:55:00 0.0
2018_01_14_S20 01/14/2018 16:00:00 0.0
2018_01_14_S20 01/14/2018 16:05:00 0.0
2018_01_14_S20 01/14/2018 16:10:00 0.0
2018_01_14_S20 01/14/2018 16:15:00 0.0
2018_01_14_S20 01/14/2018 16:20:00 0.0
2018_01_14_S20 01/14/2018 16:25:00 0.0
2018_01_14_S20 01/14/2018 16:30:00 0.0
2018_01_14_S20 01/14/2018 16:35:00 0.0
2018_01_14_S20 01/14/2018 16:40:00 0.038
2018_01_14_S20 01/14/2018 16:45:00 0.0151
2018_01_14_S20 01/14/2018 16:50:00 0.1072
2018_01_14_S20 01/14/2018 16:55:00 0.0481
2018_01_14_S20 01/14/2018 17:00:00 0.0012
2018_01_14_S20 01/14/2018 17:05:00 0.008
2018_01_14_S20 01/14/2018 17:10:00 0.3674
2018_01_14_S20 01/14/2018 17:15:00 0.024
2018_01_14_S20 01/14/2018 17:20:00 0.0024
2018_01_14_S20 01/14/2018 17:25:00 0.001
2018_01_14_S20 01/14/2018 17:30:00 0.0
2018_01_14_S20 01/14/2018 17:35:00 0.1487
2018_01_14_S20 01/14/2018 17:40:00 0.0942
2018_01_14_S20 01/14/2018 17:45:00 0.6974
2018_01_14_S20 01/14/2018 17:50:00 0.2872
2018_01_14_S20 01/14/2018 17:55:00 0.165
2018_01_14_S20 01/14/2018 18:00:00 0.3586
2018_01_14_S20 01/14/2018 18:05:00 0.5471
2018_01_14_S20 01/14/2018 18:10:00 0.5193
2018_01_14_S20 01/14/2018 18:15:00 1.187
2018_01_14_S20 01/14/2018 18:20:00 4.0839
2018_01_14_S20 01/14/2018 18:25:00 2.784
2018_01_14_S20 01/14/2018 18:30:00 0.2537
2018_01_14_S20 01/14/2018 18:35:00 0.0094
2018_01_14_S20 01/14/2018 18:40:00 0.0
2018_01_14_S20 01/14/2018 18:45:00 0.6157
2018_01_14_S20 01/14/2018 18:50:00 3.8337
2018_01_14_S20 01/14/2018 18:55:00 0.0038
2018_01_14_S20 01/14/2018 19:00:00 1.0111
2018_01_14_S20 01/14/2018 19:05:00 0.0
2018_01_14_S20 01/14/2018 19:10:00 0.0
2018_01_14_S20 01/14/2018 19:15:00 0.0
2018_01_14_S20 01/14/2018 19:20:00 0.0
2018_01_14_S20 01/14/2018 19:25:00 0.0
2018_01_14_S20 01/14/2018 19:30:00 0.0
2018_01_14_S20 01/14/2018 19:35:00 0.0
2018_01_14_S20 01/14/2018 19:40:00 0.0
2018_01_14_S20 01/14/2018 19:45:00 0.0
2018_01_14_S20 01/14/2018 19:50:00 0.0
2018_01_14_S20 01/14/2018 19:55:00 0.0
2018_01_14_S20 01/14/2018 20:00:00 0.0
2018_01_14_S20 01/14/2018 20:05:00 0.0
2018_01_14_S20 01/14/2018 20:10:00 0.0
2018_01_14_S20 01/14/2018 20:15:00 0.0
2018_01_14_S20 01/14/2018 20:20:00 0.0
2018_01_14_S20 01/14/2018 20:25:00 0.0
2018_01_14_S20 01/14/2018 20:30:00 0.0
2018_01_14_S20 01/14/2018 20:35:00 0.0
2018_01_14_S20 01/14/2018 20:40:00 0.0
2018_01_14_S20 01/14/2018 20:45:00 0.0
2018_01_14_S20 01/14/2018 20:50:00 0.0
2018_01_14_S20 01/14/2018 20:55:00 0.0
2018_01_14_S20 01/14/2018 21:00:00 0.0
2018_01_14_S20 01/14/2018 21:05:00 0.0
2018_01_14_S20 01/14/2018 21:10:00 0.0
2018_01_14_S20 01/14/2018 21:15:00 0.0
2018_01_14_S20 01/14/2018 21:20:00 0.0
2018_01_14_S20 01/14/2018 21:25:00 0.0
2018_01_14_S20 01/14/2018 21:30:00 0.0
2018_01_14_S20 01/14/2018 21:35:00 0.0
2018_01_14_S20 01/14/2018 21:40:00 0.0
2018_01_14_S20 01/14/2018 21:45:00 0.0
2018_01_14_S20 01/14/2018 21:50:00 0.0
2018_01_14_S20 01/14/2018 21:55:00 0.0
2018_01_14_S20 01/14/2018 22:00:00 0.0
2018_01_14_S20 01/14/2018 22:05:00 0.0
2018_01_14_S20 01/14/2018 22:10:00 0.0
2018_01_14_S20 01/14/2018 22:15:00 0.0
2018_01_14_S20 01/14/2018 22:20:00 0.0
2018_01_14_S20 01/14/2018 22:25:00 0.0
2018_01_14_S20 01/14/2018 22:30:00 0.0
2018_01_14_S20 01/14/2018 22:35:00 0.0
2018_01_14_S20 01/14/2018 22:40:00 0.002
2018_01_14_S20 01/14/2018 22:45:00 0.0
2018_01_14_S20 01/14/2018 22:50:00 0.0
2018_01_14_S20 01/14/2018 22:55:00 0.0136
2018_01_14_S20 01/14/2018 23:00:00 0.0111
2018_01_14_S20 01/14/2018 23:05:00 0.002
2018_01_14_S20 01/14/2018 23:10:00 0.0037
2018_01_14_S20 01/14/2018 23:15:00 0.0
2018_01_14_S20 01/14/2018 23:20:00 0.0088
2018_01_14_S20 01/14/2018 23:25:00 0.005
2018_01_14_S20 01/14/2018 23:30:00 0.0
2018_01_14_S20 01/14/2018 23:35:00 0.0
2018_01_14_S20 01/14/2018 23:40:00 0.0
2018_01_14_S20 01/14/2018 23:45:00 0.0
2018_01_14_S20 01/14/2018 23:50:00 0.0
2018_01_14_S20 01/14/2018 23:55:00 0.0
2018_01_14_S20 01/15/2018 00:00:00 0.0
2018_01_14_S20 01/15/2018 00:05:00 0.0
2018_01_14_S20 01/15/2018 00:10:00 0.0
2018_01_14_S20 01/15/2018 00:15:00 0.0
2018_01_14_S20 01/15/2018 00:20:00 0.0
2018_01_14_S20 01/15/2018 00:25:00 0.0
2018_01_14_S20 01/15/2018 00:30:00 0.0
2018_01_14_S20 01/15/2018 00:35:00 0.0
2018_01_14_S20 01/15/2018 00:40:00 0.0
2018_01_14_S20 01/15/2018 00:45:00 0.0
2018_01_14_S20 01/15/2018 00:50:00 0.0
2018_01_14_S20 01/15/2018 00:55:00 0.0
2018_01_14_S20 01/15/2018 01:00:00 0.0
2018_01_14_S20 01/15/2018 01:05:00 0.0
2018_01_14_S20 01/15/2018 01:10:00 0.0
2018_01_14_S20 01/15/2018 01:15:00 0.0
2018_01_14_S20 01/15/2018 01:20:00 0.0
2018_01_14_S20 01/15/2018 01:25:00 0.0
2018_01_14_S20 01/15/2018 01:30:00 0.0
2018_01_14_S20 01/15/2018 01:35:00 0.0
2018_01_14_S20 01/15/2018 01:40:00 0.0
2018_01_14_S20 01/15/2018 01:45:00 0.0
2018_01_14_S20 01/15/2018 01:50:00 0.0
2018_01_14_S20 01/15/2018 01:55:00 0.0
2018_01_14_S20 01/15/2018 02:00:00 0.0
2018_01_14_S20 01/15/2018 02:05:00 0.0
2018_01_14_S20 01/15/2018 02:10:00 0.0
2018_01_14_S20 01/15/2018 02:15:00 0.0
2018_01_14_S20 01/15/2018 02:20:00 0.0
2018_01_14_S20 01/15/2018 02:25:00 0.0054
2018_01_14_S20 01/15/2018 02:30:00 0.0012
2018_01_14_S20 01/15/2018 02:35:00 0.0
2018_01_14_S20 01/15/2018 02:40:00 0.1347
2018_01_14_S20 01/15/2018 02:45:00 0.5478
2018_01_14_S20 01/15/2018 02:50:00 0.4052
2018_01_14_S20 01/15/2018 02:55:00 0.0121
2018_01_14_S20 01/15/2018 03:00:00 0.0733
2018_01_14_S20 01/15/2018 03:05:00 0.0136
2018_01_14_S20 01/15/2018 03:10:00 0.0007
2018_01_14_S20 01/15/2018 03:15:00 0.0
2018_01_14_S20 01/15/2018 03:20:00 0.0
2018_01_14_S20 01/15/2018 03:25:00 0.0
2018_01_14_S20 01/15/2018 03:30:00 0.0
2018_01_14_S20 01/15/2018 03:35:00 0.0
2018_01_14_S20 01/15/2018 03:40:00 0.0
2018_01_14_S20 01/15/2018 03:45:00 0.0
2018_01_14_S20 01/15/2018 03:50:00 0.0
2018_01_14_S20 01/15/2018 03:55:00 0.0
2018_01_14_S20 01/15/2018 04:00:00 0.0
2018_01_14_S20 01/15/2018 04:05:00 0.0
2018_01_14_S20 01/15/2018 04:10:00 0.0
2018_01_14_S20 01/15/2018 04:15:00 0.0
2018_01_14_S20 01/15/2018 04:20:00 0.0
2018_01_14_S20 01/15/2018 04:25:00 0.0
2018_01_14_S20 01/15/2018 04:30:00 0.0
2018_01_14_S20 01/15/2018 04:35:00 0.0
2018_01_14_S20 01/15/2018 04:40:00 0.0
2018_01_14_S20 01/15/2018 04:45:00 0.0
2018_01_14_S20 01/15/2018 04:50:00 0.0
2018_01_14_S20 01/15/2018 04:55:00 0.0
2018_01_14_S20 01/15/2018 05:00:00 0.0
2018_01_14_S20 01/15/2018 05:05:00 0.0
2018_01_14_S20 01/15/2018 05:10:00 0.0
2018_01_14_S20 01/15/2018 05:15:00 0.0
2018_01_14_S20 01/15/2018 05:20:00 0.0
2018_01_14_S20 01/15/2018 05:25:00 0.0
2018_01_14_S20 01/15/2018 05:30:00 0.0
2018_01_14_S20 01/15/2018 05:35:00 0.0
2018_01_14_S20 01/15/2018 05:40:00 0.0
2018_01_14_S20 01/15/2018 05:45:00 0.0
2018_01_14_S20 01/15/2018 05:50:00 0.0
2018_01_14_S20 01/15/2018 05:55:00 0.0
2018_01_14_S20 01/15/2018 06:00:00 0.0
2018_01_14_S20 01/15/2018 06:05:00 0.0
2018_01_14_S20 01/15/2018 06:10:00 0.0
2018_01_14_S20 01/15/2018 06:15:00 0.0
2018_01_14_S20 01/15/2018 06:20:00 0.0111
2018_01_14_S20 01/15/2018 06:25:00 0.0
2018_01_14_S20 01/15/2018 06:30:00 0.0
2018_01_14_S20 01/15/2018 06:35:00 0.0
2018_01_14_S20 01/15/2018 06:40:00 0.0
2018_01_14_S20 01/15/2018 06:45:00 0.0
2018_01_14_S20 01/15/2018 06:50:00 0.0
2018_01_14_S20 01/15/2018 06:55:00 0.0
2018_01_14_S20 01/15/2018 07:00:00 0.0
2018_01_14_S20 01/15/2018 07:05:00 0.0
2018_01_14_S20 01/15/2018 07:10:00 0.0
2018_01_14_S20 01/15/2018 07:15:00 0.0
2018_01_14_S20 01/15/2018 07:20:00 0.0539
2018_01_14_S20 01/15/2018 07:25:00 0.3207
2018_01_14_S20 01/15/2018 07:30:00 0.0094
2018_01_14_S20 01/15/2018 07:35:00 0.0
2018_01_14_S20 01/15/2018 07:40:00 0.0
2018_01_14_S20 01/15/2018 07:45:00 0.0
2018_01_14_S20 01/15/2018 07:50:00 0.0
2018_01_14_S20 01/15/2018 07:55:00 0.0
2018_01_14_S20 01/15/2018 08:00:00 0.0

2018_01_14_S21 01/13/2018 08:00:00 0.0
2018_01_14_S21 01/13/2018 08:05:00 0.0
2018_01_14_S21 01/13/2018 08:10:00 0.0
2018_01_14_S21 01/13/2018 08:15:00 0.0
2018_01_14_S21 01/13/2018 08:20:00 0.0
2018_01_14_S21 01/13/2018 08:25:00 0.0
2018_01_14_S21 01/13/2018 08:30:00 0.0
2018_01_14_S21 01/13/2018 08:35:00 0.0
2018_01_14_S21 01/13/2018 08:40:00 0.0
2018_01_14_S21 01/13/2018 08:45:00 0.0
2018_01_14_S21 01/13/2018 08:50:00 0.0
2018_01_14_S21 01/13/2018 08:55:00 0.0
2018_01_14_S21 01/13/2018 09:00:00 0.0
2018_01_14_S21 01/13/2018 09:05:00 0.0
2018_01_14_S21 01/13/2018 09:10:00 0.0
2018_01_14_S21 01/13/2018 09:15:00 0.0
2018_01_14_S21 01/13/2018 09:20:00 0.0
2018_01_14_S21 01/13/2018 09:25:00 0.0
2018_01_14_S21 01/13/2018 09:30:00 0.0
2018_01_14_S21 01/13/2018 09:35:00 0.0
2018_01_14_S21 01/13/2018 09:40:00 0.0
2018_01_14_S21 01/13/2018 09:45:00 0.0
2018_01_14_S21 01/13/2018 09:50:00 0.0
2018_01_14_S21 01/13/2018 09:55:00 0.0
2018_01_14_S21 01/13/2018 10:00:00 0.0
2018_01_14_S21 01/13/2018 10:05:00 0.0
2018_01_14_S21 01/13/2018 10:10:00 0.0
2018_01_14_S21 01/13/2018 10:15:00 0.0
2018_01_14_S21 01/13/2018 10:20:00 0.0
2018_01_14_S21 01/13/2018 10:25:00 0.0
2018_01_14_S21 01/13/2018 10:30:00 0.0
2018_01_14_S21 01/13/2018 10:35:00 0.0
2018_01_14_S21 01/13/2018 10:40:00 0.0
2018_01_14_S21 01/13/2018 10:45:00 0.0
2018_01_14_S21 01/13/2018 10:50:00 0.0
2018_01_14_S21 01/13/2018 10:55:00 0.0
2018_01_14_S21 01/13/2018 11:00:00 0.0
2018_01_14_S21 01/13/2018 11:05:00 0.0
2018_01_14_S21 01/13/2018 11:10:00 0.0
2018_01_14_S21 01/13/2018 11:15:00 0.0
2018_01_14_S21 01/13/2018 11:20:00 0.0
2018_01_14_S21 01/13/2018 11:25:00 0.0
2018_01_14_S21 01/13/2018 11:30:00 0.0
2018_01_14_S21 01/13/2018 11:35:00 0.0
2018_01_14_S21 01/13/2018 11:40:00 0.0
2018_01_14_S21 01/13/2018 11:45:00 0.0
2018_01_14_S21 01/13/2018 11:50:00 0.0
2018_01_14_S21 01/13/2018 11:55:00 0.0
2018_01_14_S21 01/13/2018 12:00:00 0.0
2018_01_14_S21 01/13/2018 12:05:00 0.0
2018_01_14_S21 01/13/2018 12:10:00 0.0
2018_01_14_S21 01/13/2018 12:15:00 0.0
2018_01_14_S21 01/13/2018 12:20:00 0.0
2018_01_14_S21 01/13/2018 12:25:00 0.0
2018_01_14_S21 01/13/2018 12:30:00 0.0
2018_01_14_S21 01/13/2018 12:35:00 0.0
2018_01_14_S21 01/13/2018 12:40:00 0.0
2018_01_14_S21 01/13/2018 12:45:00 0.0
2018_01_14_S21 01/13/2018 12:50:00 0.0
2018_01_14_S21 01/13/2018 12:55:00 0.0
2018_01_14_S21 01/13/2018 13:00:00 0.0
2018_01_14_S21 01/13/2018 13:05:00 0.0
2018_01_14_S21 01/13/2018 13:10:00 0.0
2018_01_14_S21 01/13/2018 13:15:00 0.0
2018_01_14_S21 01/13/2018 13:20:00 0.0
2018_01_14_S21 01/13/2018 13:25:00 0.0
2018_01_14_S21 01/13/2018 13:30:00 0.0
2018_01_14_S21 01/13/2018 13:35:00 0.0
2018_01_14_S21 01/13/2018 13:40:00 0.0
2018_01_14_S21 01/13/2018 13:45:00 0.0
2018_01_14_S21 01/13/2018 13:50:00 0.0
2018_01_14_S21 01/13/2018 13:55:00 0.0
2018_01_14_S21 01/13/2018 14:00:00 0.0
2018_01_14_S21 01/13/2018 14:05:00 0.0
2018_01_14_S21 01/13/2018 14:10:00 0.0
2018_01_14_S21 01/13/2018 14:15:00 0.0
2018_01_14_S21 01/13/2018 14:20:00 0.0
2018_01_14_S21 01/13/2018 14:25:00 0.0
2018_01_14_S21 01/13/2018 14:30:00 0.0
2018_01_14_S21 01/13/2018 14:35:00 0.0
2018_01_14_S21 01/13/2018 14:40:00 0.0
2018_01_14_S21 01/13/2018 14:45:00 0.0
2018_01_14_S21 01/13/2018 14:50:00 0.0
2018_01_14_S21 01/13/2018 14:55:00 0.0
2018_01_14_S21 01/13/2018 15:00:00 0.0
2018_01_14_S21 01/13/2018 15:05:00 0.0
2018_01_14_S21 01/13/2018 15:10:00 0.0
2018_01_14_S21 01/13/2018 15:15:00 0.0
2018_01_14_S21 01/13/2018 15:20:00 0.0
2018_01_14_S21 01/13/2018 15:25:00 0.0
2018_01_14_S21 01/13/2018 15:30:00 0.0
2018_01_14_S21 01/13/2018 15:35:00 0.0
2018_01_14_S21 01/13/2018 15:40:00 0.0
2018_01_14_S21 01/13/2018 15:45:00 0.0
2018_01_14_S21 01/13/2018 15:50:00 0.0
2018_01_14_S21 01/13/2018 15:55:00 0.0
2018_01_14_S21 01/13/2018 16:00:00 0.0
2018_01_14_S21 01/13/2018 16:05:00 0.0
2018_01_14_S21 01/13/2018 16:10:00 0.0
2018_01_14_S21 01/13/2018 16:15:00 0.0
2018_01_14_S21 01/13/2018 16:20:00 0.0
2018_01_14_S21 01/13/2018 16:25:00 0.0
2018_01_14_S21 01/13/2018 16:30:00 0.0
2018_01_14_S21 01/13/2018 16:35:00 0.0
2018_01_14_S21 01/13/2018 16:40:00 0.0
2018_01_14_S21 01/13/2018 16:45:00 0.0
2018_01_14_S21 01/13/2018 16:50:00 0.0
2018_01_14_S21 01/13/2018 16:55:00 0.0
2018_01_14_S21 01/13/2018 17:00:00 0.0
2018_01_14_S21 01/13/2018 17:05:00 0.0
2018_01_14_S21 01/13/2018 17:10:00 0.0
2018_01_14_S21 01/13/2018 17:15:00 0.0
2018_01_14_S21 01/13/2018 17:20:00 0.0
2018_01_14_S21 01/13/2018 17:25:00 0.0
2018_01_14_S21 01/13/2018 17:30:00 0.0
2018_01_14_S21 01/13/2018 17:35:00 0.0
2018_01_14_S21 01/13/2018 17:40:00 0.0
2018_01_14_S21 01/13/2018 17:45:00 0.0
2018_01_14_S21 01/13/2018 17:50:00 0.0
2018_01_14_S21 01/13/2018 17:55:00 0.0
2018_01_14_S21 01/13/2018 18:00:00 0.0
2018_01_14_S21 01/13/2018 18:05:00 0.0
2018_01_14_S21 01/13/2018 18:10:00 0.0
2018_01_14_S21 01/13/2018 18:15:00 0.0
2018_01_14_S21 01/13/2018 18:20:00 0.0
2018_01_14_S21 01/13/2018 18:25:00 0.0
2018_01_14_S21 01/13/2018 18:30:00 0.0
2018_01_14_S21 01/13/2018 18:35:00 0.0
2018_01_14_S21 01/13/2018 18:40:00 0.0
2018_01_14_S21 01/13/2018 18:45:00 0.0
2018_01_14_S21 01/13/2018 18:50:00 0.0
2018_01_14_S21 01/13/2018 18:55:00 0.0
2018_01_14_S21 01/13/2018 19:00:00 0.0
2018_01_14_S21 01/13/2018 19:05:00 0.0
2018_01_14_S21 01/13/2018 19:10:00 0.0
2018_01_14_S21 01/13/2018 19:15:00 0.0
2018_01_14_S21 01/13/2018 19:20:00 0.0
2018_01_14_S21 01/13/2018 19:25:00 0.0
2018_01_14_S21 01/13/2018 19:30:00 0.0
2018_01_14_S21 01/13/2018 19:35:00 0.0
2018_01_14_S21 01/13/2018 19:40:00 0.0
2018_01_14_S21 01/13/2018 19:45:00 0.0
2018_01_14_S21 01/13/2018 19:50:00 0.0
2018_01_14_S21 01/13/2018 19:55:00 0.0
2018_01_14_S21 01/13/2018 20:00:00 0.0
2018_01_14_S21 01/13/2018 20:05:00 0.0
2018_01_14_S21 01/13/2018 20:10:00 0.0
2018_01_14_S21 01/13/2018 20:15:00 0.0
2018_01_14_S21 01/13/2018 20:20:00 0.0
2018_01_14_S21 01/13/2018 20:25:00 0.0
2018_01_14_S21 01/13/2018 20:30:00 0.0
2018_01_14_S21 01/13/2018 20:35:00 0.0
2018_01_14_S21 01/13/2018 20:40:00 0.0
2018_01_14_S21 01/13/2018 20:45:00 0.0
2018_01_14_S21 01/13/2018 20:50:00 0.0
2018_01_14_S21 01/13/2018 20:55:00 0.0
2018_01_14_S21 01/13/2018 21:00:00 0.0
2018_01_14_S21 01/13/2018 21:05:00 0.0
2018_01_14_S21 01/13/2018 21:10:00 0.0
2018_01_14_S21 01/13/2018 21:15:00 0.0
2018_01_14_S21 01/13/2018 21:20:00 0.0
2018_01_14_S21 01/13/2018 21:25:00 0.0
2018_01_14_S21 01/13/2018 21:30:00 0.0
2018_01_14_S21 01/13/2018 21:35:00 0.0
2018_01_14_S21 01/13/2018 21:40:00 0.0
2018_01_14_S21 01/13/2018 21:45:00 0.0
2018_01_14_S21 01/13/2018 21:50:00 0.0
2018_01_14_S21 01/13/2018 21:55:00 0.0
2018_01_14_S21 01/13/2018 22:00:00 0.0
2018_01_14_S21 01/13/2018 22:05:00 0.0
2018_01_14_S21 01/13/2018 22:10:00 0.0
2018_01_14_S21 01/13/2018 22:15:00 0.0
2018_01_14_S21 01/13/2018 22:20:00 0.0
2018_01_14_S21 01/13/2018 22:25:00 0.0
2018_01_14_S21 01/13/2018 22:30:00 0.0
2018_01_14_S21 01/13/2018 22:35:00 0.0
2018_01_14_S21 01/13/2018 22:40:00 0.0
2018_01_14_S21 01/13/2018 22:45:00 0.0
2018_01_14_S21 01/13/2018 22:50:00 0.0
2018_01_14_S21 01/13/2018 22:55:00 0.0
2018_01_14_S21 01/13/2018 23:00:00 0.0
2018_01_14_S21 01/13/2018 23:05:00 0.0
2018_01_14_S21 01/13/2018 23:10:00 0.0
2018_01_14_S21 01/13/2018 23:15:00 0.0
2018_01_14_S21 01/13/2018 23:20:00 0.0
2018_01_14_S21 01/13/2018 23:25:00 0.0
2018_01_14_S21 01/13/2018 23:30:00 0.0
2018_01_14_S21 01/13/2018 23:35:00 0.0
2018_01_14_S21 01/13/2018 23:40:00 0.0
2018_01_14_S21 01/13/2018 23:45:00 0.0
2018_01_14_S21 01/13/2018 23:50:00 0.0
2018_01_14_S21 01/13/2018 23:55:00 0.0
2018_01_14_S21 01/14/2018 00:00:00 0.0
2018_01_14_S21 01/14/2018 00:05:00 0.0
2018_01_14_S21 01/14/2018 00:10:00 0.0
2018_01_14_S21 01/14/2018 00:15:00 0.0
2018_01_14_S21 01/14/2018 00:20:00 0.0
2018_01_14_S21 01/14/2018 00:25:00 0.0
2018_01_14_S21 01/14/2018 00:30:00 0.0
2018_01_14_S21 01/14/2018 00:35:00 0.0
2018_01_14_S21 01/14/2018 00:40:00 0.0
2018_01_14_S21 01/14/2018 00:45:00 0.0
2018_01_14_S21 01/14/2018 00:50:00 0.0
2018_01_14_S21 01/14/2018 00:55:00 0.0
2018_01_14_S21 01/14/2018 01:00:00 0.0
2018_01_14_S21 01/14/2018 01:05:00 0.0
2018_01_14_S21 01/14/2018 01:10:00 0.0
2018_01_14_S21 01/14/2018 01:15:00 0.0
2018_01_14_S21 01/14/2018 01:20:00 0.0
2018_01_14_S21 01/14/2018 01:25:00 0.0
2018_01_14_S21 01/14/2018 01:30:00 0.0
2018_01_14_S21 01/14/2018 01:35:00 0.0
2018_01_14_S21 01/14/2018 01:40:00 0.0
2018_01_14_S21 01/14/2018 01:45:00 0.0
2018_01_14_S21 01/14/2018 01:50:00 0.0
2018_01_14_S21 01/14/2018 01:55:00 0.0
2018_01_14_S21 01/14/2018 02:00:00 0.0
2018_01_14_S21 01/14/2018 02:05:00 0.0
2018_01_14_S21 01/14/2018 02:10:00 0.0
2018_01_14_S21 01/14/2018 02:15:00 0.0
2018_01_14_S21 01/14/2018 02:20:00 0.0
2018_01_14_S21 01/14/2018 02:25:00 0.0
2018_01_14_S21 01/14/2018 02:30:00 0.0
2018_01_14_S21 01/14/2018 02:35:00 0.0
2018_01_14_S21 01/14/2018 02:40:00 0.0
2018_01_14_S21 01/14/2018 02:45:00 0.0
2018_01_14_S21 01/14/2018 02:50:00 0.0
2018_01_14_S21 01/14/2018 02:55:00 0.0
2018_01_14_S21 01/14/2018 03:00:00 0.004
2018_01_14_S21 01/14/2018 03:05:00 0.0116
2018_01_14_S21 01/14/2018 03:10:00 0.0301
2018_01_14_S21 01/14/2018 03:15:00 0.0047
2018_01_14_S21 01/14/2018 03:20:00 0.0
2018_01_14_S21 01/14/2018 03:25:00 0.0
2018_01_14_S21 01/14/2018 03:30:00 0.0
2018_01_14_S21 01/14/2018 03:35:00 0.0
2018_01_14_S21 01/14/2018 03:40:00 0.0
2018_01_14_S21 01/14/2018 03:45:00 0.0
2018_01_14_S21 01/14/2018 03:50:00 0.0
2018_01_14_S21 01/14/2018 03:55:00 0.0
2018_01_14_S21 01/14/2018 04:00:00 0.0
2018_01_14_S21 01/14/2018 04:05:00 0.0
2018_01_14_S21 01/14/2018 04:10:00 0.0
2018_01_14_S21 01/14/2018 04:15:00 0.0
2018_01_14_S21 01/14/2018 04:20:00 0.0
2018_01_14_S21 01/14/2018 04:25:00 0.0
2018_01_14_S21 01/14/2018 04:30:00 0.0
2018_01_14_S21 01/14/2018 04:35:00 0.0
2018_01_14_S21 01/14/2018 04:40:00 0.0
2018_01_14_S21 01/14/2018 04:45:00 0.0
2018_01_14_S21 01/14/2018 04:50:00 0.0
2018_01_14_S21 01/14/2018 04:55:00 0.0
2018_01_14_S21 01/14/2018 05:00:00 0.0
2018_01_14_S21 01/14/2018 05:05:00 0.0
2018_01_14_S21 01/14/2018 05:10:00 0.0
2018_01_14_S21 01/14/2018 05:15:00 0.0
2018_01_14_S21 01/14/2018 05:20:00 0.0
2018_01_14_S21 01/14/2018 05:25:00 0.0
2018_01_14_S21 01/14/2018 05:30:00 0.0
2018_01_14_S21 01/14/2018 05:35:00 0.0
2018_01_14_S21 01/14/2018 05:40:00 0.0
2018_01_14_S21 01/14/2018 05:45:00 0.0
2018_01_14_S21 01/14/2018 05:50:00 0.0
2018_01_14_S21 01/14/2018 05:55:00 0.0054
2018_01_14_S21 01/14/2018 06:00:00 1.6888
2018_01_14_S21 01/14/2018 06:05:00 5.3913
2018_01_14_S21 01/14/2018 06:10:00 1.3448
2018_01_14_S21 01/14/2018 06:15:00 0.0042
2018_01_14_S21 01/14/2018 06:20:00 0.0123
2018_01_14_S21 01/14/2018 06:25:00 2.4675
2018_01_14_S21 01/14/2018 06:30:00 0.0508
2018_01_14_S21 01/14/2018 06:35:00 0.0021
2018_01_14_S21 01/14/2018 06:40:00 0.0
2018_01_14_S21 01/14/2018 06:45:00 0.0
2018_01_14_S21 01/14/2018 06:50:00 0.0
2018_01_14_S21 01/14/2018 06:55:00 0.0
2018_01_14_S21 01/14/2018 07:00:00 0.0
2018_01_14_S21 01/14/2018 07:05:00 0.0
2018_01_14_S21 01/14/2018 07:10:00 0.0
2018_01_14_S21 01/14/2018 07:15:00 0.0
2018_01_14_S21 01/14/2018 07:20:00 0.0
2018_01_14_S21 01/14/2018 07:25:00 0.0
2018_01_14_S21 01/14/2018 07:30:00 0.0
2018_01_14_S21 01/14/2018 07:35:00 0.0
2018_01_14_S21 01/14/2018 07:40:00 0.0
2018_01_14_S21 01/14/2018 07:45:00 0.0
2018_01_14_S21 01/14/2018 07:50:00 0.0172
2018_01_14_S21 01/14/2018 07:55:00 0.0122
2018_01_14_S21 01/14/2018 08:00:00 0.0
2018_01_14_S21 01/14/2018 08:05:00 0.0
2018_01_14_S21 01/14/2018 08:10:00 0.0
2018_01_14_S21 01/14/2018 08:15:00 0.0
2018_01_14_S21 01/14/2018 08:20:00 0.0
2018_01_14_S21 01/14/2018 08:25:00 0.0
2018_01_14_S21 01/14/2018 08:30:00 0.0121
2018_01_14_S21 01/14/2018 08:35:00 0.0167
2018_01_14_S21 01/14/2018 08:40:00 0.7705
2018_01_14_S21 01/14/2018 08:45:00 0.0
2018_01_14_S21 01/14/2018 08:50:00 0.0
2018_01_14_S21 01/14/2018 08:55:00 0.0
2018_01_14_S21 01/14/2018 09:00:00 0.0
2018_01_14_S21 01/14/2018 09:05:00 0.0
2018_01_14_S21 01/14/2018 09:10:00 0.0
2018_01_14_S21 01/14/2018 09:15:00 0.0
2018_01_14_S21 01/14/2018 09:20:00 0.0
2018_01_14_S21 01/14/2018 09:25:00 0.0
2018_01_14_S21 01/14/2018 09:30:00 0.0
2018_01_14_S21 01/14/2018 09:35:00 0.0
2018_01_14_S21 01/14/2018 09:40:00 0.0
2018_01_14_S21 01/14/2018 09:45:00 0.0
2018_01_14_S21 01/14/2018 09:50:00 0.0
2018_01_14_S21 01/14/2018 09:55:00 0.0
2018_01_14_S21 01/14/2018 10:00:00 0.0
2018_01_14_S21 01/14/2018 10:05:00 0.0
2018_01_14_S21 01/14/2018 10:10:00 0.0
2018_01_14_S21 01/14/2018 10:15:00 0.0
2018_01_14_S21 01/14/2018 10:20:00 0.0
2018_01_14_S21 01/14/2018 10:25:00 0.0
2018_01_14_S21 01/14/2018 10:30:00 0.0
2018_01_14_S21 01/14/2018 10:35:00 0.0
2018_01_14_S21 01/14/2018 10:40:00 0.0
2018_01_14_S21 01/14/2018 10:45:00 0.0
2018_01_14_S21 01/14/2018 10:50:00 0.0
2018_01_14_S21 01/14/2018 10:55:00 0.0
2018_01_14_S21 01/14/2018 11:00:00 0.0
2018_01_14_S21 01/14/2018 11:05:00 0.0
2018_01_14_S21 01/14/2018 11:10:00 0.0
2018_01_14_S21 01/14/2018 11:15:00 0.0
2018_01_14_S21 01/14/2018 11:20:00 0.0
2018_01_14_S21 01/14/2018 11:25:00 0.0
2018_01_14_S21 01/14/2018 11:30:00 0.0
2018_01_14_S21 01/14/2018 11:35:00 0.0
2018_01_14_S21 01/14/2018 11:40:00 0.0
2018_01_14_S21 01/14/2018 11:45:00 0.0
2018_01_14_S21 01/14/2018 11:50:00 0.0
2018_01_14_S21 01/14/2018 11:55:00 0.0
2018_01_14_S21 01/14/2018 12:00:00 0.0
2018_01_14_S21 01/14/2018 12:05:00 0.0
2018_01_14_S21 01/14/2018 12:10:00 0.0
2018_01_14_S21 01/14/2018 12:15:00 0.0
2018_01_14_S21 01/14/2018 12:20:00 0.0
2018_01_14_S21 01/14/2018 12:25:00 0.0
2018_01_14_S21 01/14/2018 12:30:00 0.0
2018_01_14_S21 01/14/2018 12:35:00 0.0
2018_01_14_S21 01/14/2018 12:40:00 0.0
2018_01_14_S21 01/14/2018 12:45:00 0.0
2018_01_14_S21 01/14/2018 12:50:00 0.0
2018_01_14_S21 01/14/2018 12:55:00 0.0
2018_01_14_S21 01/14/2018 13:00:00 0.0
2018_01_14_S21 01/14/2018 13:05:00 0.0
2018_01_14_S21 01/14/2018 13:10:00 0.0
2018_01_14_S21 01/14/2018 13:15:00 0.0
2018_01_14_S21 01/14/2018 13:20:00 0.0
2018_01_14_S21 01/14/2018 13:25:00 0.0
2018_01_14_S21 01/14/2018 13:30:00 0.0
2018_01_14_S21 01/14/2018 13:35:00 0.0
2018_01_14_S21 01/14/2018 13:40:00 0.0
2018_01_14_S21 01/14/2018 13:45:00 0.0
2018_01_14_S21 01/14/2018 13:50:00 0.0
2018_01_14_S21 01/14/2018 13:55:00 0.0
2018_01_14_S21 01/14/2018 14:00:00 0.0
2018_01_14_S21 01/14/2018 14:05:00 0.0
2018_01_14_S21 01/14/2018 14:10:00 0.0
2018_01_14_S21 01/14/2018 14:15:00 0.0
2018_01_14_S21 01/14/2018 14:20:00 0.0
2018_01_14_S21 01/14/2018 14:25:00 0.0
2018_01_14_S21 01/14/2018 14:30:00 0.0
2018_01_14_S21 01/14/2018 14:35:00 0.0
2018_01_14_S21 01/14/2018 14:40:00 0.0
2018_01_14_S21 01/14/2018 14:45:00 0.0
2018_01_14_S21 01/14/2018 14:50:00 0.0
2018_01_14_S21 01/14/2018 14:55:00 0.0
2018_01_14_S21 01/14/2018 15:00:00 0.0029
2018_01_14_S21 01/14/2018 15:05:00 0.0
2018_01_14_S21 01/14/2018 15:10:00 0.0
2018_01_14_S21 01/14/2018 15:15:00 0.0
2018_01_14_S21 01/14/2018 15:20:00 0.0
2018_01_14_S21 01/14/2018 15:25:00 0.0
2018_01_14_S21 01/14/2018 15:30:00 0.0
2018_01_14_S21 01/14/2018 15:35:00 0.0
2018_01_14_S21 01/14/2018 15:40:00 0.0
2018_01_14_S21 01/14/2018 15:45:00 0.0
2018_01_14_S21 01/14/2018 15:50:00 0.0
2018_01_14_S21 01/14/2018 15:55:00 0.0
2018_01_14_S21 01/14/2018 16:00:00 0.0
2018_01_14_S21 01/14/2018 16:05:00 0.0
2018_01_14_S21 01/14/2018 16:10:00 0.0
2018_01_14_S21 01/14/2018 16:15:00 0.0
2018_01_14_S21 01/14/2018 16:20:00 0.0
2018_01_14_S21 01/14/2018 16:25:00 0.0015
2018_01_14_S21 01/14/2018 16:30:00 0.0
2018_01_14_S21 01/14/2018 16:35:00 0.0
2018_01_14_S21 01/14/2018 16:40:00 0.0169
2018_01_14_S21 01/14/2018 16:45:00 0.0173
2018_01_14_S21 01/14/2018 16:50:00 0.1198
2018_01_14_S21 01/14/2018 16:55:00 0.1067
2018_01_14_S21 01/14/2018 17:00:00 0.0096
2018_01_14_S21 01/14/2018 17:05:00 0.0133
2018_01_14_S21 01/14/2018 17:10:00 0.2807
2018_01_14_S21 01/14/2018 17:15:00 0.0306
2018_01_14_S21 01/14/2018 17:20:00 0.0015
2018_01_14_S21 01/14/2018 17:25:00 0.0052
2018_01_14_S21 01/14/2018 17:30:00 0.0
2018_01_14_S21 01/14/2018 17:35:00 0.1473
2018_01_14_S21 01/14/2018 17:40:00 0.0618
2018_01_14_S21 01/14/2018 17:45:00 0.6513
2018_01_14_S21 01/14/2018 17:50:00 0.3361
2018_01_14_S21 01/14/2018 17:55:00 0.1392
2018_01_14_S21 01/14/2018 18:00:00 0.6966
2018_01_14_S21 01/14/2018 18:05:00 0.6423
2018_01_14_S21 01/14/2018 18:10:00 0.2416
2018_01_14_S21 01/14/2018 18:15:00 0.6022
2018_01_14_S21 01/14/2018 18:20:00 2.2985
2018_01_14_S21 01/14/2018 18:25:00 4.7302
2018_01_14_S21 01/14/2018 18:30:00 0.1417
2018_01_14_S21 01/14/2018 18:35:00 0.0149
2018_01_14_S21 01/14/2018 18:40:00 0.0
2018_01_14_S21 01/14/2018 18:45:00 0.2874
2018_01_14_S21 01/14/2018 18:50:00 2.5912
2018_01_14_S21 01/14/2018 18:55:00 0.0755
2018_01_14_S21 01/14/2018 19:00:00 1.913
2018_01_14_S21 01/14/2018 19:05:00 0.003
2018_01_14_S21 01/14/2018 19:10:00 0.0
2018_01_14_S21 01/14/2018 19:15:00 0.0
2018_01_14_S21 01/14/2018 19:20:00 0.0
2018_01_14_S21 01/14/2018 19:25:00 0.0
2018_01_14_S21 01/14/2018 19:30:00 0.0
2018_01_14_S21 01/14/2018 19:35:00 0.0
2018_01_14_S21 01/14/2018 19:40:00 0.0
2018_01_14_S21 01/14/2018 19:45:00 0.0
2018_01_14_S21 01/14/2018 19:50:00 0.0
2018_01_14_S21 01/14/2018 19:55:00 0.0
2018_01_14_S21 01/14/2018 20:00:00 0.0
2018_01_14_S21 01/14/2018 20:05:00 0.0
2018_01_14_S21 01/14/2018 20:10:00 0.0
2018_01_14_S21 01/14/2018 20:15:00 0.0
2018_01_14_S21 01/14/2018 20:20:00 0.0
2018_01_14_S21 01/14/2018 20:25:00 0.0
2018_01_14_S21 01/14/2018 20:30:00 0.0
2018_01_14_S21 01/14/2018 20:35:00 0.0
2018_01_14_S21 01/14/2018 20:40:00 0.0
2018_01_14_S21 01/14/2018 20:45:00 0.0
2018_01_14_S21 01/14/2018 20:50:00 0.0
2018_01_14_S21 01/14/2018 20:55:00 0.0
2018_01_14_S21 01/14/2018 21:00:00 0.0
2018_01_14_S21 01/14/2018 21:05:00 0.0
2018_01_14_S21 01/14/2018 21:10:00 0.0
2018_01_14_S21 01/14/2018 21:15:00 0.0
2018_01_14_S21 01/14/2018 21:20:00 0.0
2018_01_14_S21 01/14/2018 21:25:00 0.0
2018_01_14_S21 01/14/2018 21:30:00 0.0
2018_01_14_S21 01/14/2018 21:35:00 0.0
2018_01_14_S21 01/14/2018 21:40:00 0.0
2018_01_14_S21 01/14/2018 21:45:00 0.0
2018_01_14_S21 01/14/2018 21:50:00 0.0
2018_01_14_S21 01/14/2018 21:55:00 0.0
2018_01_14_S21 01/14/2018 22:00:00 0.0
2018_01_14_S21 01/14/2018 22:05:00 0.0
2018_01_14_S21 01/14/2018 22:10:00 0.0
2018_01_14_S21 01/14/2018 22:15:00 0.0
2018_01_14_S21 01/14/2018 22:20:00 0.0
2018_01_14_S21 01/14/2018 22:25:00 0.0
2018_01_14_S21 01/14/2018 22:30:00 0.0
2018_01_14_S21 01/14/2018 22:35:00 0.0
2018_01_14_S21 01/14/2018 22:40:00 0.0026
2018_01_14_S21 01/14/2018 22:45:00 0.0
2018_01_14_S21 01/14/2018 22:50:00 0.0
2018_01_14_S21 01/14/2018 22:55:00 0.003
2018_01_14_S21 01/14/2018 23:00:00 0.0233
2018_01_14_S21 01/14/2018 23:05:00 0.0
2018_01_14_S21 01/14/2018 23:10:00 0.0058
2018_01_14_S21 01/14/2018 23:15:00 0.0006
2018_01_14_S21 01/14/2018 23:20:00 0.0037
2018_01_14_S21 01/14/2018 23:25:00 0.0059
2018_01_14_S21 01/14/2018 23:30:00 0.0
2018_01_14_S21 01/14/2018 23:35:00 0.0
2018_01_14_S21 01/14/2018 23:40:00 0.0
2018_01_14_S21 01/14/2018 23:45:00 0.0
2018_01_14_S21 01/14/2018 23:50:00 0.0
2018_01_14_S21 01/14/2018 23:55:00 0.0
2018_01_14_S21 01/15/2018 00:00:00 0.0
2018_01_14_S21 01/15/2018 00:05:00 0.0
2018_01_14_S21 01/15/2018 00:10:00 0.0
2018_01_14_S21 01/15/2018 00:15:00 0.0
2018_01_14_S21 01/15/2018 00:20:00 0.0
2018_01_14_S21 01/15/2018 00:25:00 0.0
2018_01_14_S21 01/15/2018 00:30:00 0.0
2018_01_14_S21 01/15/2018 00:35:00 0.0
2018_01_14_S21 01/15/2018 00:40:00 0.0
2018_01_14_S21 01/15/2018 00:45:00 0.0
2018_01_14_S21 01/15/2018 00:50:00 0.0
2018_01_14_S21 01/15/2018 00:55:00 0.0
2018_01_14_S21 01/15/2018 01:00:00 0.0
2018_01_14_S21 01/15/2018 01:05:00 0.0
2018_01_14_S21 01/15/2018 01:10:00 0.0
2018_01_14_S21 01/15/2018 01:15:00 0.0
2018_01_14_S21 01/15/2018 01:20:00 0.0
2018_01_14_S21 01/15/2018 01:25:00 0.0
2018_01_14_S21 01/15/2018 01:30:00 0.0
2018_01_14_S21 01/15/2018 01:35:00 0.0
2018_01_14_S21 01/15/2018 01:40:00 0.0
2018_01_14_S21 01/15/2018 01:45:00 0.0
2018_01_14_S21 01/15/2018 01:50:00 0.0
2018_01_14_S21 01/15/2018 01:55:00 0.0
2018_01_14_S21 01/15/2018 02:00:00 0.0
2018_01_14_S21 01/15/2018 02:05:00 0.0
2018_01_14_S21 01/15/2018 02:10:00 0.0
2018_01_14_S21 01/15/2018 02:15:00 0.0
2018_01_14_S21 01/15/2018 02:20:00 0.0
2018_01_14_S21 01/15/2018 02:25:00 0.0094
2018_01_14_S21 01/15/2018 02:30:00 0.0021
2018_01_14_S21 01/15/2018 02:35:00 0.0
2018_01_14_S21 01/15/2018 02:40:00 0.098
2018_01_14_S21 01/15/2018 02:45:00 0.3496
2018_01_14_S21 01/15/2018 02:50:00 0.3987
2018_01_14_S21 01/15/2018 02:55:00 0.0582
2018_01_14_S21 01/15/2018 03:00:00 0.0301
2018_01_14_S21 01/15/2018 03:05:00 0.0351
2018_01_14_S21 01/15/2018 03:10:00 0.0022
2018_01_14_S21 01/15/2018 03:15:00 0.0
2018_01_14_S21 01/15/2018 03:20:00 0.0
2018_01_14_S21 01/15/2018 03:25:00 0.0
2018_01_14_S21 01/15/2018 03:30:00 0.0
2018_01_14_S21 01/15/2018 03:35:00 0.0
2018_01_14_S21 01/15/2018 03:40:00 0.0
2018_01_14_S21 01/15/2018 03:45:00 0.0
2018_01_14_S21 01/15/2018 03:50:00 0.0
2018_01_14_S21 01/15/2018 03:55:00 0.0
2018_01_14_S21 01/15/2018 04:00:00 0.0
2018_01_14_S21 01/15/2018 04:05:00 0.0
2018_01_14_S21 01/15/2018 04:10:00 0.0
2018_01_14_S21 01/15/2018 04:15:00 0.0
2018_01_14_S21 01/15/2018 04:20:00 0.0
2018_01_14_S21 01/15/2018 04:25:00 0.0
2018_01_14_S21 01/15/2018 04:30:00 0.0
2018_01_14_S21 01/15/2018 04:35:00 0.0
2018_01_14_S21 01/15/2018 04:40:00 0.0
2018_01_14_S21 01/15/2018 04:45:00 0.0
2018_01_14_S21 01/15/2018 04:50:00 0.0
2018_01_14_S21 01/15/2018 04:55:00 0.0
2018_01_14_S21 01/15/2018 05:00:00 0.0
2018_01_14_S21 01/15/2018 05:05:00 0.0
2018_01_14_S21 01/15/2018 05:10:00 0.0
2018_01_14_S21 01/15/2018 05:15:00 0.0
2018_01_14_S21 01/15/2018 05:20:00 0.0
2018_01_14_S21 01/15/2018 05:25:00 0.0
2018_01_14_S21 01/15/2018 05:30:00 0.0
2018_01_14_S21 01/15/2018 05:35:00 0.0
2018_01_14_S21 01/15/2018 05:40:00 0.0
2018_01_14_S21 01/15/2018 05:45:00 0.0
2018_01_14_S21 01/15/2018 05:50:00 0.0
2018_01_14_S21 01/15/2018 05:55:00 0.0
2018_01_14_S21 01/15/2018 06:00:00 0.0
2018_01_14_S21 01/15/2018 06:05:00 0.0
2018_01_14_S21 01/15/2018 06:10:00 0.0
2018_01_14_S21 01/15/2018 06:15:00 0.0
2018_01_14_S21 01/15/2018 06:20:00 0.0067
2018_01_14_S21 01/15/2018 06:25:00 0.0014
2018_01_14_S21 01/15/2018 06:30:00 0.0022
2018_01_14_S21 01/15/2018 06:35:00 0.0
2018_01_14_S21 01/15/2018 06:40:00 0.0
2018_01_14_S21 01/15/2018 06:45:00 0.0
2018_01_14_S21 01/15/2018 06:50:00 0.0
2018_01_14_S21 01/15/2018 06:55:00 0.0
2018_01_14_S21 01/15/2018 07:00:00 0.0149
2018_01_14_S21 01/15/2018 07:05:00 0.0
2018_01_14_S21 01/15/2018 07:10:00 0.0
2018_01_14_S21 01/15/2018 07:15:00 0.0
2018_01_14_S21 01/15/2018 07:20:00 0.0493
2018_01_14_S21 01/15/2018 07:25:00 0.4566
2018_01_14_S21 01/15/2018 07:30:00 0.1129
2018_01_14_S21 01/15/2018 07:35:00 0.0
2018_01_14_S21 01/15/2018 07:40:00 0.0
2018_01_14_S21 01/15/2018 07:45:00 0.0
2018_01_14_S21 01/15/2018 07:50:00 0.0
2018_01_14_S21 01/15/2018 07:55:00 0.0
2018_01_14_S21 01/15/2018 08:00:00 0.0

2018_01_14_S22 01/13/2018 08:00:00 0.0
2018_01_14_S22 01/13/2018 08:05:00 0.0
2018_01_14_S22 01/13/2018 08:10:00 0.0
2018_01_14_S22 01/13/2018 08:15:00 0.0
2018_01_14_S22 01/13/2018 08:20:00 0.0
2018_01_14_S22 01/13/2018 08:25:00 0.0
2018_01_14_S22 01/13/2018 08:30:00 0.0
2018_01_14_S22 01/13/2018 08:35:00 0.0
2018_01_14_S22 01/13/2018 08:40:00 0.0
2018_01_14_S22 01/13/2018 08:45:00 0.0
2018_01_14_S22 01/13/2018 08:50:00 0.0
2018_01_14_S22 01/13/2018 08:55:00 0.0
2018_01_14_S22 01/13/2018 09:00:00 0.0
2018_01_14_S22 01/13/2018 09:05:00 0.0
2018_01_14_S22 01/13/2018 09:10:00 0.0
2018_01_14_S22 01/13/2018 09:15:00 0.0
2018_01_14_S22 01/13/2018 09:20:00 0.0
2018_01_14_S22 01/13/2018 09:25:00 0.0
2018_01_14_S22 01/13/2018 09:30:00 0.0
2018_01_14_S22 01/13/2018 09:35:00 0.0
2018_01_14_S22 01/13/2018 09:40:00 0.0
2018_01_14_S22 01/13/2018 09:45:00 0.0
2018_01_14_S22 01/13/2018 09:50:00 0.0
2018_01_14_S22 01/13/2018 09:55:00 0.0
2018_01_14_S22 01/13/2018 10:00:00 0.0
2018_01_14_S22 01/13/2018 10:05:00 0.0
2018_01_14_S22 01/13/2018 10:10:00 0.0
2018_01_14_S22 01/13/2018 10:15:00 0.0
2018_01_14_S22 01/13/2018 10:20:00 0.0
2018_01_14_S22 01/13/2018 10:25:00 0.0
2018_01_14_S22 01/13/2018 10:30:00 0.0
2018_01_14_S22 01/13/2018 10:35:00 0.0
2018_01_14_S22 01/13/2018 10:40:00 0.0
2018_01_14_S22 01/13/2018 10:45:00 0.0
2018_01_14_S22 01/13/2018 10:50:00 0.0
2018_01_14_S22 01/13/2018 10:55:00 0.0
2018_01_14_S22 01/13/2018 11:00:00 0.0
2018_01_14_S22 01/13/2018 11:05:00 0.0
2018_01_14_S22 01/13/2018 11:10:00 0.0
2018_01_14_S22 01/13/2018 11:15:00 0.0
2018_01_14_S22 01/13/2018 11:20:00 0.0
2018_01_14_S22 01/13/2018 11:25:00 0.0
2018_01_14_S22 01/13/2018 11:30:00 0.0
2018_01_14_S22 01/13/2018 11:35:00 0.0
2018_01_14_S22 01/13/2018 11:40:00 0.0
2018_01_14_S22 01/13/2018 11:45:00 0.0
2018_01_14_S22 01/13/2018 11:50:00 0.0
2018_01_14_S22 01/13/2018 11:55:00 0.0
2018_01_14_S22 01/13/2018 12:00:00 0.0
2018_01_14_S22 01/13/2018 12:05:00 0.0
2018_01_14_S22 01/13/2018 12:10:00 0.0
2018_01_14_S22 01/13/2018 12:15:00 0.0
2018_01_14_S22 01/13/2018 12:20:00 0.0
2018_01_14_S22 01/13/2018 12:25:00 0.0
2018_01_14_S22 01/13/2018 12:30:00 0.0
2018_01_14_S22 01/13/2018 12:35:00 0.0
2018_01_14_S22 01/13/2018 12:40:00 0.0
2018_01_14_S22 01/13/2018 12:45:00 0.0
2018_01_14_S22 01/13/2018 12:50:00 0.0
2018_01_14_S22 01/13/2018 12:55:00 0.0
2018_01_14_S22 01/13/2018 13:00:00 0.0
2018_01_14_S22 01/13/2018 13:05:00 0.0
2018_01_14_S22 01/13/2018 13:10:00 0.0
2018_01_14_S22 01/13/2018 13:15:00 0.0
2018_01_14_S22 01/13/2018 13:20:00 0.0
2018_01_14_S22 01/13/2018 13:25:00 0.0
2018_01_14_S22 01/13/2018 13:30:00 0.0
2018_01_14_S22 01/13/2018 13:35:00 0.0
2018_01_14_S22 01/13/2018 13:40:00 0.0
2018_01_14_S22 01/13/2018 13:45:00 0.0
2018_01_14_S22 01/13/2018 13:50:00 0.0
2018_01_14_S22 01/13/2018 13:55:00 0.0
2018_01_14_S22 01/13/2018 14:00:00 0.0
2018_01_14_S22 01/13/2018 14:05:00 0.0
2018_01_14_S22 01/13/2018 14:10:00 0.0
2018_01_14_S22 01/13/2018 14:15:00 0.0
2018_01_14_S22 01/13/2018 14:20:00 0.0
2018_01_14_S22 01/13/2018 14:25:00 0.0
2018_01_14_S22 01/13/2018 14:30:00 0.0
2018_01_14_S22 01/13/2018 14:35:00 0.0
2018_01_14_S22 01/13/2018 14:40:00 0.0
2018_01_14_S22 01/13/2018 14:45:00 0.0
2018_01_14_S22 01/13/2018 14:50:00 0.0
2018_01_14_S22 01/13/2018 14:55:00 0.0
2018_01_14_S22 01/13/2018 15:00:00 0.0
2018_01_14_S22 01/13/2018 15:05:00 0.0
2018_01_14_S22 01/13/2018 15:10:00 0.0
2018_01_14_S22 01/13/2018 15:15:00 0.0
2018_01_14_S22 01/13/2018 15:20:00 0.0
2018_01_14_S22 01/13/2018 15:25:00 0.0
2018_01_14_S22 01/13/2018 15:30:00 0.0
2018_01_14_S22 01/13/2018 15:35:00 0.0
2018_01_14_S22 01/13/2018 15:40:00 0.0
2018_01_14_S22 01/13/2018 15:45:00 0.0
2018_01_14_S22 01/13/2018 15:50:00 0.0
2018_01_14_S22 01/13/2018 15:55:00 0.0
2018_01_14_S22 01/13/2018 16:00:00 0.0
2018_01_14_S22 01/13/2018 16:05:00 0.0
2018_01_14_S22 01/13/2018 16:10:00 0.0
2018_01_14_S22 01/13/2018 16:15:00 0.0
2018_01_14_S22 01/13/2018 16:20:00 0.0
2018_01_14_S22 01/13/2018 16:25:00 0.0
2018_01_14_S22 01/13/2018 16:30:00 0.0
2018_01_14_S22 01/13/2018 16:35:00 0.0
2018_01_14_S22 01/13/2018 16:40:00 0.0
2018_01_14_S22 01/13/2018 16:45:00 0.0
2018_01_14_S22 01/13/2018 16:50:00 0.0
2018_01_14_S22 01/13/2018 16:55:00 0.0
2018_01_14_S22 01/13/2018 17:00:00 0.0
2018_01_14_S22 01/13/2018 17:05:00 0.0
2018_01_14_S22 01/13/2018 17:10:00 0.0
2018_01_14_S22 01/13/2018 17:15:00 0.0
2018_01_14_S22 01/13/2018 17:20:00 0.0
2018_01_14_S22 01/13/2018 17:25:00 0.0
2018_01_14_S22 01/13/2018 17:30:00 0.0
2018_01_14_S22 01/13/2018 17:35:00 0.0
2018_01_14_S22 01/13/2018 17:40:00 0.0
2018_01_14_S22 01/13/2018 17:45:00 0.0
2018_01_14_S22 01/13/2018 17:50:00 0.0
2018_01_14_S22 01/13/2018 17:55:00 0.0
2018_01_14_S22 01/13/2018 18:00:00 0.0
2018_01_14_S22 01/13/2018 18:05:00 0.0
2018_01_14_S22 01/13/2018 18:10:00 0.0
2018_01_14_S22 01/13/2018 18:15:00 0.0
2018_01_14_S22 01/13/2018 18:20:00 0.0
2018_01_14_S22 01/13/2018 18:25:00 0.0
2018_01_14_S22 01/13/2018 18:30:00 0.0
2018_01_14_S22 01/13/2018 18:35:00 0.0
2018_01_14_S22 01/13/2018 18:40:00 0.0
2018_01_14_S22 01/13/2018 18:45:00 0.0
2018_01_14_S22 01/13/2018 18:50:00 0.0
2018_01_14_S22 01/13/2018 18:55:00 0.0
2018_01_14_S22 01/13/2018 19:00:00 0.0
2018_01_14_S22 01/13/2018 19:05:00 0.0
2018_01_14_S22 01/13/2018 19:10:00 0.0
2018_01_14_S22 01/13/2018 19:15:00 0.0
2018_01_14_S22 01/13/2018 19:20:00 0.0
2018_01_14_S22 01/13/2018 19:25:00 0.0
2018_01_14_S22 01/13/2018 19:30:00 0.0
2018_01_14_S22 01/13/2018 19:35:00 0.0
2018_01_14_S22 01/13/2018 19:40:00 0.0
2018_01_14_S22 01/13/2018 19:45:00 0.0
2018_01_14_S22 01/13/2018 19:50:00 0.0
2018_01_14_S22 01/13/2018 19:55:00 0.0
2018_01_14_S22 01/13/2018 20:00:00 0.0
2018_01_14_S22 01/13/2018 20:05:00 0.0
2018_01_14_S22 01/13/2018 20:10:00 0.0
2018_01_14_S22 01/13/2018 20:15:00 0.0
2018_01_14_S22 01/13/2018 20:20:00 0.0
2018_01_14_S22 01/13/2018 20:25:00 0.0
2018_01_14_S22 01/13/2018 20:30:00 0.0
2018_01_14_S22 01/13/2018 20:35:00 0.0
2018_01_14_S22 01/13/2018 20:40:00 0.0
2018_01_14_S22 01/13/2018 20:45:00 0.0
2018_01_14_S22 01/13/2018 20:50:00 0.0
2018_01_14_S22 01/13/2018 20:55:00 0.0
2018_01_14_S22 01/13/2018 21:00:00 0.0
2018_01_14_S22 01/13/2018 21:05:00 0.0
2018_01_14_S22 01/13/2018 21:10:00 0.0
2018_01_14_S22 01/13/2018 21:15:00 0.0
2018_01_14_S22 01/13/2018 21:20:00 0.0
2018_01_14_S22 01/13/2018 21:25:00 0.0
2018_01_14_S22 01/13/2018 21:30:00 0.0
2018_01_14_S22 01/13/2018 21:35:00 0.0
2018_01_14_S22 01/13/2018 21:40:00 0.0
2018_01_14_S22 01/13/2018 21:45:00 0.0
2018_01_14_S22 01/13/2018 21:50:00 0.0
2018_01_14_S22 01/13/2018 21:55:00 0.0
2018_01_14_S22 01/13/2018 22:00:00 0.0
2018_01_14_S22 01/13/2018 22:05:00 0.0
2018_01_14_S22 01/13/2018 22:10:00 0.0
2018_01_14_S22 01/13/2018 22:15:00 0.0
2018_01_14_S22 01/13/2018 22:20:00 0.0
2018_01_14_S22 01/13/2018 22:25:00 0.0
2018_01_14_S22 01/13/2018 22:30:00 0.0
2018_01_14_S22 01/13/2018 22:35:00 0.0
2018_01_14_S22 01/13/2018 22:40:00 0.0
2018_01_14_S22 01/13/2018 22:45:00 0.0
2018_01_14_S22 01/13/2018 22:50:00 0.0
2018_01_14_S22 01/13/2018 22:55:00 0.0
2018_01_14_S22 01/13/2018 23:00:00 0.0
2018_01_14_S22 01/13/2018 23:05:00 0.0
2018_01_14_S22 01/13/2018 23:10:00 0.0
2018_01_14_S22 01/13/2018 23:15:00 0.0
2018_01_14_S22 01/13/2018 23:20:00 0.0
2018_01_14_S22 01/13/2018 23:25:00 0.0
2018_01_14_S22 01/13/2018 23:30:00 0.0
2018_01_14_S22 01/13/2018 23:35:00 0.0
2018_01_14_S22 01/13/2018 23:40:00 0.0
2018_01_14_S22 01/13/2018 23:45:00 0.0
2018_01_14_S22 01/13/2018 23:50:00 0.0
2018_01_14_S22 01/13/2018 23:55:00 0.0
2018_01_14_S22 01/14/2018 00:00:00 0.0
2018_01_14_S22 01/14/2018 00:05:00 0.0
2018_01_14_S22 01/14/2018 00:10:00 0.0
2018_01_14_S22 01/14/2018 00:15:00 0.0
2018_01_14_S22 01/14/2018 00:20:00 0.0
2018_01_14_S22 01/14/2018 00:25:00 0.0
2018_01_14_S22 01/14/2018 00:30:00 0.0
2018_01_14_S22 01/14/2018 00:35:00 0.0
2018_01_14_S22 01/14/2018 00:40:00 0.0
2018_01_14_S22 01/14/2018 00:45:00 0.0
2018_01_14_S22 01/14/2018 00:50:00 0.0
2018_01_14_S22 01/14/2018 00:55:00 0.0
2018_01_14_S22 01/14/2018 01:00:00 0.0
2018_01_14_S22 01/14/2018 01:05:00 0.0
2018_01_14_S22 01/14/2018 01:10:00 0.0
2018_01_14_S22 01/14/2018 01:15:00 0.0
2018_01_14_S22 01/14/2018 01:20:00 0.0
2018_01_14_S22 01/14/2018 01:25:00 0.0
2018_01_14_S22 01/14/2018 01:30:00 0.0
2018_01_14_S22 01/14/2018 01:35:00 0.0
2018_01_14_S22 01/14/2018 01:40:00 0.0
2018_01_14_S22 01/14/2018 01:45:00 0.0
2018_01_14_S22 01/14/2018 01:50:00 0.0
2018_01_14_S22 01/14/2018 01:55:00 0.0
2018_01_14_S22 01/14/2018 02:00:00 0.0
2018_01_14_S22 01/14/2018 02:05:00 0.0
2018_01_14_S22 01/14/2018 02:10:00 0.0
2018_01_14_S22 01/14/2018 02:15:00 0.0
2018_01_14_S22 01/14/2018 02:20:00 0.0
2018_01_14_S22 01/14/2018 02:25:00 0.0
2018_01_14_S22 01/14/2018 02:30:00 0.0
2018_01_14_S22 01/14/2018 02:35:00 0.0
2018_01_14_S22 01/14/2018 02:40:00 0.0
2018_01_14_S22 01/14/2018 02:45:00 0.0
2018_01_14_S22 01/14/2018 02:50:00 0.0
2018_01_14_S22 01/14/2018 02:55:00 0.0
2018_01_14_S22 01/14/2018 03:00:00 0.0007
2018_01_14_S22 01/14/2018 03:05:00 0.0091
2018_01_14_S22 01/14/2018 03:10:00 0.1119
2018_01_14_S22 01/14/2018 03:15:00 0.0005
2018_01_14_S22 01/14/2018 03:20:00 0.0
2018_01_14_S22 01/14/2018 03:25:00 0.0
2018_01_14_S22 01/14/2018 03:30:00 0.0
2018_01_14_S22 01/14/2018 03:35:00 0.0
2018_01_14_S22 01/14/2018 03:40:00 0.0
2018_01_14_S22 01/14/2018 03:45:00 0.0
2018_01_14_S22 01/14/2018 03:50:00 0.0
2018_01_14_S22 01/14/2018 03:55:00 0.0
2018_01_14_S22 01/14/2018 04:00:00 0.0
2018_01_14_S22 01/14/2018 04:05:00 0.0
2018_01_14_S22 01/14/2018 04:10:00 0.0
2018_01_14_S22 01/14/2018 04:15:00 0.0
2018_01_14_S22 01/14/2018 04:20:00 0.0
2018_01_14_S22 01/14/2018 04:25:00 0.0
2018_01_14_S22 01/14/2018 04:30:00 0.0
2018_01_14_S22 01/14/2018 04:35:00 0.0
2018_01_14_S22 01/14/2018 04:40:00 0.0
2018_01_14_S22 01/14/2018 04:45:00 0.0
2018_01_14_S22 01/14/2018 04:50:00 0.0
2018_01_14_S22 01/14/2018 04:55:00 0.0
2018_01_14_S22 01/14/2018 05:00:00 0.0
2018_01_14_S22 01/14/2018 05:05:00 0.0
2018_01_14_S22 01/14/2018 05:10:00 0.0
2018_01_14_S22 01/14/2018 05:15:00 0.0
2018_01_14_S22 01/14/2018 05:20:00 0.0
2018_01_14_S22 01/14/2018 05:25:00 0.0
2018_01_14_S22 01/14/2018 05:30:00 0.0
2018_01_14_S22 01/14/2018 05:35:00 0.0
2018_01_14_S22 01/14/2018 05:40:00 0.0
2018_01_14_S22 01/14/2018 05:45:00 0.0
2018_01_14_S22 01/14/2018 05:50:00 0.0
2018_01_14_S22 01/14/2018 05:55:00 0.0
2018_01_14_S22 01/14/2018 06:00:00 0.5624
2018_01_14_S22 01/14/2018 06:05:00 2.4481
2018_01_14_S22 01/14/2018 06:10:00 6.4548
2018_01_14_S22 01/14/2018 06:15:00 0.3263
2018_01_14_S22 01/14/2018 06:20:00 0.0235
2018_01_14_S22 01/14/2018 06:25:00 3.044
2018_01_14_S22 01/14/2018 06:30:00 0.0468
2018_01_14_S22 01/14/2018 06:35:00 0.0
2018_01_14_S22 01/14/2018 06:40:00 0.0
2018_01_14_S22 01/14/2018 06:45:00 0.0
2018_01_14_S22 01/14/2018 06:50:00 0.0
2018_01_14_S22 01/14/2018 06:55:00 0.0
2018_01_14_S22 01/14/2018 07:00:00 0.0
2018_01_14_S22 01/14/2018 07:05:00 0.0
2018_01_14_S22 01/14/2018 07:10:00 0.0
2018_01_14_S22 01/14/2018 07:15:00 0.0
2018_01_14_S22 01/14/2018 07:20:00 0.0
2018_01_14_S22 01/14/2018 07:25:00 0.0
2018_01_14_S22 01/14/2018 07:30:00 0.0
2018_01_14_S22 01/14/2018 07:35:00 0.0
2018_01_14_S22 01/14/2018 07:40:00 0.0
2018_01_14_S22 01/14/2018 07:45:00 0.0
2018_01_14_S22 01/14/2018 07:50:00 0.0003
2018_01_14_S22 01/14/2018 07:55:00 0.0355
2018_01_14_S22 01/14/2018 08:00:00 0.0
2018_01_14_S22 01/14/2018 08:05:00 0.0
2018_01_14_S22 01/14/2018 08:10:00 0.0
2018_01_14_S22 01/14/2018 08:15:00 0.0
2018_01_14_S22 01/14/2018 08:20:00 0.0
2018_01_14_S22 01/14/2018 08:25:00 0.0
2018_01_14_S22 01/14/2018 08:30:00 0.012
2018_01_14_S22 01/14/2018 08:35:00 0.0347
2018_01_14_S22 01/14/2018 08:40:00 1.2094
2018_01_14_S22 01/14/2018 08:45:00 0.0005
2018_01_14_S22 01/14/2018 08:50:00 0.0
2018_01_14_S22 01/14/2018 08:55:00 0.0
2018_01_14_S22 01/14/2018 09:00:00 0.0
2018_01_14_S22 01/14/2018 09:05:00 0.0
2018_01_14_S22 01/14/2018 09:10:00 0.0
2018_01_14_S22 01/14/2018 09:15:00 0.0
2018_01_14_S22 01/14/2018 09:20:00 0.0
2018_01_14_S22 01/14/2018 09:25:00 0.0
2018_01_14_S22 01/14/2018 09:30:00 0.0
2018_01_14_S22 01/14/2018 09:35:00 0.0
2018_01_14_S22 01/14/2018 09:40:00 0.0
2018_01_14_S22 01/14/2018 09:45:00 0.0
2018_01_14_S22 01/14/2018 09:50:00 0.0
2018_01_14_S22 01/14/2018 09:55:00 0.0
2018_01_14_S22 01/14/2018 10:00:00 0.0
2018_01_14_S22 01/14/2018 10:05:00 0.0
2018_01_14_S22 01/14/2018 10:10:00 0.0
2018_01_14_S22 01/14/2018 10:15:00 0.0
2018_01_14_S22 01/14/2018 10:20:00 0.0
2018_01_14_S22 01/14/2018 10:25:00 0.0
2018_01_14_S22 01/14/2018 10:30:00 0.0
2018_01_14_S22 01/14/2018 10:35:00 0.0
2018_01_14_S22 01/14/2018 10:40:00 0.0
2018_01_14_S22 01/14/2018 10:45:00 0.0
2018_01_14_S22 01/14/2018 10:50:00 0.0
2018_01_14_S22 01/14/2018 10:55:00 0.0
2018_01_14_S22 01/14/2018 11:00:00 0.0
2018_01_14_S22 01/14/2018 11:05:00 0.0
2018_01_14_S22 01/14/2018 11:10:00 0.0
2018_01_14_S22 01/14/2018 11:15:00 0.0
2018_01_14_S22 01/14/2018 11:20:00 0.0
2018_01_14_S22 01/14/2018 11:25:00 0.0
2018_01_14_S22 01/14/2018 11:30:00 0.0
2018_01_14_S22 01/14/2018 11:35:00 0.0
2018_01_14_S22 01/14/2018 11:40:00 0.0
2018_01_14_S22 01/14/2018 11:45:00 0.0
2018_01_14_S22 01/14/2018 11:50:00 0.0
2018_01_14_S22 01/14/2018 11:55:00 0.0
2018_01_14_S22 01/14/2018 12:00:00 0.0
2018_01_14_S22 01/14/2018 12:05:00 0.0
2018_01_14_S22 01/14/2018 12:10:00 0.0
2018_01_14_S22 01/14/2018 12:15:00 0.0
2018_01_14_S22 01/14/2018 12:20:00 0.0
2018_01_14_S22 01/14/2018 12:25:00 0.0
2018_01_14_S22 01/14/2018 12:30:00 0.0
2018_01_14_S22 01/14/2018 12:35:00 0.0
2018_01_14_S22 01/14/2018 12:40:00 0.0
2018_01_14_S22 01/14/2018 12:45:00 0.0
2018_01_14_S22 01/14/2018 12:50:00 0.0
2018_01_14_S22 01/14/2018 12:55:00 0.0
2018_01_14_S22 01/14/2018 13:00:00 0.0
2018_01_14_S22 01/14/2018 13:05:00 0.0
2018_01_14_S22 01/14/2018 13:10:00 0.0
2018_01_14_S22 01/14/2018 13:15:00 0.0
2018_01_14_S22 01/14/2018 13:20:00 0.0
2018_01_14_S22 01/14/2018 13:25:00 0.0
2018_01_14_S22 01/14/2018 13:30:00 0.0
2018_01_14_S22 01/14/2018 13:35:00 0.0
2018_01_14_S22 01/14/2018 13:40:00 0.0
2018_01_14_S22 01/14/2018 13:45:00 0.0
2018_01_14_S22 01/14/2018 13:50:00 0.0
2018_01_14_S22 01/14/2018 13:55:00 0.0
2018_01_14_S22 01/14/2018 14:00:00 0.0
2018_01_14_S22 01/14/2018 14:05:00 0.0
2018_01_14_S22 01/14/2018 14:10:00 0.0
2018_01_14_S22 01/14/2018 14:15:00 0.0
2018_01_14_S22 01/14/2018 14:20:00 0.0
2018_01_14_S22 01/14/2018 14:25:00 0.0
2018_01_14_S22 01/14/2018 14:30:00 0.0
2018_01_14_S22 01/14/2018 14:35:00 0.0
2018_01_14_S22 01/14/2018 14:40:00 0.0
2018_01_14_S22 01/14/2018 14:45:00 0.0
2018_01_14_S22 01/14/2018 14:50:00 0.0
2018_01_14_S22 01/14/2018 14:55:00 0.0
2018_01_14_S22 01/14/2018 15:00:00 0.0042
2018_01_14_S22 01/14/2018 15:05:00 0.0
2018_01_14_S22 01/14/2018 15:10:00 0.0
2018_01_14_S22 01/14/2018 15:15:00 0.0
2018_01_14_S22 01/14/2018 15:20:00 0.0
2018_01_14_S22 01/14/2018 15:25:00 0.0
2018_01_14_S22 01/14/2018 15:30:00 0.0
2018_01_14_S22 01/14/2018 15:35:00 0.0
2018_01_14_S22 01/14/2018 15:40:00 0.0
2018_01_14_S22 01/14/2018 15:45:00 0.0
2018_01_14_S22 01/14/2018 15:50:00 0.0
2018_01_14_S22 01/14/2018 15:55:00 0.0
2018_01_14_S22 01/14/2018 16:00:00 0.0
2018_01_14_S22 01/14/2018 16:05:00 0.0
2018_01_14_S22 01/14/2018 16:10:00 0.0
2018_01_14_S22 01/14/2018 16:15:00 0.0
2018_01_14_S22 01/14/2018 16:20:00 0.0
2018_01_14_S22 01/14/2018 16:25:00 0.001
2018_01_14_S22 01/14/2018 16:30:00 0.0
2018_01_14_S22 01/14/2018 16:35:00 0.0
2018_01_14_S22 01/14/2018 16:40:00 0.0075
2018_01_14_S22 01/14/2018 16:45:00 0.0181
2018_01_14_S22 01/14/2018 16:50:00 0.1058
2018_01_14_S22 01/14/2018 16:55:00 0.1123
2018_01_14_S22 01/14/2018 17:00:00 0.0151
2018_01_14_S22 01/14/2018 17:05:00 0.0182
2018_01_14_S22 01/14/2018 17:10:00 0.1903
2018_01_14_S22 01/14/2018 17:15:00 0.0579
2018_01_14_S22 01/14/2018 17:20:00 0.0003
2018_01_14_S22 01/14/2018 17:25:00 0.0065
2018_01_14_S22 01/14/2018 17:30:00 0.0
2018_01_14_S22 01/14/2018 17:35:00 0.1354
2018_01_14_S22 01/14/2018 17:40:00 0.0789
2018_01_14_S22 01/14/2018 17:45:00 0.7591
2018_01_14_S22 01/14/2018 17:50:00 0.3269
2018_01_14_S22 01/14/2018 17:55:00 0.152
2018_01_14_S22 01/14/2018 18:00:00 0.7424
2018_01_14_S22 01/14/2018 18:05:00 0.725
2018_01_14_S22 01/14/2018 18:10:00 0.1092
2018_01_14_S22 01/14/2018 18:15:00 0.4798
2018_01_14_S22 01/14/2018 18:20:00 1.6259
2018_01_14_S22 01/14/2018 18:25:00 4.251
2018_01_14_S22 01/14/2018 18:30:00 1.0459
2018_01_14_S22 01/14/2018 18:35:00 0.0084
2018_01_14_S22 01/14/2018 18:40:00 0.0
2018_01_14_S22 01/14/2018 18:45:00 0.1737
2018_01_14_S22 01/14/2018 18:50:00 1.449
2018_01_14_S22 01/14/2018 18:55:00 0.2459
2018_01_14_S22 01/14/2018 19:00:00 1.7495
2018_01_14_S22 01/14/2018 19:05:00 0.0027
2018_01_14_S22 01/14/2018 19:10:00 0.0
2018_01_14_S22 01/14/2018 19:15:00 0.0
2018_01_14_S22 01/14/2018 19:20:00 0.0
2018_01_14_S22 01/14/2018 19:25:00 0.0
2018_01_14_S22 01/14/2018 19:30:00 0.0
2018_01_14_S22 01/14/2018 19:35:00 0.0
2018_01_14_S22 01/14/2018 19:40:00 0.0
2018_01_14_S22 01/14/2018 19:45:00 0.0
2018_01_14_S22 01/14/2018 19:50:00 0.0
2018_01_14_S22 01/14/2018 19:55:00 0.0
2018_01_14_S22 01/14/2018 20:00:00 0.0
2018_01_14_S22 01/14/2018 20:05:00 0.0
2018_01_14_S22 01/14/2018 20:10:00 0.0
2018_01_14_S22 01/14/2018 20:15:00 0.0
2018_01_14_S22 01/14/2018 20:20:00 0.0
2018_01_14_S22 01/14/2018 20:25:00 0.0
2018_01_14_S22 01/14/2018 20:30:00 0.0
2018_01_14_S22 01/14/2018 20:35:00 0.0
2018_01_14_S22 01/14/2018 20:40:00 0.0
2018_01_14_S22 01/14/2018 20:45:00 0.0
2018_01_14_S22 01/14/2018 20:50:00 0.0
2018_01_14_S22 01/14/2018 20:55:00 0.0
2018_01_14_S22 01/14/2018 21:00:00 0.0
2018_01_14_S22 01/14/2018 21:05:00 0.0
2018_01_14_S22 01/14/2018 21:10:00 0.0
2018_01_14_S22 01/14/2018 21:15:00 0.0
2018_01_14_S22 01/14/2018 21:20:00 0.0
2018_01_14_S22 01/14/2018 21:25:00 0.0
2018_01_14_S22 01/14/2018 21:30:00 0.0
2018_01_14_S22 01/14/2018 21:35:00 0.0
2018_01_14_S22 01/14/2018 21:40:00 0.0
2018_01_14_S22 01/14/2018 21:45:00 0.0
2018_01_14_S22 01/14/2018 21:50:00 0.0
2018_01_14_S22 01/14/2018 21:55:00 0.0
2018_01_14_S22 01/14/2018 22:00:00 0.0
2018_01_14_S22 01/14/2018 22:05:00 0.0
2018_01_14_S22 01/14/2018 22:10:00 0.0
2018_01_14_S22 01/14/2018 22:15:00 0.0
2018_01_14_S22 01/14/2018 22:20:00 0.0
2018_01_14_S22 01/14/2018 22:25:00 0.0
2018_01_14_S22 01/14/2018 22:30:00 0.0
2018_01_14_S22 01/14/2018 22:35:00 0.0
2018_01_14_S22 01/14/2018 22:40:00 0.004
2018_01_14_S22 01/14/2018 22:45:00 0.0
2018_01_14_S22 01/14/2018 22:50:00 0.0
2018_01_14_S22 01/14/2018 22:55:00 0.0
2018_01_14_S22 01/14/2018 23:00:00 0.0216
2018_01_14_S22 01/14/2018 23:05:00 0.0
2018_01_14_S22 01/14/2018 23:10:00 0.0006
2018_01_14_S22 01/14/2018 23:15:00 0.0022
2018_01_14_S22 01/14/2018 23:20:00 0.0
2018_01_14_S22 01/14/2018 23:25:00 0.0042
2018_01_14_S22 01/14/2018 23:30:00 0.0
2018_01_14_S22 01/14/2018 23:35:00 0.0
2018_01_14_S22 01/14/2018 23:40:00 0.0
2018_01_14_S22 01/14/2018 23:45:00 0.0
2018_01_14_S22 01/14/2018 23:50:00 0.0
2018_01_14_S22 01/14/2018 23:55:00 0.0
2018_01_14_S22 01/15/2018 00:00:00 0.0
2018_01_14_S22 01/15/2018 00:05:00 0.0
2018_01_14_S22 01/15/2018 00:10:00 0.0
2018_01_14_S22 01/15/2018 00:15:00 0.0
2018_01_14_S22 01/15/2018 00:20:00 0.0
2018_01_14_S22 01/15/2018 00:25:00 0.0
2018_01_14_S22 01/15/2018 00:30:00 0.0
2018_01_14_S22 01/15/2018 00:35:00 0.0
2018_01_14_S22 01/15/2018 00:40:00 0.0
2018_01_14_S22 01/15/2018 00:45:00 0.0
2018_01_14_S22 01/15/2018 00:50:00 0.0
2018_01_14_S22 01/15/2018 00:55:00 0.0
2018_01_14_S22 01/15/2018 01:00:00 0.0
2018_01_14_S22 01/15/2018 01:05:00 0.0
2018_01_14_S22 01/15/2018 01:10:00 0.0
2018_01_14_S22 01/15/2018 01:15:00 0.0
2018_01_14_S22 01/15/2018 01:20:00 0.0
2018_01_14_S22 01/15/2018 01:25:00 0.0
2018_01_14_S22 01/15/2018 01:30:00 0.0
2018_01_14_S22 01/15/2018 01:35:00 0.0
2018_01_14_S22 01/15/2018 01:40:00 0.0
2018_01_14_S22 01/15/2018 01:45:00 0.0
2018_01_14_S22 01/15/2018 01:50:00 0.0
2018_01_14_S22 01/15/2018 01:55:00 0.0
2018_01_14_S22 01/15/2018 02:00:00 0.0
2018_01_14_S22 01/15/2018 02:05:00 0.0
2018_01_14_S22 01/15/2018 02:10:00 0.0
2018_01_14_S22 01/15/2018 02:15:00 0.0
2018_01_14_S22 01/15/2018 02:20:00 0.0
2018_01_14_S22 01/15/2018 02:25:00 0.0
2018_01_14_S22 01/15/2018 02:30:00 0.0008
2018_01_14_S22 01/15/2018 02:35:00 0.0036
2018_01_14_S22 01/15/2018 02:40:00 0.0805
2018_01_14_S22 01/15/2018 02:45:00 0.2162
2018_01_14_S22 01/15/2018 02:50:00 0.2704
2018_01_14_S22 01/15/2018 02:55:00 0.2546
2018_01_14_S22 01/15/2018 03:00:00 0.0118
2018_01_14_S22 01/15/2018 03:05:00 0.0225
2018_01_14_S22 01/15/2018 03:10:00 0.0062
2018_01_14_S22 01/15/2018 03:15:00 0.0
2018_01_14_S22 01/15/2018 03:20:00 0.0
2018_01_14_S22 01/15/2018 03:25:00 0.0
2018_01_14_S22 01/15/2018 03:30:00 0.0
2018_01_14_S22 01/15/2018 03:35:00 0.0
2018_01_14_S22 01/15/2018 03:40:00 0.0
2018_01_14_S22 01/15/2018 03:45:00 0.0
2018_01_14_S22 01/15/2018 03:50:00 0.0
2018_01_14_S22 01/15/2018 03:55:00 0.0
2018_01_14_S22 01/15/2018 04:00:00 0.0
2018_01_14_S22 01/15/2018 04:05:00 0.0
2018_01_14_S22 01/15/2018 04:10:00 0.0
2018_01_14_S22 01/15/2018 04:15:00 0.0
2018_01_14_S22 01/15/2018 04:20:00 0.0
2018_01_14_S22 01/15/2018 04:25:00 0.0
2018_01_14_S22 01/15/2018 04:30:00 0.0
2018_01_14_S22 01/15/2018 04:35:00 0.0
2018_01_14_S22 01/15/2018 04:40:00 0.0
2018_01_14_S22 01/15/2018 04:45:00 0.0
2018_01_14_S22 01/15/2018 04:50:00 0.0
2018_01_14_S22 01/15/2018 04:55:00 0.0
2018_01_14_S22 01/15/2018 05:00:00 0.0
2018_01_14_S22 01/15/2018 05:05:00 0.0
2018_01_14_S22 01/15/2018 05:10:00 0.0
2018_01_14_S22 01/15/2018 05:15:00 0.0
2018_01_14_S22 01/15/2018 05:20:00 0.0
2018_01_14_S22 01/15/2018 05:25:00 0.0
2018_01_14_S22 01/15/2018 05:30:00 0.0
2018_01_14_S22 01/15/2018 05:35:00 0.0
2018_01_14_S22 01/15/2018 05:40:00 0.0
2018_01_14_S22 01/15/2018 05:45:00 0.0
2018_01_14_S22 01/15/2018 05:50:00 0.0
2018_01_14_S22 01/15/2018 05:55:00 0.0
2018_01_14_S22 01/15/2018 06:00:00 0.0
2018_01_14_S22 01/15/2018 06:05:00 0.0
2018_01_14_S22 01/15/2018 06:10:00 0.0
2018_01_14_S22 01/15/2018 06:15:00 0.0
2018_01_14_S22 01/15/2018 06:20:00 0.0
2018_01_14_S22 01/15/2018 06:25:00 0.0208
2018_01_14_S22 01/15/2018 06:30:00 0.0
2018_01_14_S22 01/15/2018 06:35:00 0.0
2018_01_14_S22 01/15/2018 06:40:00 0.0
2018_01_14_S22 01/15/2018 06:45:00 0.0
2018_01_14_S22 01/15/2018 06:50:00 0.0
2018_01_14_S22 01/15/2018 06:55:00 0.0
2018_01_14_S22 01/15/2018 07:00:00 0.0218
2018_01_14_S22 01/15/2018 07:05:00 0.0031
2018_01_14_S22 01/15/2018 07:10:00 0.0
2018_01_14_S22 01/15/2018 07:15:00 0.0
2018_01_14_S22 01/15/2018 07:20:00 0.0185
2018_01_14_S22 01/15/2018 07:25:00 0.1408
2018_01_14_S22 01/15/2018 07:30:00 0.1761
2018_01_14_S22 01/15/2018 07:35:00 0.0011
2018_01_14_S22 01/15/2018 07:40:00 0.0
2018_01_14_S22 01/15/2018 07:45:00 0.0
2018_01_14_S22 01/15/2018 07:50:00 0.0
2018_01_14_S22 01/15/2018 07:55:00 0.0
2018_01_14_S22 01/15/2018 08:00:00 0.0

2018_01_14_S23 01/13/2018 08:00:00 0.0
2018_01_14_S23 01/13/2018 08:05:00 0.0
2018_01_14_S23 01/13/2018 08:10:00 0.0
2018_01_14_S23 01/13/2018 08:15:00 0.0016
2018_01_14_S23 01/13/2018 08:20:00 0.0
2018_01_14_S23 01/13/2018 08:25:00 0.0
2018_01_14_S23 01/13/2018 08:30:00 0.0
2018_01_14_S23 01/13/2018 08:35:00 0.0
2018_01_14_S23 01/13/2018 08:40:00 0.0
2018_01_14_S23 01/13/2018 08:45:00 0.0
2018_01_14_S23 01/13/2018 08:50:00 0.0
2018_01_14_S23 01/13/2018 08:55:00 0.0
2018_01_14_S23 01/13/2018 09:00:00 0.0
2018_01_14_S23 01/13/2018 09:05:00 0.0
2018_01_14_S23 01/13/2018 09:10:00 0.0
2018_01_14_S23 01/13/2018 09:15:00 0.0
2018_01_14_S23 01/13/2018 09:20:00 0.0
2018_01_14_S23 01/13/2018 09:25:00 0.0
2018_01_14_S23 01/13/2018 09:30:00 0.0
2018_01_14_S23 01/13/2018 09:35:00 0.0
2018_01_14_S23 01/13/2018 09:40:00 0.0
2018_01_14_S23 01/13/2018 09:45:00 0.0
2018_01_14_S23 01/13/2018 09:50:00 0.0
2018_01_14_S23 01/13/2018 09:55:00 0.0
2018_01_14_S23 01/13/2018 10:00:00 0.0
2018_01_14_S23 01/13/2018 10:05:00 0.0
2018_01_14_S23 01/13/2018 10:10:00 0.0
2018_01_14_S23 01/13/2018 10:15:00 0.0
2018_01_14_S23 01/13/2018 10:20:00 0.0
2018_01_14_S23 01/13/2018 10:25:00 0.0
2018_01_14_S23 01/13/2018 10:30:00 0.0
2018_01_14_S23 01/13/2018 10:35:00 0.0
2018_01_14_S23 01/13/2018 10:40:00 0.0
2018_01_14_S23 01/13/2018 10:45:00 0.0
2018_01_14_S23 01/13/2018 10:50:00 0.0
2018_01_14_S23 01/13/2018 10:55:00 0.0
2018_01_14_S23 01/13/2018 11:00:00 0.0
2018_01_14_S23 01/13/2018 11:05:00 0.0
2018_01_14_S23 01/13/2018 11:10:00 0.0
2018_01_14_S23 01/13/2018 11:15:00 0.0
2018_01_14_S23 01/13/2018 11:20:00 0.0
2018_01_14_S23 01/13/2018 11:25:00 0.0
2018_01_14_S23 01/13/2018 11:30:00 0.0
2018_01_14_S23 01/13/2018 11:35:00 0.0
2018_01_14_S23 01/13/2018 11:40:00 0.0
2018_01_14_S23 01/13/2018 11:45:00 0.0
2018_01_14_S23 01/13/2018 11:50:00 0.0
2018_01_14_S23 01/13/2018 11:55:00 0.0
2018_01_14_S23 01/13/2018 12:00:00 0.0
2018_01_14_S23 01/13/2018 12:05:00 0.0
2018_01_14_S23 01/13/2018 12:10:00 0.0
2018_01_14_S23 01/13/2018 12:15:00 0.0
2018_01_14_S23 01/13/2018 12:20:00 0.0
2018_01_14_S23 01/13/2018 12:25:00 0.0
2018_01_14_S23 01/13/2018 12:30:00 0.0
2018_01_14_S23 01/13/2018 12:35:00 0.0
2018_01_14_S23 01/13/2018 12:40:00 0.0
2018_01_14_S23 01/13/2018 12:45:00 0.0
2018_01_14_S23 01/13/2018 12:50:00 0.0
2018_01_14_S23 01/13/2018 12:55:00 0.0
2018_01_14_S23 01/13/2018 13:00:00 0.0
2018_01_14_S23 01/13/2018 13:05:00 0.0
2018_01_14_S23 01/13/2018 13:10:00 0.0
2018_01_14_S23 01/13/2018 13:15:00 0.0
2018_01_14_S23 01/13/2018 13:20:00 0.0
2018_01_14_S23 01/13/2018 13:25:00 0.0
2018_01_14_S23 01/13/2018 13:30:00 0.0
2018_01_14_S23 01/13/2018 13:35:00 0.0
2018_01_14_S23 01/13/2018 13:40:00 0.0
2018_01_14_S23 01/13/2018 13:45:00 0.0
2018_01_14_S23 01/13/2018 13:50:00 0.0
2018_01_14_S23 01/13/2018 13:55:00 0.0
2018_01_14_S23 01/13/2018 14:00:00 0.0
2018_01_14_S23 01/13/2018 14:05:00 0.0
2018_01_14_S23 01/13/2018 14:10:00 0.0
2018_01_14_S23 01/13/2018 14:15:00 0.0
2018_01_14_S23 01/13/2018 14:20:00 0.0
2018_01_14_S23 01/13/2018 14:25:00 0.0
2018_01_14_S23 01/13/2018 14:30:00 0.0
2018_01_14_S23 01/13/2018 14:35:00 0.0
2018_01_14_S23 01/13/2018 14:40:00 0.0
2018_01_14_S23 01/13/2018 14:45:00 0.0
2018_01_14_S23 01/13/2018 14:50:00 0.0
2018_01_14_S23 01/13/2018 14:55:00 0.0
2018_01_14_S23 01/13/2018 15:00:00 0.0
2018_01_14_S23 01/13/2018 15:05:00 0.0
2018_01_14_S23 01/13/2018 15:10:00 0.0
2018_01_14_S23 01/13/2018 15:15:00 0.0
2018_01_14_S23 01/13/2018 15:20:00 0.0
2018_01_14_S23 01/13/2018 15:25:00 0.0
2018_01_14_S23 01/13/2018 15:30:00 0.0
2018_01_14_S23 01/13/2018 15:35:00 0.0
2018_01_14_S23 01/13/2018 15:40:00 0.0
2018_01_14_S23 01/13/2018 15:45:00 0.0
2018_01_14_S23 01/13/2018 15:50:00 0.0
2018_01_14_S23 01/13/2018 15:55:00 0.0
2018_01_14_S23 01/13/2018 16:00:00 0.0
2018_01_14_S23 01/13/2018 16:05:00 0.0
2018_01_14_S23 01/13/2018 16:10:00 0.0
2018_01_14_S23 01/13/2018 16:15:00 0.0
2018_01_14_S23 01/13/2018 16:20:00 0.0
2018_01_14_S23 01/13/2018 16:25:00 0.0
2018_01_14_S23 01/13/2018 16:30:00 0.0
2018_01_14_S23 01/13/2018 16:35:00 0.0
2018_01_14_S23 01/13/2018 16:40:00 0.0
2018_01_14_S23 01/13/2018 16:45:00 0.0
2018_01_14_S23 01/13/2018 16:50:00 0.0
2018_01_14_S23 01/13/2018 16:55:00 0.0
2018_01_14_S23 01/13/2018 17:00:00 0.0
2018_01_14_S23 01/13/2018 17:05:00 0.0
2018_01_14_S23 01/13/2018 17:10:00 0.0
2018_01_14_S23 01/13/2018 17:15:00 0.0
2018_01_14_S23 01/13/2018 17:20:00 0.0
2018_01_14_S23 01/13/2018 17:25:00 0.0
2018_01_14_S23 01/13/2018 17:30:00 0.0
2018_01_14_S23 01/13/2018 17:35:00 0.0
2018_01_14_S23 01/13/2018 17:40:00 0.0
2018_01_14_S23 01/13/2018 17:45:00 0.0
2018_01_14_S23 01/13/2018 17:50:00 0.0
2018_01_14_S23 01/13/2018 17:55:00 0.0
2018_01_14_S23 01/13/2018 18:00:00 0.0
2018_01_14_S23 01/13/2018 18:05:00 0.0
2018_01_14_S23 01/13/2018 18:10:00 0.0
2018_01_14_S23 01/13/2018 18:15:00 0.0
2018_01_14_S23 01/13/2018 18:20:00 0.0
2018_01_14_S23 01/13/2018 18:25:00 0.0
2018_01_14_S23 01/13/2018 18:30:00 0.0
2018_01_14_S23 01/13/2018 18:35:00 0.0
2018_01_14_S23 01/13/2018 18:40:00 0.0
2018_01_14_S23 01/13/2018 18:45:00 0.0
2018_01_14_S23 01/13/2018 18:50:00 0.0
2018_01_14_S23 01/13/2018 18:55:00 0.0
2018_01_14_S23 01/13/2018 19:00:00 0.0
2018_01_14_S23 01/13/2018 19:05:00 0.0
2018_01_14_S23 01/13/2018 19:10:00 0.0
2018_01_14_S23 01/13/2018 19:15:00 0.0
2018_01_14_S23 01/13/2018 19:20:00 0.0
2018_01_14_S23 01/13/2018 19:25:00 0.0
2018_01_14_S23 01/13/2018 19:30:00 0.0
2018_01_14_S23 01/13/2018 19:35:00 0.0
2018_01_14_S23 01/13/2018 19:40:00 0.0
2018_01_14_S23 01/13/2018 19:45:00 0.0
2018_01_14_S23 01/13/2018 19:50:00 0.0
2018_01_14_S23 01/13/2018 19:55:00 0.0
2018_01_14_S23 01/13/2018 20:00:00 0.0
2018_01_14_S23 01/13/2018 20:05:00 0.0
2018_01_14_S23 01/13/2018 20:10:00 0.0
2018_01_14_S23 01/13/2018 20:15:00 0.0
2018_01_14_S23 01/13/2018 20:20:00 0.0
2018_01_14_S23 01/13/2018 20:25:00 0.0
2018_01_14_S23 01/13/2018 20:30:00 0.0
2018_01_14_S23 01/13/2018 20:35:00 0.0
2018_01_14_S23 01/13/2018 20:40:00 0.0
2018_01_14_S23 01/13/2018 20:45:00 0.0
2018_01_14_S23 01/13/2018 20:50:00 0.0
2018_01_14_S23 01/13/2018 20:55:00 0.0
2018_01_14_S23 01/13/2018 21:00:00 0.0
2018_01_14_S23 01/13/2018 21:05:00 0.0
2018_01_14_S23 01/13/2018 21:10:00 0.0
2018_01_14_S23 01/13/2018 21:15:00 0.0
2018_01_14_S23 01/13/2018 21:20:00 0.0
2018_01_14_S23 01/13/2018 21:25:00 0.0
2018_01_14_S23 01/13/2018 21:30:00 0.0
2018_01_14_S23 01/13/2018 21:35:00 0.0
2018_01_14_S23 01/13/2018 21:40:00 0.0
2018_01_14_S23 01/13/2018 21:45:00 0.0
2018_01_14_S23 01/13/2018 21:50:00 0.0
2018_01_14_S23 01/13/2018 21:55:00 0.0
2018_01_14_S23 01/13/2018 22:00:00 0.0
2018_01_14_S23 01/13/2018 22:05:00 0.0
2018_01_14_S23 01/13/2018 22:10:00 0.0
2018_01_14_S23 01/13/2018 22:15:00 0.0
2018_01_14_S23 01/13/2018 22:20:00 0.0
2018_01_14_S23 01/13/2018 22:25:00 0.0
2018_01_14_S23 01/13/2018 22:30:00 0.0
2018_01_14_S23 01/13/2018 22:35:00 0.0
2018_01_14_S23 01/13/2018 22:40:00 0.0
2018_01_14_S23 01/13/2018 22:45:00 0.0
2018_01_14_S23 01/13/2018 22:50:00 0.0
2018_01_14_S23 01/13/2018 22:55:00 0.0
2018_01_14_S23 01/13/2018 23:00:00 0.0
2018_01_14_S23 01/13/2018 23:05:00 0.0
2018_01_14_S23 01/13/2018 23:10:00 0.0
2018_01_14_S23 01/13/2018 23:15:00 0.0
2018_01_14_S23 01/13/2018 23:20:00 0.0
2018_01_14_S23 01/13/2018 23:25:00 0.0
2018_01_14_S23 01/13/2018 23:30:00 0.0
2018_01_14_S23 01/13/2018 23:35:00 0.0
2018_01_14_S23 01/13/2018 23:40:00 0.0
2018_01_14_S23 01/13/2018 23:45:00 0.0
2018_01_14_S23 01/13/2018 23:50:00 0.0
2018_01_14_S23 01/13/2018 23:55:00 0.0
2018_01_14_S23 01/14/2018 00:00:00 0.0
2018_01_14_S23 01/14/2018 00:05:00 0.0
2018_01_14_S23 01/14/2018 00:10:00 0.0
2018_01_14_S23 01/14/2018 00:15:00 0.0
2018_01_14_S23 01/14/2018 00:20:00 0.0
2018_01_14_S23 01/14/2018 00:25:00 0.0
2018_01_14_S23 01/14/2018 00:30:00 0.0
2018_01_14_S23 01/14/2018 00:35:00 0.0
2018_01_14_S23 01/14/2018 00:40:00 0.0
2018_01_14_S23 01/14/2018 00:45:00 0.0
2018_01_14_S23 01/14/2018 00:50:00 0.0
2018_01_14_S23 01/14/2018 00:55:00 0.0
2018_01_14_S23 01/14/2018 01:00:00 0.0
2018_01_14_S23 01/14/2018 01:05:00 0.0
2018_01_14_S23 01/14/2018 01:10:00 0.0
2018_01_14_S23 01/14/2018 01:15:00 0.0
2018_01_14_S23 01/14/2018 01:20:00 0.0
2018_01_14_S23 01/14/2018 01:25:00 0.0
2018_01_14_S23 01/14/2018 01:30:00 0.0
2018_01_14_S23 01/14/2018 01:35:00 0.0
2018_01_14_S23 01/14/2018 01:40:00 0.0
2018_01_14_S23 01/14/2018 01:45:00 0.0
2018_01_14_S23 01/14/2018 01:50:00 0.0
2018_01_14_S23 01/14/2018 01:55:00 0.0
2018_01_14_S23 01/14/2018 02:00:00 0.0
2018_01_14_S23 01/14/2018 02:05:00 0.0
2018_01_14_S23 01/14/2018 02:10:00 0.0
2018_01_14_S23 01/14/2018 02:15:00 0.0
2018_01_14_S23 01/14/2018 02:20:00 0.0
2018_01_14_S23 01/14/2018 02:25:00 0.0
2018_01_14_S23 01/14/2018 02:30:00 0.0
2018_01_14_S23 01/14/2018 02:35:00 0.0
2018_01_14_S23 01/14/2018 02:40:00 0.0
2018_01_14_S23 01/14/2018 02:45:00 0.0
2018_01_14_S23 01/14/2018 02:50:00 0.0
2018_01_14_S23 01/14/2018 02:55:00 0.0
2018_01_14_S23 01/14/2018 03:00:00 0.0084
2018_01_14_S23 01/14/2018 03:05:00 0.0103
2018_01_14_S23 01/14/2018 03:10:00 0.0496
2018_01_14_S23 01/14/2018 03:15:00 0.0076
2018_01_14_S23 01/14/2018 03:20:00 0.0
2018_01_14_S23 01/14/2018 03:25:00 0.0
2018_01_14_S23 01/14/2018 03:30:00 0.0
2018_01_14_S23 01/14/2018 03:35:00 0.0
2018_01_14_S23 01/14/2018 03:40:00 0.0
2018_01_14_S23 01/14/2018 03:45:00 0.0
2018_01_14_S23 01/14/2018 03:50:00 0.0
2018_01_14_S23 01/14/2018 03:55:00 0.0
2018_01_14_S23 01/14/2018 04:00:00 0.0
2018_01_14_S23 01/14/2018 04:05:00 0.0
2018_01_14_S23 01/14/2018 04:10:00 0.0
2018_01_14_S23 01/14/2018 04:15:00 0.0
2018_01_14_S23 01/14/2018 04:20:00 0.0
2018_01_14_S23 01/14/2018 04:25:00 0.0
2018_01_14_S23 01/14/2018 04:30:00 0.0
2018_01_14_S23 01/14/2018 04:35:00 0.0
2018_01_14_S23 01/14/2018 04:40:00 0.0
2018_01_14_S23 01/14/2018 04:45:00 0.0
2018_01_14_S23 01/14/2018 04:50:00 0.0
2018_01_14_S23 01/14/2018 04:55:00 0.0
2018_01_14_S23 01/14/2018 05:00:00 0.0
2018_01_14_S23 01/14/2018 05:05:00 0.0045
2018_01_14_S23 01/14/2018 05:10:00 0.0115
2018_01_14_S23 01/14/2018 05:15:00 0.0078
2018_01_14_S23 01/14/2018 05:20:00 0.0
2018_01_14_S23 01/14/2018 05:25:00 0.0
2018_01_14_S23 01/14/2018 05:30:00 0.0
2018_01_14_S23 01/14/2018 05:35:00 0.0
2018_01_14_S23 01/14/2018 05:40:00 0.0
2018_01_14_S23 01/14/2018 05:45:00 0.0
2018_01_14_S23 01/14/2018 05:50:00 0.0
2018_01_14_S23 01/14/2018 05:55:00 0.0057
2018_01_14_S23 01/14/2018 06:00:00 5.4457
2018_01_14_S23 01/14/2018 06:05:00 3.9497
2018_01_14_S23 01/14/2018 06:10:00 0.5056
2018_01_14_S23 01/14/2018 06:15:00 0.0
2018_01_14_S23 01/14/2018 06:20:00 0.0161
2018_01_14_S23 01/14/2018 06:25:00 0.6949
2018_01_14_S23 01/14/2018 06:30:00 0.118
2018_01_14_S23 01/14/2018 06:35:00 0.0
2018_01_14_S23 01/14/2018 06:40:00 0.0
2018_01_14_S23 01/14/2018 06:45:00 0.0
2018_01_14_S23 01/14/2018 06:50:00 0.0
2018_01_14_S23 01/14/2018 06:55:00 0.0
2018_01_14_S23 01/14/2018 07:00:00 0.0
2018_01_14_S23 01/14/2018 07:05:00 0.0
2018_01_14_S23 01/14/2018 07:10:00 0.0
2018_01_14_S23 01/14/2018 07:15:00 0.0
2018_01_14_S23 01/14/2018 07:20:00 0.0
2018_01_14_S23 01/14/2018 07:25:00 0.0
2018_01_14_S23 01/14/2018 07:30:00 0.0
2018_01_14_S23 01/14/2018 07:35:00 0.0
2018_01_14_S23 01/14/2018 07:40:00 0.0
2018_01_14_S23 01/14/2018 07:45:00 0.0
2018_01_14_S23 01/14/2018 07:50:00 0.0073
2018_01_14_S23 01/14/2018 07:55:00 0.0072
2018_01_14_S23 01/14/2018 08:00:00 0.0
2018_01_14_S23 01/14/2018 08:05:00 0.0
2018_01_14_S23 01/14/2018 08:10:00 0.0
2018_01_14_S23 01/14/2018 08:15:00 0.0
2018_01_14_S23 01/14/2018 08:20:00 0.0
2018_01_14_S23 01/14/2018 08:25:00 0.0
2018_01_14_S23 01/14/2018 08:30:00 0.0069
2018_01_14_S23 01/14/2018 08:35:00 0.0031
2018_01_14_S23 01/14/2018 08:40:00 0.3559
2018_01_14_S23 01/14/2018 08:45:00 0.0524
2018_01_14_S23 01/14/2018 08:50:00 0.0
2018_01_14_S23 01/14/2018 08:55:00 0.0
2018_01_14_S23 01/14/2018 09:00:00 0.0
2018_01_14_S23 01/14/2018 09:05:00 0.0
2018_01_14_S23 01/14/2018 09:10:00 0.0
2018_01_14_S23 01/14/2018 09:15:00 0.0
2018_01_14_S23 01/14/2018 09:20:00 0.0
2018_01_14_S23 01/14/2018 09:25:00 0.0
2018_01_14_S23 01/14/2018 09:30:00 0.0
2018_01_14_S23 01/14/2018 09:35:00 0.0
2018_01_14_S23 01/14/2018 09:40:00 0.0
2018_01_14_S23 01/14/2018 09:45:00 0.0
2018_01_14_S23 01/14/2018 09:50:00 0.0
2018_01_14_S23 01/14/2018 09:55:00 0.0
2018_01_14_S23 01/14/2018 10:00:00 0.0
2018_01_14_S23 01/14/2018 10:05:00 0.0
2018_01_14_S23 01/14/2018 10:10:00 0.0
2018_01_14_S23 01/14/2018 10:15:00 0.0
2018_01_14_S23 01/14/2018 10:20:00 0.0
2018_01_14_S23 01/14/2018 10:25:00 0.0
2018_01_14_S23 01/14/2018 10:30:00 0.0
2018_01_14_S23 01/14/2018 10:35:00 0.0
2018_01_14_S23 01/14/2018 10:40:00 0.0
2018_01_14_S23 01/14/2018 10:45:00 0.0
2018_01_14_S23 01/14/2018 10:50:00 0.0
2018_01_14_S23 01/14/2018 10:55:00 0.0
2018_01_14_S23 01/14/2018 11:00:00 0.0
2018_01_14_S23 01/14/2018 11:05:00 0.0
2018_01_14_S23 01/14/2018 11:10:00 0.0
2018_01_14_S23 01/14/2018 11:15:00 0.0
2018_01_14_S23 01/14/2018 11:20:00 0.0
2018_01_14_S23 01/14/2018 11:25:00 0.0
2018_01_14_S23 01/14/2018 11:30:00 0.0
2018_01_14_S23 01/14/2018 11:35:00 0.0
2018_01_14_S23 01/14/2018 11:40:00 0.0
2018_01_14_S23 01/14/2018 11:45:00 0.0
2018_01_14_S23 01/14/2018 11:50:00 0.0
2018_01_14_S23 01/14/2018 11:55:00 0.0
2018_01_14_S23 01/14/2018 12:00:00 0.0
2018_01_14_S23 01/14/2018 12:05:00 0.0
2018_01_14_S23 01/14/2018 12:10:00 0.0
2018_01_14_S23 01/14/2018 12:15:00 0.0
2018_01_14_S23 01/14/2018 12:20:00 0.0
2018_01_14_S23 01/14/2018 12:25:00 0.0
2018_01_14_S23 01/14/2018 12:30:00 0.0
2018_01_14_S23 01/14/2018 12:35:00 0.0
2018_01_14_S23 01/14/2018 12:40:00 0.0
2018_01_14_S23 01/14/2018 12:45:00 0.0
2018_01_14_S23 01/14/2018 12:50:00 0.0
2018_01_14_S23 01/14/2018 12:55:00 0.0
2018_01_14_S23 01/14/2018 13:00:00 0.0
2018_01_14_S23 01/14/2018 13:05:00 0.0
2018_01_14_S23 01/14/2018 13:10:00 0.0
2018_01_14_S23 01/14/2018 13:15:00 0.0
2018_01_14_S23 01/14/2018 13:20:00 0.0
2018_01_14_S23 01/14/2018 13:25:00 0.0
2018_01_14_S23 01/14/2018 13:30:00 0.0
2018_01_14_S23 01/14/2018 13:35:00 0.0
2018_01_14_S23 01/14/2018 13:40:00 0.0
2018_01_14_S23 01/14/2018 13:45:00 0.0
2018_01_14_S23 01/14/2018 13:50:00 0.0
2018_01_14_S23 01/14/2018 13:55:00 0.0
2018_01_14_S23 01/14/2018 14:00:00 0.0
2018_01_14_S23 01/14/2018 14:05:00 0.0
2018_01_14_S23 01/14/2018 14:10:00 0.0
2018_01_14_S23 01/14/2018 14:15:00 0.0
2018_01_14_S23 01/14/2018 14:20:00 0.0
2018_01_14_S23 01/14/2018 14:25:00 0.0
2018_01_14_S23 01/14/2018 14:30:00 0.0
2018_01_14_S23 01/14/2018 14:35:00 0.0
2018_01_14_S23 01/14/2018 14:40:00 0.0
2018_01_14_S23 01/14/2018 14:45:00 0.0
2018_01_14_S23 01/14/2018 14:50:00 0.0
2018_01_14_S23 01/14/2018 14:55:00 0.0
2018_01_14_S23 01/14/2018 15:00:00 0.0008
2018_01_14_S23 01/14/2018 15:05:00 0.0
2018_01_14_S23 01/14/2018 15:10:00 0.0
2018_01_14_S23 01/14/2018 15:15:00 0.0
2018_01_14_S23 01/14/2018 15:20:00 0.0
2018_01_14_S23 01/14/2018 15:25:00 0.0
2018_01_14_S23 01/14/2018 15:30:00 0.0
2018_01_14_S23 01/14/2018 15:35:00 0.0
2018_01_14_S23 01/14/2018 15:40:00 0.0
2018_01_14_S23 01/14/2018 15:45:00 0.0
2018_01_14_S23 01/14/2018 15:50:00 0.0
2018_01_14_S23 01/14/2018 15:55:00 0.0
2018_01_14_S23 01/14/2018 16:00:00 0.0
2018_01_14_S23 01/14/2018 16:05:00 0.0
2018_01_14_S23 01/14/2018 16:10:00 0.0
2018_01_14_S23 01/14/2018 16:15:00 0.0
2018_01_14_S23 01/14/2018 16:20:00 0.0
2018_01_14_S23 01/14/2018 16:25:00 0.0019
2018_01_14_S23 01/14/2018 16:30:00 0.0
2018_01_14_S23 01/14/2018 16:35:00 0.0
2018_01_14_S23 01/14/2018 16:40:00 0.0172
2018_01_14_S23 01/14/2018 16:45:00 0.0101
2018_01_14_S23 01/14/2018 16:50:00 0.0637
2018_01_14_S23 01/14/2018 16:55:00 0.0223
2018_01_14_S23 01/14/2018 17:00:00 0.0008
2018_01_14_S23 01/14/2018 17:05:00 0.0069
2018_01_14_S23 01/14/2018 17:10:00 0.2014
2018_01_14_S23 01/14/2018 17:15:00 0.0314
2018_01_14_S23 01/14/2018 17:20:00 0.0026
2018_01_14_S23 01/14/2018 17:25:00 0.0031
2018_01_14_S23 01/14/2018 17:30:00 0.0
2018_01_14_S23 01/14/2018 17:35:00 0.125
2018_01_14_S23 01/14/2018 17:40:00 0.1026
2018_01_14_S23 01/14/2018 17:45:00 0.7556
2018_01_14_S23 01/14/2018 17:50:00 0.1837
2018_01_14_S23 01/14/2018 17:55:00 0.2016
2018_01_14_S23 01/14/2018 18:00:00 0.6047
2018_01_14_S23 01/14/2018 18:05:00 0.8135
2018_01_14_S23 01/14/2018 18:10:00 0.4671
2018_01_14_S23 01/14/2018 18:15:00 1.9359
2018_01_14_S23 01/14/2018 18:20:00 4.5595
2018_01_14_S23 01/14/2018 18:25:00 3.6372
2018_01_14_S23 01/14/2018 18:30:00 0.1344
2018_01_14_S23 01/14/2018 18:35:00 0.021
2018_01_14_S23 01/14/2018 18:40:00 0.0012
2018_01_14_S23 01/14/2018 18:45:00 0.4187
2018_01_14_S23 01/14/2018 18:50:00 3.0049
2018_01_14_S23 01/14/2018 18:55:00 0.074
2018_01_14_S23 01/14/2018 19:00:00 1.3146
2018_01_14_S23 01/14/2018 19:05:00 0.0016
2018_01_14_S23 01/14/2018 19:10:00 0.0
2018_01_14_S23 01/14/2018 19:15:00 0.0
2018_01_14_S23 01/14/2018 19:20:00 0.0
2018_01_14_S23 01/14/2018 19:25:00 0.0
2018_01_14_S23 01/14/2018 19:30:00 0.0
2018_01_14_S23 01/14/2018 19:35:00 0.0
2018_01_14_S23 01/14/2018 19:40:00 0.0
2018_01_14_S23 01/14/2018 19:45:00 0.0
2018_01_14_S23 01/14/2018 19:50:00 0.0
2018_01_14_S23 01/14/2018 19:55:00 0.0022
2018_01_14_S23 01/14/2018 20:00:00 0.0
2018_01_14_S23 01/14/2018 20:05:00 0.0
2018_01_14_S23 01/14/2018 20:10:00 0.0
2018_01_14_S23 01/14/2018 20:15:00 0.0
2018_01_14_S23 01/14/2018 20:20:00 0.0
2018_01_14_S23 01/14/2018 20:25:00 0.0
2018_01_14_S23 01/14/2018 20:30:00 0.0
2018_01_14_S23 01/14/2018 20:35:00 0.0
2018_01_14_S23 01/14/2018 20:40:00 0.0
2018_01_14_S23 01/14/2018 20:45:00 0.0
2018_01_14_S23 01/14/2018 20:50:00 0.0
2018_01_14_S23 01/14/2018 20:55:00 0.0
2018_01_14_S23 01/14/2018 21:00:00 0.0
2018_01_14_S23 01/14/2018 21:05:00 0.0
2018_01_14_S23 01/14/2018 21:10:00 0.0
2018_01_14_S23 01/14/2018 21:15:00 0.0
2018_01_14_S23 01/14/2018 21:20:00 0.0
2018_01_14_S23 01/14/2018 21:25:00 0.0
2018_01_14_S23 01/14/2018 21:30:00 0.0
2018_01_14_S23 01/14/2018 21:35:00 0.0
2018_01_14_S23 01/14/2018 21:40:00 0.0
2018_01_14_S23 01/14/2018 21:45:00 0.0
2018_01_14_S23 01/14/2018 21:50:00 0.0
2018_01_14_S23 01/14/2018 21:55:00 0.0
2018_01_14_S23 01/14/2018 22:00:00 0.0
2018_01_14_S23 01/14/2018 22:05:00 0.0
2018_01_14_S23 01/14/2018 22:10:00 0.0
2018_01_14_S23 01/14/2018 22:15:00 0.0
2018_01_14_S23 01/14/2018 22:20:00 0.0
2018_01_14_S23 01/14/2018 22:25:00 0.0
2018_01_14_S23 01/14/2018 22:30:00 0.0
2018_01_14_S23 01/14/2018 22:35:00 0.0
2018_01_14_S23 01/14/2018 22:40:00 0.0
2018_01_14_S23 01/14/2018 22:45:00 0.0
2018_01_14_S23 01/14/2018 22:50:00 0.0
2018_01_14_S23 01/14/2018 22:55:00 0.0032
2018_01_14_S23 01/14/2018 23:00:00 0.0074
2018_01_14_S23 01/14/2018 23:05:00 0.0044
2018_01_14_S23 01/14/2018 23:10:00 0.0009
2018_01_14_S23 01/14/2018 23:15:00 0.0
2018_01_14_S23 01/14/2018 23:20:00 0.0036
2018_01_14_S23 01/14/2018 23:25:00 0.0036
2018_01_14_S23 01/14/2018 23:30:00 0.0
2018_01_14_S23 01/14/2018 23:35:00 0.0
2018_01_14_S23 01/14/2018 23:40:00 0.0
2018_01_14_S23 01/14/2018 23:45:00 0.0
2018_01_14_S23 01/14/2018 23:50:00 0.0
2018_01_14_S23 01/14/2018 23:55:00 0.0
2018_01_14_S23 01/15/2018 00:00:00 0.0
2018_01_14_S23 01/15/2018 00:05:00 0.0
2018_01_14_S23 01/15/2018 00:10:00 0.0
2018_01_14_S23 01/15/2018 00:15:00 0.0
2018_01_14_S23 01/15/2018 00:20:00 0.0
2018_01_14_S23 01/15/2018 00:25:00 0.0
2018_01_14_S23 01/15/2018 00:30:00 0.0
2018_01_14_S23 01/15/2018 00:35:00 0.0
2018_01_14_S23 01/15/2018 00:40:00 0.0
2018_01_14_S23 01/15/2018 00:45:00 0.0
2018_01_14_S23 01/15/2018 00:50:00 0.0
2018_01_14_S23 01/15/2018 00:55:00 0.0
2018_01_14_S23 01/15/2018 01:00:00 0.0
2018_01_14_S23 01/15/2018 01:05:00 0.0
2018_01_14_S23 01/15/2018 01:10:00 0.0
2018_01_14_S23 01/15/2018 01:15:00 0.0
2018_01_14_S23 01/15/2018 01:20:00 0.0
2018_01_14_S23 01/15/2018 01:25:00 0.0
2018_01_14_S23 01/15/2018 01:30:00 0.0
2018_01_14_S23 01/15/2018 01:35:00 0.0
2018_01_14_S23 01/15/2018 01:40:00 0.0
2018_01_14_S23 01/15/2018 01:45:00 0.0
2018_01_14_S23 01/15/2018 01:50:00 0.0
2018_01_14_S23 01/15/2018 01:55:00 0.0
2018_01_14_S23 01/15/2018 02:00:00 0.0
2018_01_14_S23 01/15/2018 02:05:00 0.0
2018_01_14_S23 01/15/2018 02:10:00 0.0
2018_01_14_S23 01/15/2018 02:15:00 0.0
2018_01_14_S23 01/15/2018 02:20:00 0.0
2018_01_14_S23 01/15/2018 02:25:00 0.0003
2018_01_14_S23 01/15/2018 02:30:00 0.0
2018_01_14_S23 01/15/2018 02:35:00 0.0
2018_01_14_S23 01/15/2018 02:40:00 0.1023
2018_01_14_S23 01/15/2018 02:45:00 0.2621
2018_01_14_S23 01/15/2018 02:50:00 0.2886
2018_01_14_S23 01/15/2018 02:55:00 0.4296
2018_01_14_S23 01/15/2018 03:00:00 0.109
2018_01_14_S23 01/15/2018 03:05:00 0.1815
2018_01_14_S23 01/15/2018 03:10:00 0.0357
2018_01_14_S23 01/15/2018 03:15:00 0.0
2018_01_14_S23 01/15/2018 03:20:00 0.0
2018_01_14_S23 01/15/2018 03:25:00 0.0
2018_01_14_S23 01/15/2018 03:30:00 0.0
2018_01_14_S23 01/15/2018 03:35:00 0.0
2018_01_14_S23 01/15/2018 03:40:00 0.0
2018_01_14_S23 01/15/2018 03:45:00 0.0
2018_01_14_S23 01/15/2018 03:50:00 0.0
2018_01_14_S23 01/15/2018 03:55:00 0.0
2018_01_14_S23 01/15/2018 04:00:00 0.0
2018_01_14_S23 01/15/2018 04:05:00 0.0
2018_01_14_S23 01/15/2018 04:10:00 0.0
2018_01_14_S23 01/15/2018 04:15:00 0.0
2018_01_14_S23 01/15/2018 04:20:00 0.0
2018_01_14_S23 01/15/2018 04:25:00 0.0
2018_01_14_S23 01/15/2018 04:30:00 0.0
2018_01_14_S23 01/15/2018 04:35:00 0.0
2018_01_14_S23 01/15/2018 04:40:00 0.0
2018_01_14_S23 01/15/2018 04:45:00 0.0
2018_01_14_S23 01/15/2018 04:50:00 0.0
2018_01_14_S23 01/15/2018 04:55:00 0.0
2018_01_14_S23 01/15/2018 05:00:00 0.0
2018_01_14_S23 01/15/2018 05:05:00 0.0
2018_01_14_S23 01/15/2018 05:10:00 0.0
2018_01_14_S23 01/15/2018 05:15:00 0.0
2018_01_14_S23 01/15/2018 05:20:00 0.0
2018_01_14_S23 01/15/2018 05:25:00 0.0
2018_01_14_S23 01/15/2018 05:30:00 0.0
2018_01_14_S23 01/15/2018 05:35:00 0.0
2018_01_14_S23 01/15/2018 05:40:00 0.0
2018_01_14_S23 01/15/2018 05:45:00 0.0
2018_01_14_S23 01/15/2018 05:50:00 0.0
2018_01_14_S23 01/15/2018 05:55:00 0.0
2018_01_14_S23 01/15/2018 06:00:00 0.0
2018_01_14_S23 01/15/2018 06:05:00 0.0
2018_01_14_S23 01/15/2018 06:10:00 0.0
2018_01_14_S23 01/15/2018 06:15:00 0.0
2018_01_14_S23 01/15/2018 06:20:00 0.0006
2018_01_14_S23 01/15/2018 06:25:00 0.0
2018_01_14_S23 01/15/2018 06:30:00 0.0
2018_01_14_S23 01/15/2018 06:35:00 0.0
2018_01_14_S23 01/15/2018 06:40:00 0.0
2018_01_14_S23 01/15/2018 06:45:00 0.0
2018_01_14_S23 01/15/2018 06:50:00 0.0
2018_01_14_S23 01/15/2018 06:55:00 0.0
2018_01_14_S23 01/15/2018 07:00:00 0.0143
2018_01_14_S23 01/15/2018 07:05:00 0.0
2018_01_14_S23 01/15/2018 07:10:00 0.0
2018_01_14_S23 01/15/2018 07:15:00 0.0003
2018_01_14_S23 01/15/2018 07:20:00 0.0537
2018_01_14_S23 01/15/2018 07:25:00 0.3855
2018_01_14_S23 01/15/2018 07:30:00 0.0239
2018_01_14_S23 01/15/2018 07:35:00 0.0
2018_01_14_S23 01/15/2018 07:40:00 0.0
2018_01_14_S23 01/15/2018 07:45:00 0.0
2018_01_14_S23 01/15/2018 07:50:00 0.0
2018_01_14_S23 01/15/2018 07:55:00 0.0
2018_01_14_S23 01/15/2018 08:00:00 0.0

2018_01_14_S24 01/13/2018 08:00:00 0.0
2018_01_14_S24 01/13/2018 08:05:00 0.0
2018_01_14_S24 01/13/2018 08:10:00 0.0
2018_01_14_S24 01/13/2018 08:15:00 0.0
2018_01_14_S24 01/13/2018 08:20:00 0.0
2018_01_14_S24 01/13/2018 08:25:00 0.0
2018_01_14_S24 01/13/2018 08:30:00 0.0
2018_01_14_S24 01/13/2018 08:35:00 0.0
2018_01_14_S24 01/13/2018 08:40:00 0.0
2018_01_14_S24 01/13/2018 08:45:00 0.0
2018_01_14_S24 01/13/2018 08:50:00 0.0
2018_01_14_S24 01/13/2018 08:55:00 0.0
2018_01_14_S24 01/13/2018 09:00:00 0.0
2018_01_14_S24 01/13/2018 09:05:00 0.0
2018_01_14_S24 01/13/2018 09:10:00 0.0
2018_01_14_S24 01/13/2018 09:15:00 0.0
2018_01_14_S24 01/13/2018 09:20:00 0.0
2018_01_14_S24 01/13/2018 09:25:00 0.0
2018_01_14_S24 01/13/2018 09:30:00 0.0
2018_01_14_S24 01/13/2018 09:35:00 0.0
2018_01_14_S24 01/13/2018 09:40:00 0.0
2018_01_14_S24 01/13/2018 09:45:00 0.0
2018_01_14_S24 01/13/2018 09:50:00 0.0
2018_01_14_S24 01/13/2018 09:55:00 0.0
2018_01_14_S24 01/13/2018 10:00:00 0.0
2018_01_14_S24 01/13/2018 10:05:00 0.0
2018_01_14_S24 01/13/2018 10:10:00 0.0
2018_01_14_S24 01/13/2018 10:15:00 0.0
2018_01_14_S24 01/13/2018 10:20:00 0.0
2018_01_14_S24 01/13/2018 10:25:00 0.0
2018_01_14_S24 01/13/2018 10:30:00 0.0
2018_01_14_S24 01/13/2018 10:35:00 0.0
2018_01_14_S24 01/13/2018 10:40:00 0.0
2018_01_14_S24 01/13/2018 10:45:00 0.0
2018_01_14_S24 01/13/2018 10:50:00 0.0
2018_01_14_S24 01/13/2018 10:55:00 0.0
2018_01_14_S24 01/13/2018 11:00:00 0.0
2018_01_14_S24 01/13/2018 11:05:00 0.0
2018_01_14_S24 01/13/2018 11:10:00 0.0
2018_01_14_S24 01/13/2018 11:15:00 0.0
2018_01_14_S24 01/13/2018 11:20:00 0.0
2018_01_14_S24 01/13/2018 11:25:00 0.0
2018_01_14_S24 01/13/2018 11:30:00 0.0
2018_01_14_S24 01/13/2018 11:35:00 0.0
2018_01_14_S24 01/13/2018 11:40:00 0.0
2018_01_14_S24 01/13/2018 11:45:00 0.0
2018_01_14_S24 01/13/2018 11:50:00 0.0
2018_01_14_S24 01/13/2018 11:55:00 0.0
2018_01_14_S24 01/13/2018 12:00:00 0.0
2018_01_14_S24 01/13/2018 12:05:00 0.0
2018_01_14_S24 01/13/2018 12:10:00 0.0
2018_01_14_S24 01/13/2018 12:15:00 0.0
2018_01_14_S24 01/13/2018 12:20:00 0.0
2018_01_14_S24 01/13/2018 12:25:00 0.0
2018_01_14_S24 01/13/2018 12:30:00 0.0
2018_01_14_S24 01/13/2018 12:35:00 0.0
2018_01_14_S24 01/13/2018 12:40:00 0.0
2018_01_14_S24 01/13/2018 12:45:00 0.0
2018_01_14_S24 01/13/2018 12:50:00 0.0
2018_01_14_S24 01/13/2018 12:55:00 0.0
2018_01_14_S24 01/13/2018 13:00:00 0.0
2018_01_14_S24 01/13/2018 13:05:00 0.0
2018_01_14_S24 01/13/2018 13:10:00 0.0
2018_01_14_S24 01/13/2018 13:15:00 0.0
2018_01_14_S24 01/13/2018 13:20:00 0.0
2018_01_14_S24 01/13/2018 13:25:00 0.0
2018_01_14_S24 01/13/2018 13:30:00 0.0
2018_01_14_S24 01/13/2018 13:35:00 0.0
2018_01_14_S24 01/13/2018 13:40:00 0.0
2018_01_14_S24 01/13/2018 13:45:00 0.0
2018_01_14_S24 01/13/2018 13:50:00 0.0
2018_01_14_S24 01/13/2018 13:55:00 0.0
2018_01_14_S24 01/13/2018 14:00:00 0.0
2018_01_14_S24 01/13/2018 14:05:00 0.0
2018_01_14_S24 01/13/2018 14:10:00 0.0
2018_01_14_S24 01/13/2018 14:15:00 0.0
2018_01_14_S24 01/13/2018 14:20:00 0.0
2018_01_14_S24 01/13/2018 14:25:00 0.0
2018_01_14_S24 01/13/2018 14:30:00 0.0
2018_01_14_S24 01/13/2018 14:35:00 0.0
2018_01_14_S24 01/13/2018 14:40:00 0.0
2018_01_14_S24 01/13/2018 14:45:00 0.0
2018_01_14_S24 01/13/2018 14:50:00 0.0
2018_01_14_S24 01/13/2018 14:55:00 0.0
2018_01_14_S24 01/13/2018 15:00:00 0.0
2018_01_14_S24 01/13/2018 15:05:00 0.0
2018_01_14_S24 01/13/2018 15:10:00 0.0
2018_01_14_S24 01/13/2018 15:15:00 0.0
2018_01_14_S24 01/13/2018 15:20:00 0.0
2018_01_14_S24 01/13/2018 15:25:00 0.0
2018_01_14_S24 01/13/2018 15:30:00 0.0
2018_01_14_S24 01/13/2018 15:35:00 0.0
2018_01_14_S24 01/13/2018 15:40:00 0.0
2018_01_14_S24 01/13/2018 15:45:00 0.0
2018_01_14_S24 01/13/2018 15:50:00 0.0
2018_01_14_S24 01/13/2018 15:55:00 0.0
2018_01_14_S24 01/13/2018 16:00:00 0.0
2018_01_14_S24 01/13/2018 16:05:00 0.0
2018_01_14_S24 01/13/2018 16:10:00 0.0
2018_01_14_S24 01/13/2018 16:15:00 0.0
2018_01_14_S24 01/13/2018 16:20:00 0.0
2018_01_14_S24 01/13/2018 16:25:00 0.0
2018_01_14_S24 01/13/2018 16:30:00 0.0
2018_01_14_S24 01/13/2018 16:35:00 0.0
2018_01_14_S24 01/13/2018 16:40:00 0.0
2018_01_14_S24 01/13/2018 16:45:00 0.0
2018_01_14_S24 01/13/2018 16:50:00 0.0
2018_01_14_S24 01/13/2018 16:55:00 0.0
2018_01_14_S24 01/13/2018 17:00:00 0.0
2018_01_14_S24 01/13/2018 17:05:00 0.0
2018_01_14_S24 01/13/2018 17:10:00 0.0
2018_01_14_S24 01/13/2018 17:15:00 0.0
2018_01_14_S24 01/13/2018 17:20:00 0.0
2018_01_14_S24 01/13/2018 17:25:00 0.0
2018_01_14_S24 01/13/2018 17:30:00 0.0
2018_01_14_S24 01/13/2018 17:35:00 0.0
2018_01_14_S24 01/13/2018 17:40:00 0.0
2018_01_14_S24 01/13/2018 17:45:00 0.0
2018_01_14_S24 01/13/2018 17:50:00 0.0
2018_01_14_S24 01/13/2018 17:55:00 0.0
2018_01_14_S24 01/13/2018 18:00:00 0.0
2018_01_14_S24 01/13/2018 18:05:00 0.0
2018_01_14_S24 01/13/2018 18:10:00 0.0
2018_01_14_S24 01/13/2018 18:15:00 0.0
2018_01_14_S24 01/13/2018 18:20:00 0.0
2018_01_14_S24 01/13/2018 18:25:00 0.0
2018_01_14_S24 01/13/2018 18:30:00 0.0
2018_01_14_S24 01/13/2018 18:35:00 0.0
2018_01_14_S24 01/13/2018 18:40:00 0.0
2018_01_14_S24 01/13/2018 18:45:00 0.0
2018_01_14_S24 01/13/2018 18:50:00 0.0
2018_01_14_S24 01/13/2018 18:55:00 0.0
2018_01_14_S24 01/13/2018 19:00:00 0.0
2018_01_14_S24 01/13/2018 19:05:00 0.0
2018_01_14_S24 01/13/2018 19:10:00 0.0
2018_01_14_S24 01/13/2018 19:15:00 0.0
2018_01_14_S24 01/13/2018 19:20:00 0.0
2018_01_14_S24 01/13/2018 19:25:00 0.0
2018_01_14_S24 01/13/2018 19:30:00 0.0
2018_01_14_S24 01/13/2018 19:35:00 0.0
2018_01_14_S24 01/13/2018 19:40:00 0.0
2018_01_14_S24 01/13/2018 19:45:00 0.0
2018_01_14_S24 01/13/2018 19:50:00 0.0
2018_01_14_S24 01/13/2018 19:55:00 0.0
2018_01_14_S24 01/13/2018 20:00:00 0.0
2018_01_14_S24 01/13/2018 20:05:00 0.0
2018_01_14_S24 01/13/2018 20:10:00 0.0
2018_01_14_S24 01/13/2018 20:15:00 0.0
2018_01_14_S24 01/13/2018 20:20:00 0.0
2018_01_14_S24 01/13/2018 20:25:00 0.0
2018_01_14_S24 01/13/2018 20:30:00 0.0
2018_01_14_S24 01/13/2018 20:35:00 0.0
2018_01_14_S24 01/13/2018 20:40:00 0.0
2018_01_14_S24 01/13/2018 20:45:00 0.0
2018_01_14_S24 01/13/2018 20:50:00 0.0
2018_01_14_S24 01/13/2018 20:55:00 0.0
2018_01_14_S24 01/13/2018 21:00:00 0.0
2018_01_14_S24 01/13/2018 21:05:00 0.0
2018_01_14_S24 01/13/2018 21:10:00 0.0
2018_01_14_S24 01/13/2018 21:15:00 0.0
2018_01_14_S24 01/13/2018 21:20:00 0.0
2018_01_14_S24 01/13/2018 21:25:00 0.0
2018_01_14_S24 01/13/2018 21:30:00 0.0
2018_01_14_S24 01/13/2018 21:35:00 0.0
2018_01_14_S24 01/13/2018 21:40:00 0.0
2018_01_14_S24 01/13/2018 21:45:00 0.0
2018_01_14_S24 01/13/2018 21:50:00 0.0
2018_01_14_S24 01/13/2018 21:55:00 0.0
2018_01_14_S24 01/13/2018 22:00:00 0.0
2018_01_14_S24 01/13/2018 22:05:00 0.0
2018_01_14_S24 01/13/2018 22:10:00 0.0
2018_01_14_S24 01/13/2018 22:15:00 0.0
2018_01_14_S24 01/13/2018 22:20:00 0.0
2018_01_14_S24 01/13/2018 22:25:00 0.0
2018_01_14_S24 01/13/2018 22:30:00 0.0
2018_01_14_S24 01/13/2018 22:35:00 0.0
2018_01_14_S24 01/13/2018 22:40:00 0.0
2018_01_14_S24 01/13/2018 22:45:00 0.0
2018_01_14_S24 01/13/2018 22:50:00 0.0
2018_01_14_S24 01/13/2018 22:55:00 0.0
2018_01_14_S24 01/13/2018 23:00:00 0.0
2018_01_14_S24 01/13/2018 23:05:00 0.0
2018_01_14_S24 01/13/2018 23:10:00 0.0
2018_01_14_S24 01/13/2018 23:15:00 0.0
2018_01_14_S24 01/13/2018 23:20:00 0.0
2018_01_14_S24 01/13/2018 23:25:00 0.0
2018_01_14_S24 01/13/2018 23:30:00 0.0
2018_01_14_S24 01/13/2018 23:35:00 0.0
2018_01_14_S24 01/13/2018 23:40:00 0.0
2018_01_14_S24 01/13/2018 23:45:00 0.0
2018_01_14_S24 01/13/2018 23:50:00 0.0
2018_01_14_S24 01/13/2018 23:55:00 0.0
2018_01_14_S24 01/14/2018 00:00:00 0.0
2018_01_14_S24 01/14/2018 00:05:00 0.0
2018_01_14_S24 01/14/2018 00:10:00 0.0
2018_01_14_S24 01/14/2018 00:15:00 0.0
2018_01_14_S24 01/14/2018 00:20:00 0.0
2018_01_14_S24 01/14/2018 00:25:00 0.0
2018_01_14_S24 01/14/2018 00:30:00 0.0
2018_01_14_S24 01/14/2018 00:35:00 0.0
2018_01_14_S24 01/14/2018 00:40:00 0.0
2018_01_14_S24 01/14/2018 00:45:00 0.0
2018_01_14_S24 01/14/2018 00:50:00 0.0
2018_01_14_S24 01/14/2018 00:55:00 0.0
2018_01_14_S24 01/14/2018 01:00:00 0.0
2018_01_14_S24 01/14/2018 01:05:00 0.0
2018_01_14_S24 01/14/2018 01:10:00 0.0
2018_01_14_S24 01/14/2018 01:15:00 0.0
2018_01_14_S24 01/14/2018 01:20:00 0.0
2018_01_14_S24 01/14/2018 01:25:00 0.0
2018_01_14_S24 01/14/2018 01:30:00 0.0
2018_01_14_S24 01/14/2018 01:35:00 0.0
2018_01_14_S24 01/14/2018 01:40:00 0.0
2018_01_14_S24 01/14/2018 01:45:00 0.0
2018_01_14_S24 01/14/2018 01:50:00 0.0
2018_01_14_S24 01/14/2018 01:55:00 0.0
2018_01_14_S24 01/14/2018 02:00:00 0.0
2018_01_14_S24 01/14/2018 02:05:00 0.0
2018_01_14_S24 01/14/2018 02:10:00 0.0
2018_01_14_S24 01/14/2018 02:15:00 0.0
2018_01_14_S24 01/14/2018 02:20:00 0.0
2018_01_14_S24 01/14/2018 02:25:00 0.0
2018_01_14_S24 01/14/2018 02:30:00 0.0
2018_01_14_S24 01/14/2018 02:35:00 0.0
2018_01_14_S24 01/14/2018 02:40:00 0.0
2018_01_14_S24 01/14/2018 02:45:00 0.0
2018_01_14_S24 01/14/2018 02:50:00 0.0
2018_01_14_S24 01/14/2018 02:55:00 0.0
2018_01_14_S24 01/14/2018 03:00:00 0.01
2018_01_14_S24 01/14/2018 03:05:00 0.0164
2018_01_14_S24 01/14/2018 03:10:00 0.136
2018_01_14_S24 01/14/2018 03:15:00 0.0
2018_01_14_S24 01/14/2018 03:20:00 0.0
2018_01_14_S24 01/14/2018 03:25:00 0.0
2018_01_14_S24 01/14/2018 03:30:00 0.0
2018_01_14_S24 01/14/2018 03:35:00 0.0
2018_01_14_S24 01/14/2018 03:40:00 0.0
2018_01_14_S24 01/14/2018 03:45:00 0.0
2018_01_14_S24 01/14/2018 03:50:00 0.0
2018_01_14_S24 01/14/2018 03:55:00 0.0
2018_01_14_S24 01/14/2018 04:00:00 0.0
2018_01_14_S24 01/14/2018 04:05:00 0.0
2018_01_14_S24 01/14/2018 04:10:00 0.0
2018_01_14_S24 01/14/2018 04:15:00 0.0
2018_01_14_S24 01/14/2018 04:20:00 0.0
2018_01_14_S24 01/14/2018 04:25:00 0.0
2018_01_14_S24 01/14/2018 04:30:00 0.0
2018_01_14_S24 01/14/2018 04:35:00 0.0
2018_01_14_S24 01/14/2018 04:40:00 0.0
2018_01_14_S24 01/14/2018 04:45:00 0.0
2018_01_14_S24 01/14/2018 04:50:00 0.0
2018_01_14_S24 01/14/2018 04:55:00 0.0
2018_01_14_S24 01/14/2018 05:00:00 0.0007
2018_01_14_S24 01/14/2018 05:05:00 0.0064
2018_01_14_S24 01/14/2018 05:10:00 0.0233
2018_01_14_S24 01/14/2018 05:15:00 0.0053
2018_01_14_S24 01/14/2018 05:20:00 0.0
2018_01_14_S24 01/14/2018 05:25:00 0.0
2018_01_14_S24 01/14/2018 05:30:00 0.0
2018_01_14_S24 01/14/2018 05:35:00 0.0
2018_01_14_S24 01/14/2018 05:40:00 0.0
2018_01_14_S24 01/14/2018 05:45:00 0.0
2018_01_14_S24 01/14/2018 05:50:00 0.0
2018_01_14_S24 01/14/2018 05:55:00 0.0276
2018_01_14_S24 01/14/2018 06:00:00 7.7164
2018_01_14_S24 01/14/2018 06:05:00 0.8191
2018_01_14_S24 01/14/2018 06:10:00 0.1612
2018_01_14_S24 01/14/2018 06:15:00 0.0
2018_01_14_S24 01/14/2018 06:20:00 0.0345
2018_01_14_S24 01/14/2018 06:25:00 0.6406
2018_01_14_S24 01/14/2018 06:30:00 0.0089
2018_01_14_S24 01/14/2018 06:35:00 0.0
2018_01_14_S24 01/14/2018 06:40:00 0.0
2018_01_14_S24 01/14/2018 06:45:00 0.0
2018_01_14_S24 01/14/2018 06:50:00 0.0
2018_01_14_S24 01/14/2018 06:55:00 0.0
2018_01_14_S24 01/14/2018 07:00:00 0.0
2018_01_14_S24 01/14/2018 07:05:00 0.0
2018_01_14_S24 01/14/2018 07:10:00 0.0
2018_01_14_S24 01/14/2018 07:15:00 0.0
2018_01_14_S24 01/14/2018 07:20:00 0.0
2018_01_14_S24 01/14/2018 07:25:00 0.0
2018_01_14_S24 01/14/2018 07:30:00 0.0
2018_01_14_S24 01/14/2018 07:35:00 0.0
2018_01_14_S24 01/14/2018 07:40:00 0.0
2018_01_14_S24 01/14/2018 07:45:00 0.0
2018_01_14_S24 01/14/2018 07:50:00 0.0126
2018_01_14_S24 01/14/2018 07:55:00 0.0077
2018_01_14_S24 01/14/2018 08:00:00 0.0
2018_01_14_S24 01/14/2018 08:05:00 0.0
2018_01_14_S24 01/14/2018 08:10:00 0.0
2018_01_14_S24 01/14/2018 08:15:00 0.0
2018_01_14_S24 01/14/2018 08:20:00 0.0
2018_01_14_S24 01/14/2018 08:25:00 0.0
2018_01_14_S24 01/14/2018 08:30:00 0.0137
2018_01_14_S24 01/14/2018 08:35:00 0.0032
2018_01_14_S24 01/14/2018 08:40:00 0.2585
2018_01_14_S24 01/14/2018 08:45:00 0.0141
2018_01_14_S24 01/14/2018 08:50:00 0.0
2018_01_14_S24 01/14/2018 08:55:00 0.0
2018_01_14_S24 01/14/2018 09:00:00 0.0
2018_01_14_S24 01/14/2018 09:05:00 0.0
2018_01_14_S24 01/14/2018 09:10:00 0.0
2018_01_14_S24 01/14/2018 09:15:00 0.0
2018_01_14_S24 01/14/2018 09:20:00 0.0
2018_01_14_S24 01/14/2018 09:25:00 0.0
2018_01_14_S24 01/14/2018 09:30:00 0.0
2018_01_14_S24 01/14/2018 09:35:00 0.0
2018_01_14_S24 01/14/2018 09:40:00 0.0
2018_01_14_S24 01/14/2018 09:45:00 0.0
2018_01_14_S24 01/14/2018 09:50:00 0.0
2018_01_14_S24 01/14/2018 09:55:00 0.0
2018_01_14_S24 01/14/2018 10:00:00 0.0
2018_01_14_S24 01/14/2018 10:05:00 0.0
2018_01_14_S24 01/14/2018 10:10:00 0.0
2018_01_14_S24 01/14/2018 10:15:00 0.0
2018_01_14_S24 01/14/2018 10:20:00 0.0
2018_01_14_S24 01/14/2018 10:25:00 0.0
2018_01_14_S24 01/14/2018 10:30:00 0.0
2018_01_14_S24 01/14/2018 10:35:00 0.0
2018_01_14_S24 01/14/2018 10:40:00 0.0
2018_01_14_S24 01/14/2018 10:45:00 0.0
2018_01_14_S24 01/14/2018 10:50:00 0.0
2018_01_14_S24 01/14/2018 10:55:00 0.0
2018_01_14_S24 01/14/2018 11:00:00 0.0
2018_01_14_S24 01/14/2018 11:05:00 0.0
2018_01_14_S24 01/14/2018 11:10:00 0.0
2018_01_14_S24 01/14/2018 11:15:00 0.0
2018_01_14_S24 01/14/2018 11:20:00 0.0
2018_01_14_S24 01/14/2018 11:25:00 0.0
2018_01_14_S24 01/14/2018 11:30:00 0.0
2018_01_14_S24 01/14/2018 11:35:00 0.0
2018_01_14_S24 01/14/2018 11:40:00 0.0
2018_01_14_S24 01/14/2018 11:45:00 0.0
2018_01_14_S24 01/14/2018 11:50:00 0.0
2018_01_14_S24 01/14/2018 11:55:00 0.0
2018_01_14_S24 01/14/2018 12:00:00 0.0
2018_01_14_S24 01/14/2018 12:05:00 0.0
2018_01_14_S24 01/14/2018 12:10:00 0.0
2018_01_14_S24 01/14/2018 12:15:00 0.0
2018_01_14_S24 01/14/2018 12:20:00 0.0
2018_01_14_S24 01/14/2018 12:25:00 0.0
2018_01_14_S24 01/14/2018 12:30:00 0.0
2018_01_14_S24 01/14/2018 12:35:00 0.0
2018_01_14_S24 01/14/2018 12:40:00 0.0
2018_01_14_S24 01/14/2018 12:45:00 0.0
2018_01_14_S24 01/14/2018 12:50:00 0.0
2018_01_14_S24 01/14/2018 12:55:00 0.0
2018_01_14_S24 01/14/2018 13:00:00 0.0
2018_01_14_S24 01/14/2018 13:05:00 0.0
2018_01_14_S24 01/14/2018 13:10:00 0.0
2018_01_14_S24 01/14/2018 13:15:00 0.0
2018_01_14_S24 01/14/2018 13:20:00 0.0
2018_01_14_S24 01/14/2018 13:25:00 0.0
2018_01_14_S24 01/14/2018 13:30:00 0.0
2018_01_14_S24 01/14/2018 13:35:00 0.0
2018_01_14_S24 01/14/2018 13:40:00 0.0
2018_01_14_S24 01/14/2018 13:45:00 0.0
2018_01_14_S24 01/14/2018 13:50:00 0.0
2018_01_14_S24 01/14/2018 13:55:00 0.0
2018_01_14_S24 01/14/2018 14:00:00 0.0
2018_01_14_S24 01/14/2018 14:05:00 0.0
2018_01_14_S24 01/14/2018 14:10:00 0.0
2018_01_14_S24 01/14/2018 14:15:00 0.0
2018_01_14_S24 01/14/2018 14:20:00 0.0
2018_01_14_S24 01/14/2018 14:25:00 0.0
2018_01_14_S24 01/14/2018 14:30:00 0.0
2018_01_14_S24 01/14/2018 14:35:00 0.0
2018_01_14_S24 01/14/2018 14:40:00 0.0
2018_01_14_S24 01/14/2018 14:45:00 0.0
2018_01_14_S24 01/14/2018 14:50:00 0.0
2018_01_14_S24 01/14/2018 14:55:00 0.0
2018_01_14_S24 01/14/2018 15:00:00 0.0022
2018_01_14_S24 01/14/2018 15:05:00 0.0
2018_01_14_S24 01/14/2018 15:10:00 0.0
2018_01_14_S24 01/14/2018 15:15:00 0.0
2018_01_14_S24 01/14/2018 15:20:00 0.0
2018_01_14_S24 01/14/2018 15:25:00 0.0
2018_01_14_S24 01/14/2018 15:30:00 0.0
2018_01_14_S24 01/14/2018 15:35:00 0.0
2018_01_14_S24 01/14/2018 15:40:00 0.0
2018_01_14_S24 01/14/2018 15:45:00 0.0
2018_01_14_S24 01/14/2018 15:50:00 0.0
2018_01_14_S24 01/14/2018 15:55:00 0.0
2018_01_14_S24 01/14/2018 16:00:00 0.0
2018_01_14_S24 01/14/2018 16:05:00 0.0
2018_01_14_S24 01/14/2018 16:10:00 0.0
2018_01_14_S24 01/14/2018 16:15:00 0.0
2018_01_14_S24 01/14/2018 16:20:00 0.0
2018_01_14_S24 01/14/2018 16:25:00 0.0015
2018_01_14_S24 01/14/2018 16:30:00 0.0
2018_01_14_S24 01/14/2018 16:35:00 0.0
2018_01_14_S24 01/14/2018 16:40:00 0.0312
2018_01_14_S24 01/14/2018 16:45:00 0.0118
2018_01_14_S24 01/14/2018 16:50:00 0.0949
2018_01_14_S24 01/14/2018 16:55:00 0.0142
2018_01_14_S24 01/14/2018 17:00:00 0.0
2018_01_14_S24 01/14/2018 17:05:00 0.0056
2018_01_14_S24 01/14/2018 17:10:00 0.246
2018_01_14_S24 01/14/2018 17:15:00 0.0116
2018_01_14_S24 01/14/2018 17:20:00 0.0026
2018_01_14_S24 01/14/2018 17:25:00 0.0014
2018_01_14_S24 01/14/2018 17:30:00 0.0
2018_01_14_S24 01/14/2018 17:35:00 0.154
2018_01_14_S24 01/14/2018 17:40:00 0.1533
2018_01_14_S24 01/14/2018 17:45:00 0.8332
2018_01_14_S24 01/14/2018 17:50:00 0.1658
2018_01_14_S24 01/14/2018 17:55:00 0.1681
2018_01_14_S24 01/14/2018 18:00:00 0.6089
2018_01_14_S24 01/14/2018 18:05:00 0.6906
2018_01_14_S24 01/14/2018 18:10:00 0.7567
2018_01_14_S24 01/14/2018 18:15:00 2.8927
2018_01_14_S24 01/14/2018 18:20:00 5.2447
2018_01_14_S24 01/14/2018 18:25:00 2.0653
2018_01_14_S24 01/14/2018 18:30:00 0.2452
2018_01_14_S24 01/14/2018 18:35:00 0.0184
2018_01_14_S24 01/14/2018 18:40:00 0.0066
2018_01_14_S24 01/14/2018 18:45:00 0.7567
2018_01_14_S24 01/14/2018 18:50:00 3.2352
2018_01_14_S24 01/14/2018 18:55:00 0.01
2018_01_14_S24 01/14/2018 19:00:00 0.7001
2018_01_14_S24 01/14/2018 19:05:00 0.0
2018_01_14_S24 01/14/2018 19:10:00 0.0
2018_01_14_S24 01/14/2018 19:15:00 0.0
2018_01_14_S24 01/14/2018 19:20:00 0.0
2018_01_14_S24 01/14/2018 19:25:00 0.0
2018_01_14_S24 01/14/2018 19:30:00 0.0
2018_01_14_S24 01/14/2018 19:35:00 0.0
2018_01_14_S24 01/14/2018 19:40:00 0.0
2018_01_14_S24 01/14/2018 19:45:00 0.0
2018_01_14_S24 01/14/2018 19:50:00 0.0
2018_01_14_S24 01/14/2018 19:55:00 0.0
2018_01_14_S24 01/14/2018 20:00:00 0.0
2018_01_14_S24 01/14/2018 20:05:00 0.0
2018_01_14_S24 01/14/2018 20:10:00 0.0
2018_01_14_S24 01/14/2018 20:15:00 0.0
2018_01_14_S24 01/14/2018 20:20:00 0.0
2018_01_14_S24 01/14/2018 20:25:00 0.0
2018_01_14_S24 01/14/2018 20:30:00 0.0
2018_01_14_S24 01/14/2018 20:35:00 0.0
2018_01_14_S24 01/14/2018 20:40:00 0.0
2018_01_14_S24 01/14/2018 20:45:00 0.0
2018_01_14_S24 01/14/2018 20:50:00 0.0
2018_01_14_S24 01/14/2018 20:55:00 0.0
2018_01_14_S24 01/14/2018 21:00:00 0.0
2018_01_14_S24 01/14/2018 21:05:00 0.0
2018_01_14_S24 01/14/2018 21:10:00 0.0
2018_01_14_S24 01/14/2018 21:15:00 0.0
2018_01_14_S24 01/14/2018 21:20:00 0.0
2018_01_14_S24 01/14/2018 21:25:00 0.0
2018_01_14_S24 01/14/2018 21:30:00 0.0
2018_01_14_S24 01/14/2018 21:35:00 0.0
2018_01_14_S24 01/14/2018 21:40:00 0.0
2018_01_14_S24 01/14/2018 21:45:00 0.0
2018_01_14_S24 01/14/2018 21:50:00 0.0
2018_01_14_S24 01/14/2018 21:55:00 0.0
2018_01_14_S24 01/14/2018 22:00:00 0.0
2018_01_14_S24 01/14/2018 22:05:00 0.0
2018_01_14_S24 01/14/2018 22:10:00 0.0
2018_01_14_S24 01/14/2018 22:15:00 0.0
2018_01_14_S24 01/14/2018 22:20:00 0.0
2018_01_14_S24 01/14/2018 22:25:00 0.0
2018_01_14_S24 01/14/2018 22:30:00 0.0
2018_01_14_S24 01/14/2018 22:35:00 0.0
2018_01_14_S24 01/14/2018 22:40:00 0.0
2018_01_14_S24 01/14/2018 22:45:00 0.0
2018_01_14_S24 01/14/2018 22:50:00 0.0
2018_01_14_S24 01/14/2018 22:55:00 0.0063
2018_01_14_S24 01/14/2018 23:00:00 0.0094
2018_01_14_S24 01/14/2018 23:05:00 0.0047
2018_01_14_S24 01/14/2018 23:10:00 0.0
2018_01_14_S24 01/14/2018 23:15:00 0.0008
2018_01_14_S24 01/14/2018 23:20:00 0.0079
2018_01_14_S24 01/14/2018 23:25:00 0.0022
2018_01_14_S24 01/14/2018 23:30:00 0.0
2018_01_14_S24 01/14/2018 23:35:00 0.0
2018_01_14_S24 01/14/2018 23:40:00 0.0
2018_01_14_S24 01/14/2018 23:45:00 0.0
2018_01_14_S24 01/14/2018 23:50:00 0.0
2018_01_14_S24 01/14/2018 23:55:00 0.0
2018_01_14_S24 01/15/2018 00:00:00 0.0
2018_01_14_S24 01/15/2018 00:05:00 0.0
2018_01_14_S24 01/15/2018 00:10:00 0.0
2018_01_14_S24 01/15/2018 00:15:00 0.0
2018_01_14_S24 01/15/2018 00:20:00 0.0
2018_01_14_S24 01/15/2018 00:25:00 0.0
2018_01_14_S24 01/15/2018 00:30:00 0.0
2018_01_14_S24 01/15/2018 00:35:00 0.0
2018_01_14_S24 01/15/2018 00:40:00 0.0
2018_01_14_S24 01/15/2018 00:45:00 0.0
2018_01_14_S24 01/15/2018 00:50:00 0.0
2018_01_14_S24 01/15/2018 00:55:00 0.0
2018_01_14_S24 01/15/2018 01:00:00 0.0
2018_01_14_S24 01/15/2018 01:05:00 0.0
2018_01_14_S24 01/15/2018 01:10:00 0.0
2018_01_14_S24 01/15/2018 01:15:00 0.0
2018_01_14_S24 01/15/2018 01:20:00 0.0
2018_01_14_S24 01/15/2018 01:25:00 0.0
2018_01_14_S24 01/15/2018 01:30:00 0.0
2018_01_14_S24 01/15/2018 01:35:00 0.0
2018_01_14_S24 01/15/2018 01:40:00 0.0
2018_01_14_S24 01/15/2018 01:45:00 0.0
2018_01_14_S24 01/15/2018 01:50:00 0.0
2018_01_14_S24 01/15/2018 01:55:00 0.0
2018_01_14_S24 01/15/2018 02:00:00 0.0
2018_01_14_S24 01/15/2018 02:05:00 0.0
2018_01_14_S24 01/15/2018 02:10:00 0.0
2018_01_14_S24 01/15/2018 02:15:00 0.0
2018_01_14_S24 01/15/2018 02:20:00 0.0
2018_01_14_S24 01/15/2018 02:25:00 0.0
2018_01_14_S24 01/15/2018 02:30:00 0.0
2018_01_14_S24 01/15/2018 02:35:00 0.0
2018_01_14_S24 01/15/2018 02:40:00 0.1832
2018_01_14_S24 01/15/2018 02:45:00 0.3491
2018_01_14_S24 01/15/2018 02:50:00 0.5403
2018_01_14_S24 01/15/2018 02:55:00 0.034
2018_01_14_S24 01/15/2018 03:00:00 0.1817
2018_01_14_S24 01/15/2018 03:05:00 0.0594
2018_01_14_S24 01/15/2018 03:10:00 0.0093
2018_01_14_S24 01/15/2018 03:15:00 0.0
2018_01_14_S24 01/15/2018 03:20:00 0.0
2018_01_14_S24 01/15/2018 03:25:00 0.0
2018_01_14_S24 01/15/2018 03:30:00 0.0
2018_01_14_S24 01/15/2018 03:35:00 0.0
2018_01_14_S24 01/15/2018 03:40:00 0.0
2018_01_14_S24 01/15/2018 03:45:00 0.0
2018_01_14_S24 01/15/2018 03:50:00 0.0
2018_01_14_S24 01/15/2018 03:55:00 0.0
2018_01_14_S24 01/15/2018 04:00:00 0.0
2018_01_14_S24 01/15/2018 04:05:00 0.0
2018_01_14_S24 01/15/2018 04:10:00 0.0
2018_01_14_S24 01/15/2018 04:15:00 0.0
2018_01_14_S24 01/15/2018 04:20:00 0.0
2018_01_14_S24 01/15/2018 04:25:00 0.0
2018_01_14_S24 01/15/2018 04:30:00 0.0
2018_01_14_S24 01/15/2018 04:35:00 0.0
2018_01_14_S24 01/15/2018 04:40:00 0.0
2018_01_14_S24 01/15/2018 04:45:00 0.0
2018_01_14_S24 01/15/2018 04:50:00 0.0
2018_01_14_S24 01/15/2018 04:55:00 0.0
2018_01_14_S24 01/15/2018 05:00:00 0.0
2018_01_14_S24 01/15/2018 05:05:00 0.0
2018_01_14_S24 01/15/2018 05:10:00 0.0
2018_01_14_S24 01/15/2018 05:15:00 0.0
2018_01_14_S24 01/15/2018 05:20:00 0.0
2018_01_14_S24 01/15/2018 05:25:00 0.0
2018_01_14_S24 01/15/2018 05:30:00 0.0
2018_01_14_S24 01/15/2018 05:35:00 0.0
2018_01_14_S24 01/15/2018 05:40:00 0.0
2018_01_14_S24 01/15/2018 05:45:00 0.0
2018_01_14_S24 01/15/2018 05:50:00 0.0
2018_01_14_S24 01/15/2018 05:55:00 0.0
2018_01_14_S24 01/15/2018 06:00:00 0.0
2018_01_14_S24 01/15/2018 06:05:00 0.0
2018_01_14_S24 01/15/2018 06:10:00 0.0
2018_01_14_S24 01/15/2018 06:15:00 0.0
2018_01_14_S24 01/15/2018 06:20:00 0.0
2018_01_14_S24 01/15/2018 06:25:00 0.0
2018_01_14_S24 01/15/2018 06:30:00 0.0
2018_01_14_S24 01/15/2018 06:35:00 0.0
2018_01_14_S24 01/15/2018 06:40:00 0.0
2018_01_14_S24 01/15/2018 06:45:00 0.0
2018_01_14_S24 01/15/2018 06:50:00 0.0
2018_01_14_S24 01/15/2018 06:55:00 0.0
2018_01_14_S24 01/15/2018 07:00:00 0.0037
2018_01_14_S24 01/15/2018 07:05:00 0.0
2018_01_14_S24 01/15/2018 07:10:00 0.0
2018_01_14_S24 01/15/2018 07:15:00 0.0055
2018_01_14_S24 01/15/2018 07:20:00 0.0904
2018_01_14_S24 01/15/2018 07:25:00 0.4061
2018_01_14_S24 01/15/2018 07:30:00 0.0
2018_01_14_S24 01/15/2018 07:35:00 0.0
2018_01_14_S24 01/15/2018 07:40:00 0.0
2018_01_14_S24 01/15/2018 07:45:00 0.0
2018_01_14_S24 01/15/2018 07:50:00 0.0
2018_01_14_S24 01/15/2018 07:55:00 0.0
2018_01_14_S24 01/15/2018 08:00:00 0.0

2018_01_14_S25 01/13/2018 08:00:00 0.0
2018_01_14_S25 01/13/2018 08:05:00 0.0
2018_01_14_S25 01/13/2018 08:10:00 0.0
2018_01_14_S25 01/13/2018 08:15:00 0.0
2018_01_14_S25 01/13/2018 08:20:00 0.0
2018_01_14_S25 01/13/2018 08:25:00 0.0
2018_01_14_S25 01/13/2018 08:30:00 0.0
2018_01_14_S25 01/13/2018 08:35:00 0.0
2018_01_14_S25 01/13/2018 08:40:00 0.0
2018_01_14_S25 01/13/2018 08:45:00 0.0
2018_01_14_S25 01/13/2018 08:50:00 0.0
2018_01_14_S25 01/13/2018 08:55:00 0.0
2018_01_14_S25 01/13/2018 09:00:00 0.0
2018_01_14_S25 01/13/2018 09:05:00 0.0
2018_01_14_S25 01/13/2018 09:10:00 0.0
2018_01_14_S25 01/13/2018 09:15:00 0.0
2018_01_14_S25 01/13/2018 09:20:00 0.0
2018_01_14_S25 01/13/2018 09:25:00 0.0
2018_01_14_S25 01/13/2018 09:30:00 0.0
2018_01_14_S25 01/13/2018 09:35:00 0.0
2018_01_14_S25 01/13/2018 09:40:00 0.0
2018_01_14_S25 01/13/2018 09:45:00 0.0
2018_01_14_S25 01/13/2018 09:50:00 0.0
2018_01_14_S25 01/13/2018 09:55:00 0.0
2018_01_14_S25 01/13/2018 10:00:00 0.0
2018_01_14_S25 01/13/2018 10:05:00 0.0
2018_01_14_S25 01/13/2018 10:10:00 0.0
2018_01_14_S25 01/13/2018 10:15:00 0.0
2018_01_14_S25 01/13/2018 10:20:00 0.0
2018_01_14_S25 01/13/2018 10:25:00 0.0
2018_01_14_S25 01/13/2018 10:30:00 0.0
2018_01_14_S25 01/13/2018 10:35:00 0.0
2018_01_14_S25 01/13/2018 10:40:00 0.0
2018_01_14_S25 01/13/2018 10:45:00 0.0
2018_01_14_S25 01/13/2018 10:50:00 0.0
2018_01_14_S25 01/13/2018 10:55:00 0.0
2018_01_14_S25 01/13/2018 11:00:00 0.0
2018_01_14_S25 01/13/2018 11:05:00 0.0
2018_01_14_S25 01/13/2018 11:10:00 0.0
2018_01_14_S25 01/13/2018 11:15:00 0.0
2018_01_14_S25 01/13/2018 11:20:00 0.0
2018_01_14_S25 01/13/2018 11:25:00 0.0
2018_01_14_S25 01/13/2018 11:30:00 0.0
2018_01_14_S25 01/13/2018 11:35:00 0.0
2018_01_14_S25 01/13/2018 11:40:00 0.0
2018_01_14_S25 01/13/2018 11:45:00 0.0
2018_01_14_S25 01/13/2018 11:50:00 0.0
2018_01_14_S25 01/13/2018 11:55:00 0.0
2018_01_14_S25 01/13/2018 12:00:00 0.0
2018_01_14_S25 01/13/2018 12:05:00 0.0
2018_01_14_S25 01/13/2018 12:10:00 0.0
2018_01_14_S25 01/13/2018 12:15:00 0.0
2018_01_14_S25 01/13/2018 12:20:00 0.0
2018_01_14_S25 01/13/2018 12:25:00 0.0
2018_01_14_S25 01/13/2018 12:30:00 0.0
2018_01_14_S25 01/13/2018 12:35:00 0.0
2018_01_14_S25 01/13/2018 12:40:00 0.0
2018_01_14_S25 01/13/2018 12:45:00 0.0
2018_01_14_S25 01/13/2018 12:50:00 0.0
2018_01_14_S25 01/13/2018 12:55:00 0.0
2018_01_14_S25 01/13/2018 13:00:00 0.0
2018_01_14_S25 01/13/2018 13:05:00 0.0
2018_01_14_S25 01/13/2018 13:10:00 0.0
2018_01_14_S25 01/13/2018 13:15:00 0.0
2018_01_14_S25 01/13/2018 13:20:00 0.0
2018_01_14_S25 01/13/2018 13:25:00 0.0
2018_01_14_S25 01/13/2018 13:30:00 0.0
2018_01_14_S25 01/13/2018 13:35:00 0.0
2018_01_14_S25 01/13/2018 13:40:00 0.0
2018_01_14_S25 01/13/2018 13:45:00 0.0
2018_01_14_S25 01/13/2018 13:50:00 0.0
2018_01_14_S25 01/13/2018 13:55:00 0.0
2018_01_14_S25 01/13/2018 14:00:00 0.0
2018_01_14_S25 01/13/2018 14:05:00 0.0
2018_01_14_S25 01/13/2018 14:10:00 0.0
2018_01_14_S25 01/13/2018 14:15:00 0.0
2018_01_14_S25 01/13/2018 14:20:00 0.0
2018_01_14_S25 01/13/2018 14:25:00 0.0
2018_01_14_S25 01/13/2018 14:30:00 0.0
2018_01_14_S25 01/13/2018 14:35:00 0.0
2018_01_14_S25 01/13/2018 14:40:00 0.0
2018_01_14_S25 01/13/2018 14:45:00 0.0
2018_01_14_S25 01/13/2018 14:50:00 0.0
2018_01_14_S25 01/13/2018 14:55:00 0.0
2018_01_14_S25 01/13/2018 15:00:00 0.0
2018_01_14_S25 01/13/2018 15:05:00 0.0
2018_01_14_S25 01/13/2018 15:10:00 0.0
2018_01_14_S25 01/13/2018 15:15:00 0.0
2018_01_14_S25 01/13/2018 15:20:00 0.0
2018_01_14_S25 01/13/2018 15:25:00 0.0
2018_01_14_S25 01/13/2018 15:30:00 0.0
2018_01_14_S25 01/13/2018 15:35:00 0.0
2018_01_14_S25 01/13/2018 15:40:00 0.0
2018_01_14_S25 01/13/2018 15:45:00 0.0
2018_01_14_S25 01/13/2018 15:50:00 0.0
2018_01_14_S25 01/13/2018 15:55:00 0.0
2018_01_14_S25 01/13/2018 16:00:00 0.0
2018_01_14_S25 01/13/2018 16:05:00 0.0
2018_01_14_S25 01/13/2018 16:10:00 0.0
2018_01_14_S25 01/13/2018 16:15:00 0.0
2018_01_14_S25 01/13/2018 16:20:00 0.0
2018_01_14_S25 01/13/2018 16:25:00 0.0
2018_01_14_S25 01/13/2018 16:30:00 0.0
2018_01_14_S25 01/13/2018 16:35:00 0.0
2018_01_14_S25 01/13/2018 16:40:00 0.0
2018_01_14_S25 01/13/2018 16:45:00 0.0
2018_01_14_S25 01/13/2018 16:50:00 0.0
2018_01_14_S25 01/13/2018 16:55:00 0.0
2018_01_14_S25 01/13/2018 17:00:00 0.0
2018_01_14_S25 01/13/2018 17:05:00 0.0
2018_01_14_S25 01/13/2018 17:10:00 0.0
2018_01_14_S25 01/13/2018 17:15:00 0.0
2018_01_14_S25 01/13/2018 17:20:00 0.0
2018_01_14_S25 01/13/2018 17:25:00 0.0
2018_01_14_S25 01/13/2018 17:30:00 0.0
2018_01_14_S25 01/13/2018 17:35:00 0.0
2018_01_14_S25 01/13/2018 17:40:00 0.0
2018_01_14_S25 01/13/2018 17:45:00 0.0
2018_01_14_S25 01/13/2018 17:50:00 0.0
2018_01_14_S25 01/13/2018 17:55:00 0.0
2018_01_14_S25 01/13/2018 18:00:00 0.0
2018_01_14_S25 01/13/2018 18:05:00 0.0
2018_01_14_S25 01/13/2018 18:10:00 0.0
2018_01_14_S25 01/13/2018 18:15:00 0.0
2018_01_14_S25 01/13/2018 18:20:00 0.0
2018_01_14_S25 01/13/2018 18:25:00 0.0
2018_01_14_S25 01/13/2018 18:30:00 0.0
2018_01_14_S25 01/13/2018 18:35:00 0.0
2018_01_14_S25 01/13/2018 18:40:00 0.0
2018_01_14_S25 01/13/2018 18:45:00 0.0
2018_01_14_S25 01/13/2018 18:50:00 0.0
2018_01_14_S25 01/13/2018 18:55:00 0.0
2018_01_14_S25 01/13/2018 19:00:00 0.0
2018_01_14_S25 01/13/2018 19:05:00 0.0
2018_01_14_S25 01/13/2018 19:10:00 0.0
2018_01_14_S25 01/13/2018 19:15:00 0.0
2018_01_14_S25 01/13/2018 19:20:00 0.0
2018_01_14_S25 01/13/2018 19:25:00 0.0
2018_01_14_S25 01/13/2018 19:30:00 0.0
2018_01_14_S25 01/13/2018 19:35:00 0.0
2018_01_14_S25 01/13/2018 19:40:00 0.0
2018_01_14_S25 01/13/2018 19:45:00 0.0
2018_01_14_S25 01/13/2018 19:50:00 0.0
2018_01_14_S25 01/13/2018 19:55:00 0.0
2018_01_14_S25 01/13/2018 20:00:00 0.0
2018_01_14_S25 01/13/2018 20:05:00 0.0
2018_01_14_S25 01/13/2018 20:10:00 0.0
2018_01_14_S25 01/13/2018 20:15:00 0.0
2018_01_14_S25 01/13/2018 20:20:00 0.0
2018_01_14_S25 01/13/2018 20:25:00 0.0
2018_01_14_S25 01/13/2018 20:30:00 0.0
2018_01_14_S25 01/13/2018 20:35:00 0.0
2018_01_14_S25 01/13/2018 20:40:00 0.0
2018_01_14_S25 01/13/2018 20:45:00 0.0
2018_01_14_S25 01/13/2018 20:50:00 0.0
2018_01_14_S25 01/13/2018 20:55:00 0.0
2018_01_14_S25 01/13/2018 21:00:00 0.0
2018_01_14_S25 01/13/2018 21:05:00 0.0
2018_01_14_S25 01/13/2018 21:10:00 0.0
2018_01_14_S25 01/13/2018 21:15:00 0.0
2018_01_14_S25 01/13/2018 21:20:00 0.0
2018_01_14_S25 01/13/2018 21:25:00 0.0
2018_01_14_S25 01/13/2018 21:30:00 0.0
2018_01_14_S25 01/13/2018 21:35:00 0.0
2018_01_14_S25 01/13/2018 21:40:00 0.0
2018_01_14_S25 01/13/2018 21:45:00 0.0
2018_01_14_S25 01/13/2018 21:50:00 0.0
2018_01_14_S25 01/13/2018 21:55:00 0.0
2018_01_14_S25 01/13/2018 22:00:00 0.0
2018_01_14_S25 01/13/2018 22:05:00 0.0
2018_01_14_S25 01/13/2018 22:10:00 0.0
2018_01_14_S25 01/13/2018 22:15:00 0.0
2018_01_14_S25 01/13/2018 22:20:00 0.0
2018_01_14_S25 01/13/2018 22:25:00 0.0
2018_01_14_S25 01/13/2018 22:30:00 0.0
2018_01_14_S25 01/13/2018 22:35:00 0.0
2018_01_14_S25 01/13/2018 22:40:00 0.0
2018_01_14_S25 01/13/2018 22:45:00 0.0
2018_01_14_S25 01/13/2018 22:50:00 0.0
2018_01_14_S25 01/13/2018 22:55:00 0.0
2018_01_14_S25 01/13/2018 23:00:00 0.0
2018_01_14_S25 01/13/2018 23:05:00 0.0
2018_01_14_S25 01/13/2018 23:10:00 0.0
2018_01_14_S25 01/13/2018 23:15:00 0.0
2018_01_14_S25 01/13/2018 23:20:00 0.0
2018_01_14_S25 01/13/2018 23:25:00 0.0
2018_01_14_S25 01/13/2018 23:30:00 0.0
2018_01_14_S25 01/13/2018 23:35:00 0.0
2018_01_14_S25 01/13/2018 23:40:00 0.0
2018_01_14_S25 01/13/2018 23:45:00 0.0
2018_01_14_S25 01/13/2018 23:50:00 0.0
2018_01_14_S25 01/13/2018 23:55:00 0.0
2018_01_14_S25 01/14/2018 00:00:00 0.0
2018_01_14_S25 01/14/2018 00:05:00 0.0
2018_01_14_S25 01/14/2018 00:10:00 0.0
2018_01_14_S25 01/14/2018 00:15:00 0.0
2018_01_14_S25 01/14/2018 00:20:00 0.0
2018_01_14_S25 01/14/2018 00:25:00 0.0
2018_01_14_S25 01/14/2018 00:30:00 0.0
2018_01_14_S25 01/14/2018 00:35:00 0.0
2018_01_14_S25 01/14/2018 00:40:00 0.0
2018_01_14_S25 01/14/2018 00:45:00 0.0
2018_01_14_S25 01/14/2018 00:50:00 0.0
2018_01_14_S25 01/14/2018 00:55:00 0.0
2018_01_14_S25 01/14/2018 01:00:00 0.0
2018_01_14_S25 01/14/2018 01:05:00 0.0
2018_01_14_S25 01/14/2018 01:10:00 0.0
2018_01_14_S25 01/14/2018 01:15:00 0.0
2018_01_14_S25 01/14/2018 01:20:00 0.0
2018_01_14_S25 01/14/2018 01:25:00 0.0
2018_01_14_S25 01/14/2018 01:30:00 0.0
2018_01_14_S25 01/14/2018 01:35:00 0.0
2018_01_14_S25 01/14/2018 01:40:00 0.0
2018_01_14_S25 01/14/2018 01:45:00 0.0
2018_01_14_S25 01/14/2018 01:50:00 0.0
2018_01_14_S25 01/14/2018 01:55:00 0.0
2018_01_14_S25 01/14/2018 02:00:00 0.0
2018_01_14_S25 01/14/2018 02:05:00 0.0
2018_01_14_S25 01/14/2018 02:10:00 0.0
2018_01_14_S25 01/14/2018 02:15:00 0.0
2018_01_14_S25 01/14/2018 02:20:00 0.0
2018_01_14_S25 01/14/2018 02:25:00 0.0
2018_01_14_S25 01/14/2018 02:30:00 0.0
2018_01_14_S25 01/14/2018 02:35:00 0.0
2018_01_14_S25 01/14/2018 02:40:00 0.0
2018_01_14_S25 01/14/2018 02:45:00 0.0
2018_01_14_S25 01/14/2018 02:50:00 0.0
2018_01_14_S25 01/14/2018 02:55:00 0.0
2018_01_14_S25 01/14/2018 03:00:00 0.0107
2018_01_14_S25 01/14/2018 03:05:00 0.015
2018_01_14_S25 01/14/2018 03:10:00 0.1294
2018_01_14_S25 01/14/2018 03:15:00 0.0
2018_01_14_S25 01/14/2018 03:20:00 0.0
2018_01_14_S25 01/14/2018 03:25:00 0.0
2018_01_14_S25 01/14/2018 03:30:00 0.0
2018_01_14_S25 01/14/2018 03:35:00 0.0
2018_01_14_S25 01/14/2018 03:40:00 0.0
2018_01_14_S25 01/14/2018 03:45:00 0.0
2018_01_14_S25 01/14/2018 03:50:00 0.0
2018_01_14_S25 01/14/2018 03:55:00 0.0
2018_01_14_S25 01/14/2018 04:00:00 0.0
2018_01_14_S25 01/14/2018 04:05:00 0.0
2018_01_14_S25 01/14/2018 04:10:00 0.0
2018_01_14_S25 01/14/2018 04:15:00 0.0
2018_01_14_S25 01/14/2018 04:20:00 0.0
2018_01_14_S25 01/14/2018 04:25:00 0.0
2018_01_14_S25 01/14/2018 04:30:00 0.0
2018_01_14_S25 01/14/2018 04:35:00 0.0
2018_01_14_S25 01/14/2018 04:40:00 0.0
2018_01_14_S25 01/14/2018 04:45:00 0.0
2018_01_14_S25 01/14/2018 04:50:00 0.0
2018_01_14_S25 01/14/2018 04:55:00 0.0
2018_01_14_S25 01/14/2018 05:00:00 0.0029
2018_01_14_S25 01/14/2018 05:05:00 0.0067
2018_01_14_S25 01/14/2018 05:10:00 0.0096
2018_01_14_S25 01/14/2018 05:15:00 0.0001
2018_01_14_S25 01/14/2018 05:20:00 0.0
2018_01_14_S25 01/14/2018 05:25:00 0.0
2018_01_14_S25 01/14/2018 05:30:00 0.0
2018_01_14_S25 01/14/2018 05:35:00 0.0
2018_01_14_S25 01/14/2018 05:40:00 0.0
2018_01_14_S25 01/14/2018 05:45:00 0.0
2018_01_14_S25 01/14/2018 05:50:00 0.0
2018_01_14_S25 01/14/2018 05:55:00 0.0237
2018_01_14_S25 01/14/2018 06:00:00 5.6512
2018_01_14_S25 01/14/2018 06:05:00 0.845
2018_01_14_S25 01/14/2018 06:10:00 0.1012
2018_01_14_S25 01/14/2018 06:15:00 0.0
2018_01_14_S25 01/14/2018 06:20:00 0.0478
2018_01_14_S25 01/14/2018 06:25:00 0.9882
2018_01_14_S25 01/14/2018 06:30:00 0.0053
2018_01_14_S25 01/14/2018 06:35:00 0.0
2018_01_14_S25 01/14/2018 06:40:00 0.0
2018_01_14_S25 01/14/2018 06:45:00 0.0
2018_01_14_S25 01/14/2018 06:50:00 0.0
2018_01_14_S25 01/14/2018 06:55:00 0.0
2018_01_14_S25 01/14/2018 07:00:00 0.0
2018_01_14_S25 01/14/2018 07:05:00 0.0
2018_01_14_S25 01/14/2018 07:10:00 0.0
2018_01_14_S25 01/14/2018 07:15:00 0.0
2018_01_14_S25 01/14/2018 07:20:00 0.0
2018_01_14_S25 01/14/2018 07:25:00 0.0
2018_01_14_S25 01/14/2018 07:30:00 0.0
2018_01_14_S25 01/14/2018 07:35:00 0.0
2018_01_14_S25 01/14/2018 07:40:00 0.0
2018_01_14_S25 01/14/2018 07:45:00 0.0
2018_01_14_S25 01/14/2018 07:50:00 0.0125
2018_01_14_S25 01/14/2018 07:55:00 0.0079
2018_01_14_S25 01/14/2018 08:00:00 0.0
2018_01_14_S25 01/14/2018 08:05:00 0.0
2018_01_14_S25 01/14/2018 08:10:00 0.0
2018_01_14_S25 01/14/2018 08:15:00 0.0
2018_01_14_S25 01/14/2018 08:20:00 0.0
2018_01_14_S25 01/14/2018 08:25:00 0.0
2018_01_14_S25 01/14/2018 08:30:00 0.0239
2018_01_14_S25 01/14/2018 08:35:00 0.0059
2018_01_14_S25 01/14/2018 08:40:00 0.3769
2018_01_14_S25 01/14/2018 08:45:00 0.0018
2018_01_14_S25 01/14/2018 08:50:00 0.0
2018_01_14_S25 01/14/2018 08:55:00 0.0
2018_01_14_S25 01/14/2018 09:00:00 0.0
2018_01_14_S25 01/14/2018 09:05:00 0.0
2018_01_14_S25 01/14/2018 09:10:00 0.0
2018_01_14_S25 01/14/2018 09:15:00 0.0
2018_01_14_S25 01/14/2018 09:20:00 0.0
2018_01_14_S25 01/14/2018 09:25:00 0.0
2018_01_14_S25 01/14/2018 09:30:00 0.0
2018_01_14_S25 01/14/2018 09:35:00 0.0
2018_01_14_S25 01/14/2018 09:40:00 0.0
2018_01_14_S25 01/14/2018 09:45:00 0.0
2018_01_14_S25 01/14/2018 09:50:00 0.0
2018_01_14_S25 01/14/2018 09:55:00 0.0
2018_01_14_S25 01/14/2018 10:00:00 0.0
2018_01_14_S25 01/14/2018 10:05:00 0.0
2018_01_14_S25 01/14/2018 10:10:00 0.0
2018_01_14_S25 01/14/2018 10:15:00 0.0
2018_01_14_S25 01/14/2018 10:20:00 0.0
2018_01_14_S25 01/14/2018 10:25:00 0.0
2018_01_14_S25 01/14/2018 10:30:00 0.0
2018_01_14_S25 01/14/2018 10:35:00 0.0
2018_01_14_S25 01/14/2018 10:40:00 0.0
2018_01_14_S25 01/14/2018 10:45:00 0.0
2018_01_14_S25 01/14/2018 10:50:00 0.0
2018_01_14_S25 01/14/2018 10:55:00 0.0
2018_01_14_S25 01/14/2018 11:00:00 0.0
2018_01_14_S25 01/14/2018 11:05:00 0.0
2018_01_14_S25 01/14/2018 11:10:00 0.0
2018_01_14_S25 01/14/2018 11:15:00 0.0
2018_01_14_S25 01/14/2018 11:20:00 0.0
2018_01_14_S25 01/14/2018 11:25:00 0.0
2018_01_14_S25 01/14/2018 11:30:00 0.0
2018_01_14_S25 01/14/2018 11:35:00 0.0
2018_01_14_S25 01/14/2018 11:40:00 0.0
2018_01_14_S25 01/14/2018 11:45:00 0.0
2018_01_14_S25 01/14/2018 11:50:00 0.0
2018_01_14_S25 01/14/2018 11:55:00 0.0
2018_01_14_S25 01/14/2018 12:00:00 0.0
2018_01_14_S25 01/14/2018 12:05:00 0.0
2018_01_14_S25 01/14/2018 12:10:00 0.0
2018_01_14_S25 01/14/2018 12:15:00 0.0
2018_01_14_S25 01/14/2018 12:20:00 0.0
2018_01_14_S25 01/14/2018 12:25:00 0.0
2018_01_14_S25 01/14/2018 12:30:00 0.0
2018_01_14_S25 01/14/2018 12:35:00 0.0
2018_01_14_S25 01/14/2018 12:40:00 0.0
2018_01_14_S25 01/14/2018 12:45:00 0.0
2018_01_14_S25 01/14/2018 12:50:00 0.0
2018_01_14_S25 01/14/2018 12:55:00 0.0
2018_01_14_S25 01/14/2018 13:00:00 0.0
2018_01_14_S25 01/14/2018 13:05:00 0.0
2018_01_14_S25 01/14/2018 13:10:00 0.0
2018_01_14_S25 01/14/2018 13:15:00 0.0
2018_01_14_S25 01/14/2018 13:20:00 0.0
2018_01_14_S25 01/14/2018 13:25:00 0.0
2018_01_14_S25 01/14/2018 13:30:00 0.0
2018_01_14_S25 01/14/2018 13:35:00 0.0
2018_01_14_S25 01/14/2018 13:40:00 0.0
2018_01_14_S25 01/14/2018 13:45:00 0.0
2018_01_14_S25 01/14/2018 13:50:00 0.0
2018_01_14_S25 01/14/2018 13:55:00 0.0
2018_01_14_S25 01/14/2018 14:00:00 0.0
2018_01_14_S25 01/14/2018 14:05:00 0.0
2018_01_14_S25 01/14/2018 14:10:00 0.0
2018_01_14_S25 01/14/2018 14:15:00 0.0
2018_01_14_S25 01/14/2018 14:20:00 0.0
2018_01_14_S25 01/14/2018 14:25:00 0.0
2018_01_14_S25 01/14/2018 14:30:00 0.0
2018_01_14_S25 01/14/2018 14:35:00 0.0
2018_01_14_S25 01/14/2018 14:40:00 0.0
2018_01_14_S25 01/14/2018 14:45:00 0.0
2018_01_14_S25 01/14/2018 14:50:00 0.0
2018_01_14_S25 01/14/2018 14:55:00 0.0
2018_01_14_S25 01/14/2018 15:00:00 0.0001
2018_01_14_S25 01/14/2018 15:05:00 0.0
2018_01_14_S25 01/14/2018 15:10:00 0.0
2018_01_14_S25 01/14/2018 15:15:00 0.0
2018_01_14_S25 01/14/2018 15:20:00 0.0
2018_01_14_S25 01/14/2018 15:25:00 0.0
2018_01_14_S25 01/14/2018 15:30:00 0.0
2018_01_14_S25 01/14/2018 15:35:00 0.0
2018_01_14_S25 01/14/2018 15:40:00 0.0
2018_01_14_S25 01/14/2018 15:45:00 0.0
2018_01_14_S25 01/14/2018 15:50:00 0.0
2018_01_14_S25 01/14/2018 15:55:00 0.0
2018_01_14_S25 01/14/2018 16:00:00 0.0
2018_01_14_S25 01/14/2018 16:05:00 0.0
2018_01_14_S25 01/14/2018 16:10:00 0.0
2018_01_14_S25 01/14/2018 16:15:00 0.0
2018_01_14_S25 01/14/2018 16:20:00 0.0
2018_01_14_S25 01/14/2018 16:25:00 0.0
2018_01_14_S25 01/14/2018 16:30:00 0.0
2018_01_14_S25 01/14/2018 16:35:00 0.0
2018_01_14_S25 01/14/2018 16:40:00 0.0415
2018_01_14_S25 01/14/2018 16:45:00 0.0151
2018_01_14_S25 01/14/2018 16:50:00 0.0887
2018_01_14_S25 01/14/2018 16:55:00 0.0225
2018_01_14_S25 01/14/2018 17:00:00 0.0
2018_01_14_S25 01/14/2018 17:05:00 0.0057
2018_01_14_S25 01/14/2018 17:10:00 0.3403
2018_01_14_S25 01/14/2018 17:15:00 0.0129
2018_01_14_S25 01/14/2018 17:20:00 0.0047
2018_01_14_S25 01/14/2018 17:25:00 0.0
2018_01_14_S25 01/14/2018 17:30:00 0.0
2018_01_14_S25 01/14/2018 17:35:00 0.1558
2018_01_14_S25 01/14/2018 17:40:00 0.121
2018_01_14_S25 01/14/2018 17:45:00 0.8374
2018_01_14_S25 01/14/2018 17:50:00 0.2408
2018_01_14_S25 01/14/2018 17:55:00 0.1725
2018_01_14_S25 01/14/2018 18:00:00 0.3926
2018_01_14_S25 01/14/2018 18:05:00 0.6808
2018_01_14_S25 01/14/2018 18:10:00 0.6173
2018_01_14_S25 01/14/2018 18:15:00 1.8961
2018_01_14_S25 01/14/2018 18:20:00 5.6919
2018_01_14_S25 01/14/2018 18:25:00 2.1309
2018_01_14_S25 01/14/2018 18:30:00 0.2794
2018_01_14_S25 01/14/2018 18:35:00 0.0098
2018_01_14_S25 01/14/2018 18:40:00 0.0003
2018_01_14_S25 01/14/2018 18:45:00 0.8305
2018_01_14_S25 01/14/2018 18:50:00 3.4807
2018_01_14_S25 01/14/2018 18:55:00 0.0036
2018_01_14_S25 01/14/2018 19:00:00 0.7921
2018_01_14_S25 01/14/2018 19:05:00 0.0
2018_01_14_S25 01/14/2018 19:10:00 0.0
2018_01_14_S25 01/14/2018 19:15:00 0.0
2018_01_14_S25 01/14/2018 19:20:00 0.0
2018_01_14_S25 01/14/2018 19:25:00 0.0
2018_01_14_S25 01/14/2018 19:30:00 0.0
2018_01_14_S25 01/14/2018 19:35:00 0.0
2018_01_14_S25 01/14/2018 19:40:00 0.0
2018_01_14_S25 01/14/2018 19:45:00 0.0
2018_01_14_S25 01/14/2018 19:50:00 0.0
2018_01_14_S25 01/14/2018 19:55:00 0.0
2018_01_14_S25 01/14/2018 20:00:00 0.0
2018_01_14_S25 01/14/2018 20:05:00 0.0
2018_01_14_S25 01/14/2018 20:10:00 0.0
2018_01_14_S25 01/14/2018 20:15:00 0.0
2018_01_14_S25 01/14/2018 20:20:00 0.0
2018_01_14_S25 01/14/2018 20:25:00 0.0
2018_01_14_S25 01/14/2018 20:30:00 0.0
2018_01_14_S25 01/14/2018 20:35:00 0.0
2018_01_14_S25 01/14/2018 20:40:00 0.0
2018_01_14_S25 01/14/2018 20:45:00 0.0
2018_01_14_S25 01/14/2018 20:50:00 0.0
2018_01_14_S25 01/14/2018 20:55:00 0.0
2018_01_14_S25 01/14/2018 21:00:00 0.0
2018_01_14_S25 01/14/2018 21:05:00 0.0
2018_01_14_S25 01/14/2018 21:10:00 0.0
2018_01_14_S25 01/14/2018 21:15:00 0.0
2018_01_14_S25 01/14/2018 21:20:00 0.0
2018_01_14_S25 01/14/2018 21:25:00 0.0
2018_01_14_S25 01/14/2018 21:30:00 0.0
2018_01_14_S25 01/14/2018 21:35:00 0.0
2018_01_14_S25 01/14/2018 21:40:00 0.0
2018_01_14_S25 01/14/2018 21:45:00 0.0
2018_01_14_S25 01/14/2018 21:50:00 0.0
2018_01_14_S25 01/14/2018 21:55:00 0.0
2018_01_14_S25 01/14/2018 22:00:00 0.0
2018_01_14_S25 01/14/2018 22:05:00 0.0
2018_01_14_S25 01/14/2018 22:10:00 0.0
2018_01_14_S25 01/14/2018 22:15:00 0.0
2018_01_14_S25 01/14/2018 22:20:00 0.0
2018_01_14_S25 01/14/2018 22:25:00 0.0
2018_01_14_S25 01/14/2018 22:30:00 0.0
2018_01_14_S25 01/14/2018 22:35:00 0.0
2018_01_14_S25 01/14/2018 22:40:00 0.0
2018_01_14_S25 01/14/2018 22:45:00 0.0
2018_01_14_S25 01/14/2018 22:50:00 0.0
2018_01_14_S25 01/14/2018 22:55:00 0.0109
2018_01_14_S25 01/14/2018 23:00:00 0.0092
2018_01_14_S25 01/14/2018 23:05:00 0.0041
2018_01_14_S25 01/14/2018 23:10:00 0.0
2018_01_14_S25 01/14/2018 23:15:00 0.0002
2018_01_14_S25 01/14/2018 23:20:00 0.0089
2018_01_14_S25 01/14/2018 23:25:00 0.0042
2018_01_14_S25 01/14/2018 23:30:00 0.0
2018_01_14_S25 01/14/2018 23:35:00 0.0
2018_01_14_S25 01/14/2018 23:40:00 0.0
2018_01_14_S25 01/14/2018 23:45:00 0.0
2018_01_14_S25 01/14/2018 23:50:00 0.0
2018_01_14_S25 01/14/2018 23:55:00 0.0
2018_01_14_S25 01/15/2018 00:00:00 0.0
2018_01_14_S25 01/15/2018 00:05:00 0.0
2018_01_14_S25 01/15/2018 00:10:00 0.0
2018_01_14_S25 01/15/2018 00:15:00 0.0
2018_01_14_S25 01/15/2018 00:20:00 0.0
2018_01_14_S25 01/15/2018 00:25:00 0.0
2018_01_14_S25 01/15/2018 00:30:00 0.0
2018_01_14_S25 01/15/2018 00:35:00 0.0
2018_01_14_S25 01/15/2018 00:40:00 0.0
2018_01_14_S25 01/15/2018 00:45:00 0.0
2018_01_14_S25 01/15/2018 00:50:00 0.0
2018_01_14_S25 01/15/2018 00:55:00 0.0
2018_01_14_S25 01/15/2018 01:00:00 0.0
2018_01_14_S25 01/15/2018 01:05:00 0.0
2018_01_14_S25 01/15/2018 01:10:00 0.0
2018_01_14_S25 01/15/2018 01:15:00 0.0
2018_01_14_S25 01/15/2018 01:20:00 0.0
2018_01_14_S25 01/15/2018 01:25:00 0.0
2018_01_14_S25 01/15/2018 01:30:00 0.0
2018_01_14_S25 01/15/2018 01:35:00 0.0
2018_01_14_S25 01/15/2018 01:40:00 0.0
2018_01_14_S25 01/15/2018 01:45:00 0.0
2018_01_14_S25 01/15/2018 01:50:00 0.0
2018_01_14_S25 01/15/2018 01:55:00 0.0
2018_01_14_S25 01/15/2018 02:00:00 0.0
2018_01_14_S25 01/15/2018 02:05:00 0.0
2018_01_14_S25 01/15/2018 02:10:00 0.0
2018_01_14_S25 01/15/2018 02:15:00 0.0
2018_01_14_S25 01/15/2018 02:20:00 0.0
2018_01_14_S25 01/15/2018 02:25:00 0.0
2018_01_14_S25 01/15/2018 02:30:00 0.0
2018_01_14_S25 01/15/2018 02:35:00 0.0
2018_01_14_S25 01/15/2018 02:40:00 0.1593
2018_01_14_S25 01/15/2018 02:45:00 0.5864
2018_01_14_S25 01/15/2018 02:50:00 0.5947
2018_01_14_S25 01/15/2018 02:55:00 0.0195
2018_01_14_S25 01/15/2018 03:00:00 0.1466
2018_01_14_S25 01/15/2018 03:05:00 0.0227
2018_01_14_S25 01/15/2018 03:10:00 0.0017
2018_01_14_S25 01/15/2018 03:15:00 0.0
2018_01_14_S25 01/15/2018 03:20:00 0.0
2018_01_14_S25 01/15/2018 03:25:00 0.0
2018_01_14_S25 01/15/2018 03:30:00 0.0
2018_01_14_S25 01/15/2018 03:35:00 0.0
2018_01_14_S25 01/15/2018 03:40:00 0.0
2018_01_14_S25 01/15/2018 03:45:00 0.0
2018_01_14_S25 01/15/2018 03:50:00 0.0
2018_01_14_S25 01/15/2018 03:55:00 0.0
2018_01_14_S25 01/15/2018 04:00:00 0.0
2018_01_14_S25 01/15/2018 04:05:00 0.0
2018_01_14_S25 01/15/2018 04:10:00 0.0
2018_01_14_S25 01/15/2018 04:15:00 0.0
2018_01_14_S25 01/15/2018 04:20:00 0.0
2018_01_14_S25 01/15/2018 04:25:00 0.0
2018_01_14_S25 01/15/2018 04:30:00 0.0
2018_01_14_S25 01/15/2018 04:35:00 0.0
2018_01_14_S25 01/15/2018 04:40:00 0.0
2018_01_14_S25 01/15/2018 04:45:00 0.0
2018_01_14_S25 01/15/2018 04:50:00 0.0
2018_01_14_S25 01/15/2018 04:55:00 0.0
2018_01_14_S25 01/15/2018 05:00:00 0.0
2018_01_14_S25 01/15/2018 05:05:00 0.0
2018_01_14_S25 01/15/2018 05:10:00 0.0
2018_01_14_S25 01/15/2018 05:15:00 0.0
2018_01_14_S25 01/15/2018 05:20:00 0.0
2018_01_14_S25 01/15/2018 05:25:00 0.0
2018_01_14_S25 01/15/2018 05:30:00 0.0
2018_01_14_S25 01/15/2018 05:35:00 0.0
2018_01_14_S25 01/15/2018 05:40:00 0.0
2018_01_14_S25 01/15/2018 05:45:00 0.0
2018_01_14_S25 01/15/2018 05:50:00 0.0
2018_01_14_S25 01/15/2018 05:55:00 0.0
2018_01_14_S25 01/15/2018 06:00:00 0.0
2018_01_14_S25 01/15/2018 06:05:00 0.0
2018_01_14_S25 01/15/2018 06:10:00 0.0
2018_01_14_S25 01/15/2018 06:15:00 0.0
2018_01_14_S25 01/15/2018 06:20:00 0.004
2018_01_14_S25 01/15/2018 06:25:00 0.0
2018_01_14_S25 01/15/2018 06:30:00 0.0
2018_01_14_S25 01/15/2018 06:35:00 0.0
2018_01_14_S25 01/15/2018 06:40:00 0.0
2018_01_14_S25 01/15/2018 06:45:00 0.0
2018_01_14_S25 01/15/2018 06:50:00 0.0
2018_01_14_S25 01/15/2018 06:55:00 0.0
2018_01_14_S25 01/15/2018 07:00:00 0.0003
2018_01_14_S25 01/15/2018 07:05:00 0.0
2018_01_14_S25 01/15/2018 07:10:00 0.0
2018_01_14_S25 01/15/2018 07:15:00 0.0006
2018_01_14_S25 01/15/2018 07:20:00 0.0655
2018_01_14_S25 01/15/2018 07:25:00 0.3462
2018_01_14_S25 01/15/2018 07:30:00 0.0
2018_01_14_S25 01/15/2018 07:35:00 0.0
2018_01_14_S25 01/15/2018 07:40:00 0.0
2018_01_14_S25 01/15/2018 07:45:00 0.0
2018_01_14_S25 01/15/2018 07:50:00 0.0
2018_01_14_S25 01/15/2018 07:55:00 0.0
2018_01_14_S25 01/15/2018 08:00:00 0.0

2018_01_14_S26 01/13/2018 08:00:00 0.0
2018_01_14_S26 01/13/2018 08:05:00 0.0
2018_01_14_S26 01/13/2018 08:10:00 0.0
2018_01_14_S26 01/13/2018 08:15:00 0.0
2018_01_14_S26 01/13/2018 08:20:00 0.0
2018_01_14_S26 01/13/2018 08:25:00 0.0
2018_01_14_S26 01/13/2018 08:30:00 0.0
2018_01_14_S26 01/13/2018 08:35:00 0.0
2018_01_14_S26 01/13/2018 08:40:00 0.0
2018_01_14_S26 01/13/2018 08:45:00 0.0
2018_01_14_S26 01/13/2018 08:50:00 0.0
2018_01_14_S26 01/13/2018 08:55:00 0.0
2018_01_14_S26 01/13/2018 09:00:00 0.0
2018_01_14_S26 01/13/2018 09:05:00 0.0
2018_01_14_S26 01/13/2018 09:10:00 0.0
2018_01_14_S26 01/13/2018 09:15:00 0.0
2018_01_14_S26 01/13/2018 09:20:00 0.0
2018_01_14_S26 01/13/2018 09:25:00 0.0
2018_01_14_S26 01/13/2018 09:30:00 0.0
2018_01_14_S26 01/13/2018 09:35:00 0.0
2018_01_14_S26 01/13/2018 09:40:00 0.0
2018_01_14_S26 01/13/2018 09:45:00 0.0
2018_01_14_S26 01/13/2018 09:50:00 0.0
2018_01_14_S26 01/13/2018 09:55:00 0.0
2018_01_14_S26 01/13/2018 10:00:00 0.0
2018_01_14_S26 01/13/2018 10:05:00 0.0
2018_01_14_S26 01/13/2018 10:10:00 0.0
2018_01_14_S26 01/13/2018 10:15:00 0.0
2018_01_14_S26 01/13/2018 10:20:00 0.0
2018_01_14_S26 01/13/2018 10:25:00 0.0
2018_01_14_S26 01/13/2018 10:30:00 0.0
2018_01_14_S26 01/13/2018 10:35:00 0.0
2018_01_14_S26 01/13/2018 10:40:00 0.0
2018_01_14_S26 01/13/2018 10:45:00 0.0
2018_01_14_S26 01/13/2018 10:50:00 0.0
2018_01_14_S26 01/13/2018 10:55:00 0.0
2018_01_14_S26 01/13/2018 11:00:00 0.0
2018_01_14_S26 01/13/2018 11:05:00 0.0
2018_01_14_S26 01/13/2018 11:10:00 0.0
2018_01_14_S26 01/13/2018 11:15:00 0.0
2018_01_14_S26 01/13/2018 11:20:00 0.0
2018_01_14_S26 01/13/2018 11:25:00 0.0
2018_01_14_S26 01/13/2018 11:30:00 0.0
2018_01_14_S26 01/13/2018 11:35:00 0.0
2018_01_14_S26 01/13/2018 11:40:00 0.0
2018_01_14_S26 01/13/2018 11:45:00 0.0
2018_01_14_S26 01/13/2018 11:50:00 0.0
2018_01_14_S26 01/13/2018 11:55:00 0.0
2018_01_14_S26 01/13/2018 12:00:00 0.0
2018_01_14_S26 01/13/2018 12:05:00 0.0
2018_01_14_S26 01/13/2018 12:10:00 0.0
2018_01_14_S26 01/13/2018 12:15:00 0.0
2018_01_14_S26 01/13/2018 12:20:00 0.0
2018_01_14_S26 01/13/2018 12:25:00 0.0
2018_01_14_S26 01/13/2018 12:30:00 0.0
2018_01_14_S26 01/13/2018 12:35:00 0.0
2018_01_14_S26 01/13/2018 12:40:00 0.0
2018_01_14_S26 01/13/2018 12:45:00 0.0
2018_01_14_S26 01/13/2018 12:50:00 0.0
2018_01_14_S26 01/13/2018 12:55:00 0.0
2018_01_14_S26 01/13/2018 13:00:00 0.0
2018_01_14_S26 01/13/2018 13:05:00 0.0
2018_01_14_S26 01/13/2018 13:10:00 0.0
2018_01_14_S26 01/13/2018 13:15:00 0.0
2018_01_14_S26 01/13/2018 13:20:00 0.0
2018_01_14_S26 01/13/2018 13:25:00 0.0
2018_01_14_S26 01/13/2018 13:30:00 0.0
2018_01_14_S26 01/13/2018 13:35:00 0.0
2018_01_14_S26 01/13/2018 13:40:00 0.0
2018_01_14_S26 01/13/2018 13:45:00 0.0
2018_01_14_S26 01/13/2018 13:50:00 0.0
2018_01_14_S26 01/13/2018 13:55:00 0.0
2018_01_14_S26 01/13/2018 14:00:00 0.0
2018_01_14_S26 01/13/2018 14:05:00 0.0
2018_01_14_S26 01/13/2018 14:10:00 0.0
2018_01_14_S26 01/13/2018 14:15:00 0.0
2018_01_14_S26 01/13/2018 14:20:00 0.0
2018_01_14_S26 01/13/2018 14:25:00 0.0
2018_01_14_S26 01/13/2018 14:30:00 0.0
2018_01_14_S26 01/13/2018 14:35:00 0.0
2018_01_14_S26 01/13/2018 14:40:00 0.0
2018_01_14_S26 01/13/2018 14:45:00 0.0
2018_01_14_S26 01/13/2018 14:50:00 0.0
2018_01_14_S26 01/13/2018 14:55:00 0.0
2018_01_14_S26 01/13/2018 15:00:00 0.0
2018_01_14_S26 01/13/2018 15:05:00 0.0
2018_01_14_S26 01/13/2018 15:10:00 0.0
2018_01_14_S26 01/13/2018 15:15:00 0.0
2018_01_14_S26 01/13/2018 15:20:00 0.0
2018_01_14_S26 01/13/2018 15:25:00 0.0
2018_01_14_S26 01/13/2018 15:30:00 0.0
2018_01_14_S26 01/13/2018 15:35:00 0.0
2018_01_14_S26 01/13/2018 15:40:00 0.0
2018_01_14_S26 01/13/2018 15:45:00 0.0
2018_01_14_S26 01/13/2018 15:50:00 0.0
2018_01_14_S26 01/13/2018 15:55:00 0.0
2018_01_14_S26 01/13/2018 16:00:00 0.0
2018_01_14_S26 01/13/2018 16:05:00 0.0
2018_01_14_S26 01/13/2018 16:10:00 0.0
2018_01_14_S26 01/13/2018 16:15:00 0.0
2018_01_14_S26 01/13/2018 16:20:00 0.0
2018_01_14_S26 01/13/2018 16:25:00 0.0
2018_01_14_S26 01/13/2018 16:30:00 0.0
2018_01_14_S26 01/13/2018 16:35:00 0.0
2018_01_14_S26 01/13/2018 16:40:00 0.0
2018_01_14_S26 01/13/2018 16:45:00 0.0
2018_01_14_S26 01/13/2018 16:50:00 0.0
2018_01_14_S26 01/13/2018 16:55:00 0.0
2018_01_14_S26 01/13/2018 17:00:00 0.0
2018_01_14_S26 01/13/2018 17:05:00 0.0
2018_01_14_S26 01/13/2018 17:10:00 0.0
2018_01_14_S26 01/13/2018 17:15:00 0.0
2018_01_14_S26 01/13/2018 17:20:00 0.0
2018_01_14_S26 01/13/2018 17:25:00 0.0
2018_01_14_S26 01/13/2018 17:30:00 0.0
2018_01_14_S26 01/13/2018 17:35:00 0.0
2018_01_14_S26 01/13/2018 17:40:00 0.0
2018_01_14_S26 01/13/2018 17:45:00 0.0
2018_01_14_S26 01/13/2018 17:50:00 0.0
2018_01_14_S26 01/13/2018 17:55:00 0.0
2018_01_14_S26 01/13/2018 18:00:00 0.0
2018_01_14_S26 01/13/2018 18:05:00 0.0
2018_01_14_S26 01/13/2018 18:10:00 0.0
2018_01_14_S26 01/13/2018 18:15:00 0.0
2018_01_14_S26 01/13/2018 18:20:00 0.0
2018_01_14_S26 01/13/2018 18:25:00 0.0
2018_01_14_S26 01/13/2018 18:30:00 0.0
2018_01_14_S26 01/13/2018 18:35:00 0.0
2018_01_14_S26 01/13/2018 18:40:00 0.0
2018_01_14_S26 01/13/2018 18:45:00 0.0
2018_01_14_S26 01/13/2018 18:50:00 0.0
2018_01_14_S26 01/13/2018 18:55:00 0.0
2018_01_14_S26 01/13/2018 19:00:00 0.0
2018_01_14_S26 01/13/2018 19:05:00 0.0
2018_01_14_S26 01/13/2018 19:10:00 0.0
2018_01_14_S26 01/13/2018 19:15:00 0.0
2018_01_14_S26 01/13/2018 19:20:00 0.0
2018_01_14_S26 01/13/2018 19:25:00 0.0
2018_01_14_S26 01/13/2018 19:30:00 0.0
2018_01_14_S26 01/13/2018 19:35:00 0.0
2018_01_14_S26 01/13/2018 19:40:00 0.0
2018_01_14_S26 01/13/2018 19:45:00 0.0
2018_01_14_S26 01/13/2018 19:50:00 0.0
2018_01_14_S26 01/13/2018 19:55:00 0.0
2018_01_14_S26 01/13/2018 20:00:00 0.0
2018_01_14_S26 01/13/2018 20:05:00 0.0
2018_01_14_S26 01/13/2018 20:10:00 0.0
2018_01_14_S26 01/13/2018 20:15:00 0.0
2018_01_14_S26 01/13/2018 20:20:00 0.0
2018_01_14_S26 01/13/2018 20:25:00 0.0
2018_01_14_S26 01/13/2018 20:30:00 0.0
2018_01_14_S26 01/13/2018 20:35:00 0.0
2018_01_14_S26 01/13/2018 20:40:00 0.0
2018_01_14_S26 01/13/2018 20:45:00 0.0
2018_01_14_S26 01/13/2018 20:50:00 0.0
2018_01_14_S26 01/13/2018 20:55:00 0.0
2018_01_14_S26 01/13/2018 21:00:00 0.0
2018_01_14_S26 01/13/2018 21:05:00 0.0
2018_01_14_S26 01/13/2018 21:10:00 0.0
2018_01_14_S26 01/13/2018 21:15:00 0.0
2018_01_14_S26 01/13/2018 21:20:00 0.0
2018_01_14_S26 01/13/2018 21:25:00 0.0
2018_01_14_S26 01/13/2018 21:30:00 0.0
2018_01_14_S26 01/13/2018 21:35:00 0.0
2018_01_14_S26 01/13/2018 21:40:00 0.0
2018_01_14_S26 01/13/2018 21:45:00 0.0
2018_01_14_S26 01/13/2018 21:50:00 0.0
2018_01_14_S26 01/13/2018 21:55:00 0.0
2018_01_14_S26 01/13/2018 22:00:00 0.0
2018_01_14_S26 01/13/2018 22:05:00 0.0
2018_01_14_S26 01/13/2018 22:10:00 0.0
2018_01_14_S26 01/13/2018 22:15:00 0.0
2018_01_14_S26 01/13/2018 22:20:00 0.0
2018_01_14_S26 01/13/2018 22:25:00 0.0
2018_01_14_S26 01/13/2018 22:30:00 0.0
2018_01_14_S26 01/13/2018 22:35:00 0.0
2018_01_14_S26 01/13/2018 22:40:00 0.0
2018_01_14_S26 01/13/2018 22:45:00 0.0
2018_01_14_S26 01/13/2018 22:50:00 0.0
2018_01_14_S26 01/13/2018 22:55:00 0.0
2018_01_14_S26 01/13/2018 23:00:00 0.0
2018_01_14_S26 01/13/2018 23:05:00 0.0
2018_01_14_S26 01/13/2018 23:10:00 0.0
2018_01_14_S26 01/13/2018 23:15:00 0.0
2018_01_14_S26 01/13/2018 23:20:00 0.0
2018_01_14_S26 01/13/2018 23:25:00 0.0
2018_01_14_S26 01/13/2018 23:30:00 0.0
2018_01_14_S26 01/13/2018 23:35:00 0.0
2018_01_14_S26 01/13/2018 23:40:00 0.0
2018_01_14_S26 01/13/2018 23:45:00 0.0
2018_01_14_S26 01/13/2018 23:50:00 0.0
2018_01_14_S26 01/13/2018 23:55:00 0.0
2018_01_14_S26 01/14/2018 00:00:00 0.0
2018_01_14_S26 01/14/2018 00:05:00 0.0
2018_01_14_S26 01/14/2018 00:10:00 0.0
2018_01_14_S26 01/14/2018 00:15:00 0.0
2018_01_14_S26 01/14/2018 00:20:00 0.0
2018_01_14_S26 01/14/2018 00:25:00 0.0
2018_01_14_S26 01/14/2018 00:30:00 0.0
2018_01_14_S26 01/14/2018 00:35:00 0.0
2018_01_14_S26 01/14/2018 00:40:00 0.0
2018_01_14_S26 01/14/2018 00:45:00 0.0
2018_01_14_S26 01/14/2018 00:50:00 0.0
2018_01_14_S26 01/14/2018 00:55:00 0.0
2018_01_14_S26 01/14/2018 01:00:00 0.0
2018_01_14_S26 01/14/2018 01:05:00 0.0
2018_01_14_S26 01/14/2018 01:10:00 0.0
2018_01_14_S26 01/14/2018 01:15:00 0.0
2018_01_14_S26 01/14/2018 01:20:00 0.0
2018_01_14_S26 01/14/2018 01:25:00 0.0
2018_01_14_S26 01/14/2018 01:30:00 0.0
2018_01_14_S26 01/14/2018 01:35:00 0.0
2018_01_14_S26 01/14/2018 01:40:00 0.0
2018_01_14_S26 01/14/2018 01:45:00 0.0
2018_01_14_S26 01/14/2018 01:50:00 0.0
2018_01_14_S26 01/14/2018 01:55:00 0.0
2018_01_14_S26 01/14/2018 02:00:00 0.0
2018_01_14_S26 01/14/2018 02:05:00 0.0
2018_01_14_S26 01/14/2018 02:10:00 0.0
2018_01_14_S26 01/14/2018 02:15:00 0.0
2018_01_14_S26 01/14/2018 02:20:00 0.0
2018_01_14_S26 01/14/2018 02:25:00 0.0
2018_01_14_S26 01/14/2018 02:30:00 0.0
2018_01_14_S26 01/14/2018 02:35:00 0.0
2018_01_14_S26 01/14/2018 02:40:00 0.0
2018_01_14_S26 01/14/2018 02:45:00 0.0
2018_01_14_S26 01/14/2018 02:50:00 0.0
2018_01_14_S26 01/14/2018 02:55:00 0.0
2018_01_14_S26 01/14/2018 03:00:00 0.0086
2018_01_14_S26 01/14/2018 03:05:00 0.0112
2018_01_14_S26 01/14/2018 03:10:00 0.0711
2018_01_14_S26 01/14/2018 03:15:00 0.0119
2018_01_14_S26 01/14/2018 03:20:00 0.0
2018_01_14_S26 01/14/2018 03:25:00 0.0
2018_01_14_S26 01/14/2018 03:30:00 0.0
2018_01_14_S26 01/14/2018 03:35:00 0.0
2018_01_14_S26 01/14/2018 03:40:00 0.0
2018_01_14_S26 01/14/2018 03:45:00 0.0
2018_01_14_S26 01/14/2018 03:50:00 0.0
2018_01_14_S26 01/14/2018 03:55:00 0.0
2018_01_14_S26 01/14/2018 04:00:00 0.0
2018_01_14_S26 01/14/2018 04:05:00 0.0
2018_01_14_S26 01/14/2018 04:10:00 0.0
2018_01_14_S26 01/14/2018 04:15:00 0.0
2018_01_14_S26 01/14/2018 04:20:00 0.0
2018_01_14_S26 01/14/2018 04:25:00 0.0
2018_01_14_S26 01/14/2018 04:30:00 0.0
2018_01_14_S26 01/14/2018 04:35:00 0.0
2018_01_14_S26 01/14/2018 04:40:00 0.0
2018_01_14_S26 01/14/2018 04:45:00 0.0
2018_01_14_S26 01/14/2018 04:50:00 0.0
2018_01_14_S26 01/14/2018 04:55:00 0.0
2018_01_14_S26 01/14/2018 05:00:00 0.0
2018_01_14_S26 01/14/2018 05:05:00 0.0055
2018_01_14_S26 01/14/2018 05:10:00 0.03
2018_01_14_S26 01/14/2018 05:15:00 0.0238
2018_01_14_S26 01/14/2018 05:20:00 0.0
2018_01_14_S26 01/14/2018 05:25:00 0.0
2018_01_14_S26 01/14/2018 05:30:00 0.0
2018_01_14_S26 01/14/2018 05:35:00 0.0
2018_01_14_S26 01/14/2018 05:40:00 0.0
2018_01_14_S26 01/14/2018 05:45:00 0.0
2018_01_14_S26 01/14/2018 05:50:00 0.0
2018_01_14_S26 01/14/2018 05:55:00 0.0109
2018_01_14_S26 01/14/2018 06:00:00 8.4412
2018_01_14_S26 01/14/2018 06:05:00 0.9465
2018_01_14_S26 01/14/2018 06:10:00 0.4075
2018_01_14_S26 01/14/2018 06:15:00 0.0
2018_01_14_S26 01/14/2018 06:20:00 0.0141
2018_01_14_S26 01/14/2018 06:25:00 0.1877
2018_01_14_S26 01/14/2018 06:30:00 0.027
2018_01_14_S26 01/14/2018 06:35:00 0.0
2018_01_14_S26 01/14/2018 06:40:00 0.0
2018_01_14_S26 01/14/2018 06:45:00 0.0
2018_01_14_S26 01/14/2018 06:50:00 0.0
2018_01_14_S26 01/14/2018 06:55:00 0.0
2018_01_14_S26 01/14/2018 07:00:00 0.0
2018_01_14_S26 01/14/2018 07:05:00 0.0
2018_01_14_S26 01/14/2018 07:10:00 0.0
2018_01_14_S26 01/14/2018 07:15:00 0.0
2018_01_14_S26 01/14/2018 07:20:00 0.0
2018_01_14_S26 01/14/2018 07:25:00 0.0
2018_01_14_S26 01/14/2018 07:30:00 0.0
2018_01_14_S26 01/14/2018 07:35:00 0.0
2018_01_14_S26 01/14/2018 07:40:00 0.0
2018_01_14_S26 01/14/2018 07:45:00 0.0
2018_01_14_S26 01/14/2018 07:50:00 0.002
2018_01_14_S26 01/14/2018 07:55:00 0.0064
2018_01_14_S26 01/14/2018 08:00:00 0.0
2018_01_14_S26 01/14/2018 08:05:00 0.0
2018_01_14_S26 01/14/2018 08:10:00 0.0
2018_01_14_S26 01/14/2018 08:15:00 0.0
2018_01_14_S26 01/14/2018 08:20:00 0.0
2018_01_14_S26 01/14/2018 08:25:00 0.0
2018_01_14_S26 01/14/2018 08:30:00 0.0056
2018_01_14_S26 01/14/2018 08:35:00 0.0
2018_01_14_S26 01/14/2018 08:40:00 0.1121
2018_01_14_S26 01/14/2018 08:45:00 0.1726
2018_01_14_S26 01/14/2018 08:50:00 0.0
2018_01_14_S26 01/14/2018 08:55:00 0.0
2018_01_14_S26 01/14/2018 09:00:00 0.0
2018_01_14_S26 01/14/2018 09:05:00 0.0
2018_01_14_S26 01/14/2018 09:10:00 0.0
2018_01_14_S26 01/14/2018 09:15:00 0.0
2018_01_14_S26 01/14/2018 09:20:00 0.0
2018_01_14_S26 01/14/2018 09:25:00 0.0
2018_01_14_S26 01/14/2018 09:30:00 0.0
2018_01_14_S26 01/14/2018 09:35:00 0.0
2018_01_14_S26 01/14/2018 09:40:00 0.0
2018_01_14_S26 01/14/2018 09:45:00 0.0
2018_01_14_S26 01/14/2018 09:50:00 0.0
2018_01_14_S26 01/14/2018 09:55:00 0.0
2018_01_14_S26 01/14/2018 10:00:00 0.0
2018_01_14_S26 01/14/2018 10:05:00 0.0
2018_01_14_S26 01/14/2018 10:10:00 0.0
2018_01_14_S26 01/14/2018 10:15:00 0.0
2018_01_14_S26 01/14/2018 10:20:00 0.0
2018_01_14_S26 01/14/2018 10:25:00 0.0
2018_01_14_S26 01/14/2018 10:30:00 0.0
2018_01_14_S26 01/14/2018 10:35:00 0.0
2018_01_14_S26 01/14/2018 10:40:00 0.0
2018_01_14_S26 01/14/2018 10:45:00 0.0
2018_01_14_S26 01/14/2018 10:50:00 0.0
2018_01_14_S26 01/14/2018 10:55:00 0.0
2018_01_14_S26 01/14/2018 11:00:00 0.0
2018_01_14_S26 01/14/2018 11:05:00 0.0
2018_01_14_S26 01/14/2018 11:10:00 0.0
2018_01_14_S26 01/14/2018 11:15:00 0.0
2018_01_14_S26 01/14/2018 11:20:00 0.0
2018_01_14_S26 01/14/2018 11:25:00 0.0
2018_01_14_S26 01/14/2018 11:30:00 0.0
2018_01_14_S26 01/14/2018 11:35:00 0.0
2018_01_14_S26 01/14/2018 11:40:00 0.0
2018_01_14_S26 01/14/2018 11:45:00 0.0
2018_01_14_S26 01/14/2018 11:50:00 0.0
2018_01_14_S26 01/14/2018 11:55:00 0.0
2018_01_14_S26 01/14/2018 12:00:00 0.0
2018_01_14_S26 01/14/2018 12:05:00 0.0
2018_01_14_S26 01/14/2018 12:10:00 0.0
2018_01_14_S26 01/14/2018 12:15:00 0.0
2018_01_14_S26 01/14/2018 12:20:00 0.0
2018_01_14_S26 01/14/2018 12:25:00 0.0
2018_01_14_S26 01/14/2018 12:30:00 0.0
2018_01_14_S26 01/14/2018 12:35:00 0.0
2018_01_14_S26 01/14/2018 12:40:00 0.0
2018_01_14_S26 01/14/2018 12:45:00 0.0
2018_01_14_S26 01/14/2018 12:50:00 0.0
2018_01_14_S26 01/14/2018 12:55:00 0.0
2018_01_14_S26 01/14/2018 13:00:00 0.0
2018_01_14_S26 01/14/2018 13:05:00 0.0
2018_01_14_S26 01/14/2018 13:10:00 0.0
2018_01_14_S26 01/14/2018 13:15:00 0.0
2018_01_14_S26 01/14/2018 13:20:00 0.0
2018_01_14_S26 01/14/2018 13:25:00 0.0
2018_01_14_S26 01/14/2018 13:30:00 0.0
2018_01_14_S26 01/14/2018 13:35:00 0.0
2018_01_14_S26 01/14/2018 13:40:00 0.0
2018_01_14_S26 01/14/2018 13:45:00 0.0
2018_01_14_S26 01/14/2018 13:50:00 0.0
2018_01_14_S26 01/14/2018 13:55:00 0.0
2018_01_14_S26 01/14/2018 14:00:00 0.0
2018_01_14_S26 01/14/2018 14:05:00 0.0
2018_01_14_S26 01/14/2018 14:10:00 0.0
2018_01_14_S26 01/14/2018 14:15:00 0.0
2018_01_14_S26 01/14/2018 14:20:00 0.0
2018_01_14_S26 01/14/2018 14:25:00 0.0
2018_01_14_S26 01/14/2018 14:30:00 0.0
2018_01_14_S26 01/14/2018 14:35:00 0.0
2018_01_14_S26 01/14/2018 14:40:00 0.0
2018_01_14_S26 01/14/2018 14:45:00 0.0
2018_01_14_S26 01/14/2018 14:50:00 0.0
2018_01_14_S26 01/14/2018 14:55:00 0.0
2018_01_14_S26 01/14/2018 15:00:00 0.0009
2018_01_14_S26 01/14/2018 15:05:00 0.0
2018_01_14_S26 01/14/2018 15:10:00 0.0
2018_01_14_S26 01/14/2018 15:15:00 0.0
2018_01_14_S26 01/14/2018 15:20:00 0.0
2018_01_14_S26 01/14/2018 15:25:00 0.0
2018_01_14_S26 01/14/2018 15:30:00 0.0
2018_01_14_S26 01/14/2018 15:35:00 0.0
2018_01_14_S26 01/14/2018 15:40:00 0.0
2018_01_14_S26 01/14/2018 15:45:00 0.0
2018_01_14_S26 01/14/2018 15:50:00 0.0
2018_01_14_S26 01/14/2018 15:55:00 0.0
2018_01_14_S26 01/14/2018 16:00:00 0.0
2018_01_14_S26 01/14/2018 16:05:00 0.0
2018_01_14_S26 01/14/2018 16:10:00 0.0
2018_01_14_S26 01/14/2018 16:15:00 0.0
2018_01_14_S26 01/14/2018 16:20:00 0.0
2018_01_14_S26 01/14/2018 16:25:00 0.0062
2018_01_14_S26 01/14/2018 16:30:00 0.0
2018_01_14_S26 01/14/2018 16:35:00 0.0
2018_01_14_S26 01/14/2018 16:40:00 0.012
2018_01_14_S26 01/14/2018 16:45:00 0.0081
2018_01_14_S26 01/14/2018 16:50:00 0.0782
2018_01_14_S26 01/14/2018 16:55:00 0.0114
2018_01_14_S26 01/14/2018 17:00:00 0.0
2018_01_14_S26 01/14/2018 17:05:00 0.0061
2018_01_14_S26 01/14/2018 17:10:00 0.1587
2018_01_14_S26 01/14/2018 17:15:00 0.0349
2018_01_14_S26 01/14/2018 17:20:00 0.0008
2018_01_14_S26 01/14/2018 17:25:00 0.0034
2018_01_14_S26 01/14/2018 17:30:00 0.0
2018_01_14_S26 01/14/2018 17:35:00 0.1127
2018_01_14_S26 01/14/2018 17:40:00 0.1504
2018_01_14_S26 01/14/2018 17:45:00 0.6662
2018_01_14_S26 01/14/2018 17:50:00 0.1483
2018_01_14_S26 01/14/2018 17:55:00 0.2064
2018_01_14_S26 01/14/2018 18:00:00 0.7211
2018_01_14_S26 01/14/2018 18:05:00 0.8722
2018_01_14_S26 01/14/2018 18:10:00 0.8141
2018_01_14_S26 01/14/2018 18:15:00 2.639
2018_01_14_S26 01/14/2018 18:20:00 5.3959
2018_01_14_S26 01/14/2018 18:25:00 2.1606
2018_01_14_S26 01/14/2018 18:30:00 0.139
2018_01_14_S26 01/14/2018 18:35:00 0.0271
2018_01_14_S26 01/14/2018 18:40:00 0.0076
2018_01_14_S26 01/14/2018 18:45:00 0.389
2018_01_14_S26 01/14/2018 18:50:00 2.6362
2018_01_14_S26 01/14/2018 18:55:00 0.0336
2018_01_14_S26 01/14/2018 19:00:00 1.2132
2018_01_14_S26 01/14/2018 19:05:00 0.0
2018_01_14_S26 01/14/2018 19:10:00 0.0
2018_01_14_S26 01/14/2018 19:15:00 0.0
2018_01_14_S26 01/14/2018 19:20:00 0.0
2018_01_14_S26 01/14/2018 19:25:00 0.0
2018_01_14_S26 01/14/2018 19:30:00 0.0
2018_01_14_S26 01/14/2018 19:35:00 0.0
2018_01_14_S26 01/14/2018 19:40:00 0.0
2018_01_14_S26 01/14/2018 19:45:00 0.0
2018_01_14_S26 01/14/2018 19:50:00 0.0
2018_01_14_S26 01/14/2018 19:55:00 0.0031
2018_01_14_S26 01/14/2018 20:00:00 0.0
2018_01_14_S26 01/14/2018 20:05:00 0.0
2018_01_14_S26 01/14/2018 20:10:00 0.0
2018_01_14_S26 01/14/2018 20:15:00 0.0
2018_01_14_S26 01/14/2018 20:20:00 0.0
2018_01_14_S26 01/14/2018 20:25:00 0.0
2018_01_14_S26 01/14/2018 20:30:00 0.0
2018_01_14_S26 01/14/2018 20:35:00 0.0
2018_01_14_S26 01/14/2018 20:40:00 0.0
2018_01_14_S26 01/14/2018 20:45:00 0.0
2018_01_14_S26 01/14/2018 20:50:00 0.0
2018_01_14_S26 01/14/2018 20:55:00 0.0
2018_01_14_S26 01/14/2018 21:00:00 0.0
2018_01_14_S26 01/14/2018 21:05:00 0.0
2018_01_14_S26 01/14/2018 21:10:00 0.0
2018_01_14_S26 01/14/2018 21:15:00 0.0
2018_01_14_S26 01/14/2018 21:20:00 0.0
2018_01_14_S26 01/14/2018 21:25:00 0.0
2018_01_14_S26 01/14/2018 21:30:00 0.0
2018_01_14_S26 01/14/2018 21:35:00 0.0
2018_01_14_S26 01/14/2018 21:40:00 0.0
2018_01_14_S26 01/14/2018 21:45:00 0.0
2018_01_14_S26 01/14/2018 21:50:00 0.0
2018_01_14_S26 01/14/2018 21:55:00 0.0
2018_01_14_S26 01/14/2018 22:00:00 0.0
2018_01_14_S26 01/14/2018 22:05:00 0.0
2018_01_14_S26 01/14/2018 22:10:00 0.0
2018_01_14_S26 01/14/2018 22:15:00 0.0
2018_01_14_S26 01/14/2018 22:20:00 0.0
2018_01_14_S26 01/14/2018 22:25:00 0.0
2018_01_14_S26 01/14/2018 22:30:00 0.0
2018_01_14_S26 01/14/2018 22:35:00 0.0
2018_01_14_S26 01/14/2018 22:40:00 0.0
2018_01_14_S26 01/14/2018 22:45:00 0.0
2018_01_14_S26 01/14/2018 22:50:00 0.0
2018_01_14_S26 01/14/2018 22:55:00 0.0008
2018_01_14_S26 01/14/2018 23:00:00 0.0044
2018_01_14_S26 01/14/2018 23:05:00 0.0056
2018_01_14_S26 01/14/2018 23:10:00 0.0
2018_01_14_S26 01/14/2018 23:15:00 0.0
2018_01_14_S26 01/14/2018 23:20:00 0.0012
2018_01_14_S26 01/14/2018 23:25:00 0.0
2018_01_14_S26 01/14/2018 23:30:00 0.0
2018_01_14_S26 01/14/2018 23:35:00 0.0
2018_01_14_S26 01/14/2018 23:40:00 0.0
2018_01_14_S26 01/14/2018 23:45:00 0.0
2018_01_14_S26 01/14/2018 23:50:00 0.0
2018_01_14_S26 01/14/2018 23:55:00 0.0
2018_01_14_S26 01/15/2018 00:00:00 0.0
2018_01_14_S26 01/15/2018 00:05:00 0.0
2018_01_14_S26 01/15/2018 00:10:00 0.0
2018_01_14_S26 01/15/2018 00:15:00 0.0
2018_01_14_S26 01/15/2018 00:20:00 0.0
2018_01_14_S26 01/15/2018 00:25:00 0.0
2018_01_14_S26 01/15/2018 00:30:00 0.0
2018_01_14_S26 01/15/2018 00:35:00 0.0
2018_01_14_S26 01/15/2018 00:40:00 0.0
2018_01_14_S26 01/15/2018 00:45:00 0.0
2018_01_14_S26 01/15/2018 00:50:00 0.0
2018_01_14_S26 01/15/2018 00:55:00 0.0
2018_01_14_S26 01/15/2018 01:00:00 0.0
2018_01_14_S26 01/15/2018 01:05:00 0.0
2018_01_14_S26 01/15/2018 01:10:00 0.0
2018_01_14_S26 01/15/2018 01:15:00 0.0
2018_01_14_S26 01/15/2018 01:20:00 0.0
2018_01_14_S26 01/15/2018 01:25:00 0.0
2018_01_14_S26 01/15/2018 01:30:00 0.0
2018_01_14_S26 01/15/2018 01:35:00 0.0
2018_01_14_S26 01/15/2018 01:40:00 0.0
2018_01_14_S26 01/15/2018 01:45:00 0.0
2018_01_14_S26 01/15/2018 01:50:00 0.0
2018_01_14_S26 01/15/2018 01:55:00 0.0
2018_01_14_S26 01/15/2018 02:00:00 0.0
2018_01_14_S26 01/15/2018 02:05:00 0.0
2018_01_14_S26 01/15/2018 02:10:00 0.0
2018_01_14_S26 01/15/2018 02:15:00 0.0
2018_01_14_S26 01/15/2018 02:20:00 0.0
2018_01_14_S26 01/15/2018 02:25:00 0.0
2018_01_14_S26 01/15/2018 02:30:00 0.0
2018_01_14_S26 01/15/2018 02:35:00 0.0
2018_01_14_S26 01/15/2018 02:40:00 0.1284
2018_01_14_S26 01/15/2018 02:45:00 0.2405
2018_01_14_S26 01/15/2018 02:50:00 0.1335
2018_01_14_S26 01/15/2018 02:55:00 0.2904
2018_01_14_S26 01/15/2018 03:00:00 0.1673
2018_01_14_S26 01/15/2018 03:05:00 0.1896
2018_01_14_S26 01/15/2018 03:10:00 0.0571
2018_01_14_S26 01/15/2018 03:15:00 0.0
2018_01_14_S26 01/15/2018 03:20:00 0.0
2018_01_14_S26 01/15/2018 03:25:00 0.0
2018_01_14_S26 01/15/2018 03:30:00 0.0
2018_01_14_S26 01/15/2018 03:35:00 0.0
2018_01_14_S26 01/15/2018 03:40:00 0.0
2018_01_14_S26 01/15/2018 03:45:00 0.0
2018_01_14_S26 01/15/2018 03:50:00 0.0
2018_01_14_S26 01/15/2018 03:55:00 0.0
2018_01_14_S26 01/15/2018 04:00:00 0.0
2018_01_14_S26 01/15/2018 04:05:00 0.0
2018_01_14_S26 01/15/2018 04:10:00 0.0
2018_01_14_S26 01/15/2018 04:15:00 0.0
2018_01_14_S26 01/15/2018 04:20:00 0.0
2018_01_14_S26 01/15/2018 04:25:00 0.0
2018_01_14_S26 01/15/2018 04:30:00 0.0
2018_01_14_S26 01/15/2018 04:35:00 0.0
2018_01_14_S26 01/15/2018 04:40:00 0.0
2018_01_14_S26 01/15/2018 04:45:00 0.0
2018_01_14_S26 01/15/2018 04:50:00 0.0
2018_01_14_S26 01/15/2018 04:55:00 0.0
2018_01_14_S26 01/15/2018 05:00:00 0.0
2018_01_14_S26 01/15/2018 05:05:00 0.0
2018_01_14_S26 01/15/2018 05:10:00 0.0
2018_01_14_S26 01/15/2018 05:15:00 0.0
2018_01_14_S26 01/15/2018 05:20:00 0.0
2018_01_14_S26 01/15/2018 05:25:00 0.0
2018_01_14_S26 01/15/2018 05:30:00 0.0
2018_01_14_S26 01/15/2018 05:35:00 0.0
2018_01_14_S26 01/15/2018 05:40:00 0.0
2018_01_14_S26 01/15/2018 05:45:00 0.0
2018_01_14_S26 01/15/2018 05:50:00 0.0
2018_01_14_S26 01/15/2018 05:55:00 0.0
2018_01_14_S26 01/15/2018 06:00:00 0.0
2018_01_14_S26 01/15/2018 06:05:00 0.0
2018_01_14_S26 01/15/2018 06:10:00 0.0
2018_01_14_S26 01/15/2018 06:15:00 0.0
2018_01_14_S26 01/15/2018 06:20:00 0.0
2018_01_14_S26 01/15/2018 06:25:00 0.0
2018_01_14_S26 01/15/2018 06:30:00 0.0
2018_01_14_S26 01/15/2018 06:35:00 0.0
2018_01_14_S26 01/15/2018 06:40:00 0.0
2018_01_14_S26 01/15/2018 06:45:00 0.0
2018_01_14_S26 01/15/2018 06:50:00 0.0
2018_01_14_S26 01/15/2018 06:55:00 0.0
2018_01_14_S26 01/15/2018 07:00:00 0.0052
2018_01_14_S26 01/15/2018 07:05:00 0.0
2018_01_14_S26 01/15/2018 07:10:00 0.0
2018_01_14_S26 01/15/2018 07:15:00 0.0015
2018_01_14_S26 01/15/2018 07:20:00 0.1059
2018_01_14_S26 01/15/2018 07:25:00 0.361
2018_01_14_S26 01/15/2018 07:30:00 0.001
2018_01_14_S26 01/15/2018 07:35:00 0.0
2018_01_14_S26 01/15/2018 07:40:00 0.0
2018_01_14_S26 01/15/2018 07:45:00 0.0
2018_01_14_S26 01/15/2018 07:50:00 0.0
2018_01_14_S26 01/15/2018 07:55:00 0.0
2018_01_14_S26 01/15/2018 08:00:00 0.0

2018_01_14_S27 01/13/2018 08:00:00 0.0
2018_01_14_S27 01/13/2018 08:05:00 0.0
2018_01_14_S27 01/13/2018 08:10:00 0.0
2018_01_14_S27 01/13/2018 08:15:00 0.0
2018_01_14_S27 01/13/2018 08:20:00 0.0
2018_01_14_S27 01/13/2018 08:25:00 0.0
2018_01_14_S27 01/13/2018 08:30:00 0.0
2018_01_14_S27 01/13/2018 08:35:00 0.0
2018_01_14_S27 01/13/2018 08:40:00 0.0
2018_01_14_S27 01/13/2018 08:45:00 0.0
2018_01_14_S27 01/13/2018 08:50:00 0.0
2018_01_14_S27 01/13/2018 08:55:00 0.0
2018_01_14_S27 01/13/2018 09:00:00 0.0
2018_01_14_S27 01/13/2018 09:05:00 0.0
2018_01_14_S27 01/13/2018 09:10:00 0.0
2018_01_14_S27 01/13/2018 09:15:00 0.0
2018_01_14_S27 01/13/2018 09:20:00 0.0
2018_01_14_S27 01/13/2018 09:25:00 0.0
2018_01_14_S27 01/13/2018 09:30:00 0.0
2018_01_14_S27 01/13/2018 09:35:00 0.0
2018_01_14_S27 01/13/2018 09:40:00 0.0
2018_01_14_S27 01/13/2018 09:45:00 0.0
2018_01_14_S27 01/13/2018 09:50:00 0.0
2018_01_14_S27 01/13/2018 09:55:00 0.0
2018_01_14_S27 01/13/2018 10:00:00 0.0
2018_01_14_S27 01/13/2018 10:05:00 0.0
2018_01_14_S27 01/13/2018 10:10:00 0.0
2018_01_14_S27 01/13/2018 10:15:00 0.0
2018_01_14_S27 01/13/2018 10:20:00 0.0
2018_01_14_S27 01/13/2018 10:25:00 0.0
2018_01_14_S27 01/13/2018 10:30:00 0.0
2018_01_14_S27 01/13/2018 10:35:00 0.0
2018_01_14_S27 01/13/2018 10:40:00 0.0
2018_01_14_S27 01/13/2018 10:45:00 0.0
2018_01_14_S27 01/13/2018 10:50:00 0.0
2018_01_14_S27 01/13/2018 10:55:00 0.0
2018_01_14_S27 01/13/2018 11:00:00 0.0
2018_01_14_S27 01/13/2018 11:05:00 0.0
2018_01_14_S27 01/13/2018 11:10:00 0.0
2018_01_14_S27 01/13/2018 11:15:00 0.0
2018_01_14_S27 01/13/2018 11:20:00 0.0
2018_01_14_S27 01/13/2018 11:25:00 0.0
2018_01_14_S27 01/13/2018 11:30:00 0.0
2018_01_14_S27 01/13/2018 11:35:00 0.0
2018_01_14_S27 01/13/2018 11:40:00 0.0
2018_01_14_S27 01/13/2018 11:45:00 0.0
2018_01_14_S27 01/13/2018 11:50:00 0.0
2018_01_14_S27 01/13/2018 11:55:00 0.0
2018_01_14_S27 01/13/2018 12:00:00 0.0
2018_01_14_S27 01/13/2018 12:05:00 0.0
2018_01_14_S27 01/13/2018 12:10:00 0.0
2018_01_14_S27 01/13/2018 12:15:00 0.0
2018_01_14_S27 01/13/2018 12:20:00 0.0
2018_01_14_S27 01/13/2018 12:25:00 0.0
2018_01_14_S27 01/13/2018 12:30:00 0.0
2018_01_14_S27 01/13/2018 12:35:00 0.0
2018_01_14_S27 01/13/2018 12:40:00 0.0
2018_01_14_S27 01/13/2018 12:45:00 0.0
2018_01_14_S27 01/13/2018 12:50:00 0.0
2018_01_14_S27 01/13/2018 12:55:00 0.0
2018_01_14_S27 01/13/2018 13:00:00 0.0
2018_01_14_S27 01/13/2018 13:05:00 0.0
2018_01_14_S27 01/13/2018 13:10:00 0.0
2018_01_14_S27 01/13/2018 13:15:00 0.0
2018_01_14_S27 01/13/2018 13:20:00 0.0
2018_01_14_S27 01/13/2018 13:25:00 0.0
2018_01_14_S27 01/13/2018 13:30:00 0.0
2018_01_14_S27 01/13/2018 13:35:00 0.0
2018_01_14_S27 01/13/2018 13:40:00 0.0
2018_01_14_S27 01/13/2018 13:45:00 0.0
2018_01_14_S27 01/13/2018 13:50:00 0.0
2018_01_14_S27 01/13/2018 13:55:00 0.0
2018_01_14_S27 01/13/2018 14:00:00 0.0
2018_01_14_S27 01/13/2018 14:05:00 0.0
2018_01_14_S27 01/13/2018 14:10:00 0.0
2018_01_14_S27 01/13/2018 14:15:00 0.0
2018_01_14_S27 01/13/2018 14:20:00 0.0
2018_01_14_S27 01/13/2018 14:25:00 0.0
2018_01_14_S27 01/13/2018 14:30:00 0.0
2018_01_14_S27 01/13/2018 14:35:00 0.0
2018_01_14_S27 01/13/2018 14:40:00 0.0
2018_01_14_S27 01/13/2018 14:45:00 0.0
2018_01_14_S27 01/13/2018 14:50:00 0.0
2018_01_14_S27 01/13/2018 14:55:00 0.0
2018_01_14_S27 01/13/2018 15:00:00 0.0
2018_01_14_S27 01/13/2018 15:05:00 0.0
2018_01_14_S27 01/13/2018 15:10:00 0.0
2018_01_14_S27 01/13/2018 15:15:00 0.0
2018_01_14_S27 01/13/2018 15:20:00 0.0
2018_01_14_S27 01/13/2018 15:25:00 0.0
2018_01_14_S27 01/13/2018 15:30:00 0.0
2018_01_14_S27 01/13/2018 15:35:00 0.0
2018_01_14_S27 01/13/2018 15:40:00 0.0
2018_01_14_S27 01/13/2018 15:45:00 0.0
2018_01_14_S27 01/13/2018 15:50:00 0.0
2018_01_14_S27 01/13/2018 15:55:00 0.0
2018_01_14_S27 01/13/2018 16:00:00 0.0
2018_01_14_S27 01/13/2018 16:05:00 0.0
2018_01_14_S27 01/13/2018 16:10:00 0.0
2018_01_14_S27 01/13/2018 16:15:00 0.0
2018_01_14_S27 01/13/2018 16:20:00 0.0
2018_01_14_S27 01/13/2018 16:25:00 0.0
2018_01_14_S27 01/13/2018 16:30:00 0.0
2018_01_14_S27 01/13/2018 16:35:00 0.0
2018_01_14_S27 01/13/2018 16:40:00 0.0
2018_01_14_S27 01/13/2018 16:45:00 0.0
2018_01_14_S27 01/13/2018 16:50:00 0.0
2018_01_14_S27 01/13/2018 16:55:00 0.0
2018_01_14_S27 01/13/2018 17:00:00 0.0
2018_01_14_S27 01/13/2018 17:05:00 0.0
2018_01_14_S27 01/13/2018 17:10:00 0.0
2018_01_14_S27 01/13/2018 17:15:00 0.0
2018_01_14_S27 01/13/2018 17:20:00 0.0
2018_01_14_S27 01/13/2018 17:25:00 0.0
2018_01_14_S27 01/13/2018 17:30:00 0.0
2018_01_14_S27 01/13/2018 17:35:00 0.0
2018_01_14_S27 01/13/2018 17:40:00 0.0
2018_01_14_S27 01/13/2018 17:45:00 0.0
2018_01_14_S27 01/13/2018 17:50:00 0.0
2018_01_14_S27 01/13/2018 17:55:00 0.0
2018_01_14_S27 01/13/2018 18:00:00 0.0
2018_01_14_S27 01/13/2018 18:05:00 0.0
2018_01_14_S27 01/13/2018 18:10:00 0.0
2018_01_14_S27 01/13/2018 18:15:00 0.0
2018_01_14_S27 01/13/2018 18:20:00 0.0
2018_01_14_S27 01/13/2018 18:25:00 0.0
2018_01_14_S27 01/13/2018 18:30:00 0.0
2018_01_14_S27 01/13/2018 18:35:00 0.0
2018_01_14_S27 01/13/2018 18:40:00 0.0
2018_01_14_S27 01/13/2018 18:45:00 0.0
2018_01_14_S27 01/13/2018 18:50:00 0.0
2018_01_14_S27 01/13/2018 18:55:00 0.0
2018_01_14_S27 01/13/2018 19:00:00 0.0
2018_01_14_S27 01/13/2018 19:05:00 0.0
2018_01_14_S27 01/13/2018 19:10:00 0.0
2018_01_14_S27 01/13/2018 19:15:00 0.0
2018_01_14_S27 01/13/2018 19:20:00 0.0
2018_01_14_S27 01/13/2018 19:25:00 0.0
2018_01_14_S27 01/13/2018 19:30:00 0.0
2018_01_14_S27 01/13/2018 19:35:00 0.0
2018_01_14_S27 01/13/2018 19:40:00 0.0
2018_01_14_S27 01/13/2018 19:45:00 0.0
2018_01_14_S27 01/13/2018 19:50:00 0.0
2018_01_14_S27 01/13/2018 19:55:00 0.0
2018_01_14_S27 01/13/2018 20:00:00 0.0
2018_01_14_S27 01/13/2018 20:05:00 0.0
2018_01_14_S27 01/13/2018 20:10:00 0.0
2018_01_14_S27 01/13/2018 20:15:00 0.0
2018_01_14_S27 01/13/2018 20:20:00 0.0
2018_01_14_S27 01/13/2018 20:25:00 0.0
2018_01_14_S27 01/13/2018 20:30:00 0.0
2018_01_14_S27 01/13/2018 20:35:00 0.0
2018_01_14_S27 01/13/2018 20:40:00 0.0
2018_01_14_S27 01/13/2018 20:45:00 0.0
2018_01_14_S27 01/13/2018 20:50:00 0.0
2018_01_14_S27 01/13/2018 20:55:00 0.0
2018_01_14_S27 01/13/2018 21:00:00 0.0
2018_01_14_S27 01/13/2018 21:05:00 0.0
2018_01_14_S27 01/13/2018 21:10:00 0.0
2018_01_14_S27 01/13/2018 21:15:00 0.0
2018_01_14_S27 01/13/2018 21:20:00 0.0
2018_01_14_S27 01/13/2018 21:25:00 0.0
2018_01_14_S27 01/13/2018 21:30:00 0.0
2018_01_14_S27 01/13/2018 21:35:00 0.0
2018_01_14_S27 01/13/2018 21:40:00 0.0
2018_01_14_S27 01/13/2018 21:45:00 0.0
2018_01_14_S27 01/13/2018 21:50:00 0.0
2018_01_14_S27 01/13/2018 21:55:00 0.0
2018_01_14_S27 01/13/2018 22:00:00 0.0
2018_01_14_S27 01/13/2018 22:05:00 0.0
2018_01_14_S27 01/13/2018 22:10:00 0.0
2018_01_14_S27 01/13/2018 22:15:00 0.0
2018_01_14_S27 01/13/2018 22:20:00 0.0
2018_01_14_S27 01/13/2018 22:25:00 0.0
2018_01_14_S27 01/13/2018 22:30:00 0.0
2018_01_14_S27 01/13/2018 22:35:00 0.0
2018_01_14_S27 01/13/2018 22:40:00 0.0
2018_01_14_S27 01/13/2018 22:45:00 0.0
2018_01_14_S27 01/13/2018 22:50:00 0.0
2018_01_14_S27 01/13/2018 22:55:00 0.0
2018_01_14_S27 01/13/2018 23:00:00 0.0
2018_01_14_S27 01/13/2018 23:05:00 0.0
2018_01_14_S27 01/13/2018 23:10:00 0.0
2018_01_14_S27 01/13/2018 23:15:00 0.0
2018_01_14_S27 01/13/2018 23:20:00 0.0
2018_01_14_S27 01/13/2018 23:25:00 0.0
2018_01_14_S27 01/13/2018 23:30:00 0.0
2018_01_14_S27 01/13/2018 23:35:00 0.0
2018_01_14_S27 01/13/2018 23:40:00 0.0
2018_01_14_S27 01/13/2018 23:45:00 0.0
2018_01_14_S27 01/13/2018 23:50:00 0.0
2018_01_14_S27 01/13/2018 23:55:00 0.0
2018_01_14_S27 01/14/2018 00:00:00 0.0
2018_01_14_S27 01/14/2018 00:05:00 0.0
2018_01_14_S27 01/14/2018 00:10:00 0.0
2018_01_14_S27 01/14/2018 00:15:00 0.0
2018_01_14_S27 01/14/2018 00:20:00 0.0
2018_01_14_S27 01/14/2018 00:25:00 0.0
2018_01_14_S27 01/14/2018 00:30:00 0.0
2018_01_14_S27 01/14/2018 00:35:00 0.0
2018_01_14_S27 01/14/2018 00:40:00 0.0
2018_01_14_S27 01/14/2018 00:45:00 0.0
2018_01_14_S27 01/14/2018 00:50:00 0.0
2018_01_14_S27 01/14/2018 00:55:00 0.0
2018_01_14_S27 01/14/2018 01:00:00 0.0
2018_01_14_S27 01/14/2018 01:05:00 0.0
2018_01_14_S27 01/14/2018 01:10:00 0.0
2018_01_14_S27 01/14/2018 01:15:00 0.0
2018_01_14_S27 01/14/2018 01:20:00 0.0
2018_01_14_S27 01/14/2018 01:25:00 0.0
2018_01_14_S27 01/14/2018 01:30:00 0.0
2018_01_14_S27 01/14/2018 01:35:00 0.0
2018_01_14_S27 01/14/2018 01:40:00 0.0
2018_01_14_S27 01/14/2018 01:45:00 0.0
2018_01_14_S27 01/14/2018 01:50:00 0.0
2018_01_14_S27 01/14/2018 01:55:00 0.0
2018_01_14_S27 01/14/2018 02:00:00 0.0
2018_01_14_S27 01/14/2018 02:05:00 0.0
2018_01_14_S27 01/14/2018 02:10:00 0.0
2018_01_14_S27 01/14/2018 02:15:00 0.0
2018_01_14_S27 01/14/2018 02:20:00 0.0
2018_01_14_S27 01/14/2018 02:25:00 0.0
2018_01_14_S27 01/14/2018 02:30:00 0.0
2018_01_14_S27 01/14/2018 02:35:00 0.0
2018_01_14_S27 01/14/2018 02:40:00 0.0
2018_01_14_S27 01/14/2018 02:45:00 0.0
2018_01_14_S27 01/14/2018 02:50:00 0.0
2018_01_14_S27 01/14/2018 02:55:00 0.0
2018_01_14_S27 01/14/2018 03:00:00 0.0145
2018_01_14_S27 01/14/2018 03:05:00 0.0096
2018_01_14_S27 01/14/2018 03:10:00 0.0476
2018_01_14_S27 01/14/2018 03:15:00 0.0023
2018_01_14_S27 01/14/2018 03:20:00 0.0
2018_01_14_S27 01/14/2018 03:25:00 0.0
2018_01_14_S27 01/14/2018 03:30:00 0.0
2018_01_14_S27 01/14/2018 03:35:00 0.0
2018_01_14_S27 01/14/2018 03:40:00 0.0
2018_01_14_S27 01/14/2018 03:45:00 0.0
2018_01_14_S27 01/14/2018 03:50:00 0.0
2018_01_14_S27 01/14/2018 03:55:00 0.0
2018_01_14_S27 01/14/2018 04:00:00 0.0
2018_01_14_S27 01/14/2018 04:05:00 0.0
2018_01_14_S27 01/14/2018 04:10:00 0.0
2018_01_14_S27 01/14/2018 04:15:00 0.0
2018_01_14_S27 01/14/2018 04:20:00 0.0
2018_01_14_S27 01/14/2018 04:25:00 0.0
2018_01_14_S27 01/14/2018 04:30:00 0.0
2018_01_14_S27 01/14/2018 04:35:00 0.0
2018_01_14_S27 01/14/2018 04:40:00 0.0
2018_01_14_S27 01/14/2018 04:45:00 0.0
2018_01_14_S27 01/14/2018 04:50:00 0.0
2018_01_14_S27 01/14/2018 04:55:00 0.0
2018_01_14_S27 01/14/2018 05:00:00 0.0002
2018_01_14_S27 01/14/2018 05:05:00 0.003
2018_01_14_S27 01/14/2018 05:10:00 0.0797
2018_01_14_S27 01/14/2018 05:15:00 0.0128
2018_01_14_S27 01/14/2018 05:20:00 0.0
2018_01_14_S27 01/14/2018 05:25:00 0.0
2018_01_14_S27 01/14/2018 05:30:00 0.0
2018_01_14_S27 01/14/2018 05:35:00 0.0
2018_01_14_S27 01/14/2018 05:40:00 0.0
2018_01_14_S27 01/14/2018 05:45:00 0.0
2018_01_14_S27 01/14/2018 05:50:00 0.0
2018_01_14_S27 01/14/2018 05:55:00 0.0208
2018_01_14_S27 01/14/2018 06:00:00 9.0273
2018_01_14_S27 01/14/2018 06:05:00 0.1832
2018_01_14_S27 01/14/2018 06:10:00 0.462
2018_01_14_S27 01/14/2018 06:15:00 0.0012
2018_01_14_S27 01/14/2018 06:20:00 0.0119
2018_01_14_S27 01/14/2018 06:25:00 0.0714
2018_01_14_S27 01/14/2018 06:30:00 0.003
2018_01_14_S27 01/14/2018 06:35:00 0.0003
2018_01_14_S27 01/14/2018 06:40:00 0.0
2018_01_14_S27 01/14/2018 06:45:00 0.0
2018_01_14_S27 01/14/2018 06:50:00 0.0
2018_01_14_S27 01/14/2018 06:55:00 0.0
2018_01_14_S27 01/14/2018 07:00:00 0.0
2018_01_14_S27 01/14/2018 07:05:00 0.0
2018_01_14_S27 01/14/2018 07:10:00 0.0
2018_01_14_S27 01/14/2018 07:15:00 0.0
2018_01_14_S27 01/14/2018 07:20:00 0.0
2018_01_14_S27 01/14/2018 07:25:00 0.0
2018_01_14_S27 01/14/2018 07:30:00 0.0
2018_01_14_S27 01/14/2018 07:35:00 0.0
2018_01_14_S27 01/14/2018 07:40:00 0.0
2018_01_14_S27 01/14/2018 07:45:00 0.0
2018_01_14_S27 01/14/2018 07:50:00 0.0046
2018_01_14_S27 01/14/2018 07:55:00 0.0039
2018_01_14_S27 01/14/2018 08:00:00 0.0
2018_01_14_S27 01/14/2018 08:05:00 0.0
2018_01_14_S27 01/14/2018 08:10:00 0.0
2018_01_14_S27 01/14/2018 08:15:00 0.0
2018_01_14_S27 01/14/2018 08:20:00 0.0
2018_01_14_S27 01/14/2018 08:25:00 0.0
2018_01_14_S27 01/14/2018 08:30:00 0.0013
2018_01_14_S27 01/14/2018 08:35:00 0.0002
2018_01_14_S27 01/14/2018 08:40:00 0.0456
2018_01_14_S27 01/14/2018 08:45:00 0.0369
2018_01_14_S27 01/14/2018 08:50:00 0.0
2018_01_14_S27 01/14/2018 08:55:00 0.0
2018_01_14_S27 01/14/2018 09:00:00 0.0
2018_01_14_S27 01/14/2018 09:05:00 0.0
2018_01_14_S27 01/14/2018 09:10:00 0.0
2018_01_14_S27 01/14/2018 09:15:00 0.0
2018_01_14_S27 01/14/2018 09:20:00 0.0
2018_01_14_S27 01/14/2018 09:25:00 0.0
2018_01_14_S27 01/14/2018 09:30:00 0.0
2018_01_14_S27 01/14/2018 09:35:00 0.0
2018_01_14_S27 01/14/2018 09:40:00 0.0
2018_01_14_S27 01/14/2018 09:45:00 0.0
2018_01_14_S27 01/14/2018 09:50:00 0.0
2018_01_14_S27 01/14/2018 09:55:00 0.0
2018_01_14_S27 01/14/2018 10:00:00 0.0
2018_01_14_S27 01/14/2018 10:05:00 0.0
2018_01_14_S27 01/14/2018 10:10:00 0.0
2018_01_14_S27 01/14/2018 10:15:00 0.0
2018_01_14_S27 01/14/2018 10:20:00 0.0
2018_01_14_S27 01/14/2018 10:25:00 0.0
2018_01_14_S27 01/14/2018 10:30:00 0.0
2018_01_14_S27 01/14/2018 10:35:00 0.0
2018_01_14_S27 01/14/2018 10:40:00 0.0
2018_01_14_S27 01/14/2018 10:45:00 0.0
2018_01_14_S27 01/14/2018 10:50:00 0.0
2018_01_14_S27 01/14/2018 10:55:00 0.0
2018_01_14_S27 01/14/2018 11:00:00 0.0
2018_01_14_S27 01/14/2018 11:05:00 0.0
2018_01_14_S27 01/14/2018 11:10:00 0.0
2018_01_14_S27 01/14/2018 11:15:00 0.0
2018_01_14_S27 01/14/2018 11:20:00 0.0
2018_01_14_S27 01/14/2018 11:25:00 0.0
2018_01_14_S27 01/14/2018 11:30:00 0.0
2018_01_14_S27 01/14/2018 11:35:00 0.0
2018_01_14_S27 01/14/2018 11:40:00 0.0
2018_01_14_S27 01/14/2018 11:45:00 0.0
2018_01_14_S27 01/14/2018 11:50:00 0.0
2018_01_14_S27 01/14/2018 11:55:00 0.0
2018_01_14_S27 01/14/2018 12:00:00 0.0
2018_01_14_S27 01/14/2018 12:05:00 0.0
2018_01_14_S27 01/14/2018 12:10:00 0.0
2018_01_14_S27 01/14/2018 12:15:00 0.0
2018_01_14_S27 01/14/2018 12:20:00 0.0
2018_01_14_S27 01/14/2018 12:25:00 0.0
2018_01_14_S27 01/14/2018 12:30:00 0.0
2018_01_14_S27 01/14/2018 12:35:00 0.0
2018_01_14_S27 01/14/2018 12:40:00 0.0
2018_01_14_S27 01/14/2018 12:45:00 0.0
2018_01_14_S27 01/14/2018 12:50:00 0.0
2018_01_14_S27 01/14/2018 12:55:00 0.0
2018_01_14_S27 01/14/2018 13:00:00 0.0
2018_01_14_S27 01/14/2018 13:05:00 0.0
2018_01_14_S27 01/14/2018 13:10:00 0.0
2018_01_14_S27 01/14/2018 13:15:00 0.0
2018_01_14_S27 01/14/2018 13:20:00 0.0
2018_01_14_S27 01/14/2018 13:25:00 0.0
2018_01_14_S27 01/14/2018 13:30:00 0.0
2018_01_14_S27 01/14/2018 13:35:00 0.0
2018_01_14_S27 01/14/2018 13:40:00 0.0
2018_01_14_S27 01/14/2018 13:45:00 0.0
2018_01_14_S27 01/14/2018 13:50:00 0.0
2018_01_14_S27 01/14/2018 13:55:00 0.0
2018_01_14_S27 01/14/2018 14:00:00 0.0
2018_01_14_S27 01/14/2018 14:05:00 0.0
2018_01_14_S27 01/14/2018 14:10:00 0.0
2018_01_14_S27 01/14/2018 14:15:00 0.0
2018_01_14_S27 01/14/2018 14:20:00 0.0
2018_01_14_S27 01/14/2018 14:25:00 0.0
2018_01_14_S27 01/14/2018 14:30:00 0.0
2018_01_14_S27 01/14/2018 14:35:00 0.0
2018_01_14_S27 01/14/2018 14:40:00 0.0
2018_01_14_S27 01/14/2018 14:45:00 0.0
2018_01_14_S27 01/14/2018 14:50:00 0.0
2018_01_14_S27 01/14/2018 14:55:00 0.0
2018_01_14_S27 01/14/2018 15:00:00 0.0006
2018_01_14_S27 01/14/2018 15:05:00 0.0
2018_01_14_S27 01/14/2018 15:10:00 0.0
2018_01_14_S27 01/14/2018 15:15:00 0.0
2018_01_14_S27 01/14/2018 15:20:00 0.0
2018_01_14_S27 01/14/2018 15:25:00 0.0
2018_01_14_S27 01/14/2018 15:30:00 0.0
2018_01_14_S27 01/14/2018 15:35:00 0.0
2018_01_14_S27 01/14/2018 15:40:00 0.0
2018_01_14_S27 01/14/2018 15:45:00 0.0
2018_01_14_S27 01/14/2018 15:50:00 0.0
2018_01_14_S27 01/14/2018 15:55:00 0.0
2018_01_14_S27 01/14/2018 16:00:00 0.0
2018_01_14_S27 01/14/2018 16:05:00 0.0
2018_01_14_S27 01/14/2018 16:10:00 0.0
2018_01_14_S27 01/14/2018 16:15:00 0.0
2018_01_14_S27 01/14/2018 16:20:00 0.0
2018_01_14_S27 01/14/2018 16:25:00 0.0039
2018_01_14_S27 01/14/2018 16:30:00 0.0
2018_01_14_S27 01/14/2018 16:35:00 0.0
2018_01_14_S27 01/14/2018 16:40:00 0.0119
2018_01_14_S27 01/14/2018 16:45:00 0.0056
2018_01_14_S27 01/14/2018 16:50:00 0.0806
2018_01_14_S27 01/14/2018 16:55:00 0.0167
2018_01_14_S27 01/14/2018 17:00:00 0.0001
2018_01_14_S27 01/14/2018 17:05:00 0.0106
2018_01_14_S27 01/14/2018 17:10:00 0.1006
2018_01_14_S27 01/14/2018 17:15:00 0.0118
2018_01_14_S27 01/14/2018 17:20:00 0.005
2018_01_14_S27 01/14/2018 17:25:00 0.005
2018_01_14_S27 01/14/2018 17:30:00 0.0
2018_01_14_S27 01/14/2018 17:35:00 0.096
2018_01_14_S27 01/14/2018 17:40:00 0.1891
2018_01_14_S27 01/14/2018 17:45:00 0.666
2018_01_14_S27 01/14/2018 17:50:00 0.1371
2018_01_14_S27 01/14/2018 17:55:00 0.1857
2018_01_14_S27 01/14/2018 18:00:00 0.8363
2018_01_14_S27 01/14/2018 18:05:00 1.7443
2018_01_14_S27 01/14/2018 18:10:00 1.0219
2018_01_14_S27 01/14/2018 18:15:00 3.4228
2018_01_14_S27 01/14/2018 18:20:00 4.1302
2018_01_14_S27 01/14/2018 18:25:00 1.9503
2018_01_14_S27 01/14/2018 18:30:00 0.277
2018_01_14_S27 01/14/2018 18:35:00 0.0955
2018_01_14_S27 01/14/2018 18:40:00 0.028
2018_01_14_S27 01/14/2018 18:45:00 0.5652
2018_01_14_S27 01/14/2018 18:50:00 1.535
2018_01_14_S27 01/14/2018 18:55:00 0.1051
2018_01_14_S27 01/14/2018 19:00:00 0.2334
2018_01_14_S27 01/14/2018 19:05:00 0.0
2018_01_14_S27 01/14/2018 19:10:00 0.0
2018_01_14_S27 01/14/2018 19:15:00 0.0
2018_01_14_S27 01/14/2018 19:20:00 0.0
2018_01_14_S27 01/14/2018 19:25:00 0.0
2018_01_14_S27 01/14/2018 19:30:00 0.0
2018_01_14_S27 01/14/2018 19:35:00 0.0
2018_01_14_S27 01/14/2018 19:40:00 0.0
2018_01_14_S27 01/14/2018 19:45:00 0.0
2018_01_14_S27 01/14/2018 19:50:00 0.0
2018_01_14_S27 01/14/2018 19:55:00 0.0001
2018_01_14_S27 01/14/2018 20:00:00 0.0
2018_01_14_S27 01/14/2018 20:05:00 0.0
2018_01_14_S27 01/14/2018 20:10:00 0.0
2018_01_14_S27 01/14/2018 20:15:00 0.0
2018_01_14_S27 01/14/2018 20:20:00 0.0
2018_01_14_S27 01/14/2018 20:25:00 0.0
2018_01_14_S27 01/14/2018 20:30:00 0.0
2018_01_14_S27 01/14/2018 20:35:00 0.0
2018_01_14_S27 01/14/2018 20:40:00 0.0
2018_01_14_S27 01/14/2018 20:45:00 0.0
2018_01_14_S27 01/14/2018 20:50:00 0.0
2018_01_14_S27 01/14/2018 20:55:00 0.0
2018_01_14_S27 01/14/2018 21:00:00 0.0
2018_01_14_S27 01/14/2018 21:05:00 0.0
2018_01_14_S27 01/14/2018 21:10:00 0.0
2018_01_14_S27 01/14/2018 21:15:00 0.0
2018_01_14_S27 01/14/2018 21:20:00 0.0
2018_01_14_S27 01/14/2018 21:25:00 0.0
2018_01_14_S27 01/14/2018 21:30:00 0.0
2018_01_14_S27 01/14/2018 21:35:00 0.0
2018_01_14_S27 01/14/2018 21:40:00 0.0
2018_01_14_S27 01/14/2018 21:45:00 0.0
2018_01_14_S27 01/14/2018 21:50:00 0.0
2018_01_14_S27 01/14/2018 21:55:00 0.0
2018_01_14_S27 01/14/2018 22:00:00 0.0
2018_01_14_S27 01/14/2018 22:05:00 0.0
2018_01_14_S27 01/14/2018 22:10:00 0.0
2018_01_14_S27 01/14/2018 22:15:00 0.0
2018_01_14_S27 01/14/2018 22:20:00 0.0
2018_01_14_S27 01/14/2018 22:25:00 0.0
2018_01_14_S27 01/14/2018 22:30:00 0.0
2018_01_14_S27 01/14/2018 22:35:00 0.0
2018_01_14_S27 01/14/2018 22:40:00 0.0
2018_01_14_S27 01/14/2018 22:45:00 0.0
2018_01_14_S27 01/14/2018 22:50:00 0.0
2018_01_14_S27 01/14/2018 22:55:00 0.0008
2018_01_14_S27 01/14/2018 23:00:00 0.0079
2018_01_14_S27 01/14/2018 23:05:00 0.0054
2018_01_14_S27 01/14/2018 23:10:00 0.0
2018_01_14_S27 01/14/2018 23:15:00 0.0014
2018_01_14_S27 01/14/2018 23:20:00 0.0009
2018_01_14_S27 01/14/2018 23:25:00 0.0
2018_01_14_S27 01/14/2018 23:30:00 0.0
2018_01_14_S27 01/14/2018 23:35:00 0.0
2018_01_14_S27 01/14/2018 23:40:00 0.0
2018_01_14_S27 01/14/2018 23:45:00 0.0
2018_01_14_S27 01/14/2018 23:50:00 0.0
2018_01_14_S27 01/14/2018 23:55:00 0.0
2018_01_14_S27 01/15/2018 00:00:00 0.0
2018_01_14_S27 01/15/2018 00:05:00 0.0
2018_01_14_S27 01/15/2018 00:10:00 0.0
2018_01_14_S27 01/15/2018 00:15:00 0.0
2018_01_14_S27 01/15/2018 00:20:00 0.0
2018_01_14_S27 01/15/2018 00:25:00 0.0
2018_01_14_S27 01/15/2018 00:30:00 0.0
2018_01_14_S27 01/15/2018 00:35:00 0.0
2018_01_14_S27 01/15/2018 00:40:00 0.0
2018_01_14_S27 01/15/2018 00:45:00 0.0
2018_01_14_S27 01/15/2018 00:50:00 0.0
2018_01_14_S27 01/15/2018 00:55:00 0.0
2018_01_14_S27 01/15/2018 01:00:00 0.0
2018_01_14_S27 01/15/2018 01:05:00 0.0
2018_01_14_S27 01/15/2018 01:10:00 0.0
2018_01_14_S27 01/15/2018 01:15:00 0.0
2018_01_14_S27 01/15/2018 01:20:00 0.0
2018_01_14_S27 01/15/2018 01:25:00 0.0
2018_01_14_S27 01/15/2018 01:30:00 0.0
2018_01_14_S27 01/15/2018 01:35:00 0.0
2018_01_14_S27 01/15/2018 01:40:00 0.0
2018_01_14_S27 01/15/2018 01:45:00 0.0
2018_01_14_S27 01/15/2018 01:50:00 0.0
2018_01_14_S27 01/15/2018 01:55:00 0.0
2018_01_14_S27 01/15/2018 02:00:00 0.0
2018_01_14_S27 01/15/2018 02:05:00 0.0
2018_01_14_S27 01/15/2018 02:10:00 0.0
2018_01_14_S27 01/15/2018 02:15:00 0.0
2018_01_14_S27 01/15/2018 02:20:00 0.0
2018_01_14_S27 01/15/2018 02:25:00 0.0
2018_01_14_S27 01/15/2018 02:30:00 0.0
2018_01_14_S27 01/15/2018 02:35:00 0.0
2018_01_14_S27 01/15/2018 02:40:00 0.1445
2018_01_14_S27 01/15/2018 02:45:00 0.2399
2018_01_14_S27 01/15/2018 02:50:00 0.1319
2018_01_14_S27 01/15/2018 02:55:00 0.2789
2018_01_14_S27 01/15/2018 03:00:00 0.1359
2018_01_14_S27 01/15/2018 03:05:00 0.2732
2018_01_14_S27 01/15/2018 03:10:00 0.0188
2018_01_14_S27 01/15/2018 03:15:00 0.0
2018_01_14_S27 01/15/2018 03:20:00 0.0
2018_01_14_S27 01/15/2018 03:25:00 0.0
2018_01_14_S27 01/15/2018 03:30:00 0.0
2018_01_14_S27 01/15/2018 03:35:00 0.0
2018_01_14_S27 01/15/2018 03:40:00 0.0
2018_01_14_S27 01/15/2018 03:45:00 0.0
2018_01_14_S27 01/15/2018 03:50:00 0.0
2018_01_14_S27 01/15/2018 03:55:00 0.0
2018_01_14_S27 01/15/2018 04:00:00 0.0
2018_01_14_S27 01/15/2018 04:05:00 0.0
2018_01_14_S27 01/15/2018 04:10:00 0.0
2018_01_14_S27 01/15/2018 04:15:00 0.0
2018_01_14_S27 01/15/2018 04:20:00 0.0
2018_01_14_S27 01/15/2018 04:25:00 0.0
2018_01_14_S27 01/15/2018 04:30:00 0.0
2018_01_14_S27 01/15/2018 04:35:00 0.0
2018_01_14_S27 01/15/2018 04:40:00 0.0
2018_01_14_S27 01/15/2018 04:45:00 0.0
2018_01_14_S27 01/15/2018 04:50:00 0.0
2018_01_14_S27 01/15/2018 04:55:00 0.0
2018_01_14_S27 01/15/2018 05:00:00 0.0
2018_01_14_S27 01/15/2018 05:05:00 0.0
2018_01_14_S27 01/15/2018 05:10:00 0.0
2018_01_14_S27 01/15/2018 05:15:00 0.0
2018_01_14_S27 01/15/2018 05:20:00 0.0
2018_01_14_S27 01/15/2018 05:25:00 0.0
2018_01_14_S27 01/15/2018 05:30:00 0.0
2018_01_14_S27 01/15/2018 05:35:00 0.0
2018_01_14_S27 01/15/2018 05:40:00 0.0
2018_01_14_S27 01/15/2018 05:45:00 0.0
2018_01_14_S27 01/15/2018 05:50:00 0.0
2018_01_14_S27 01/15/2018 05:55:00 0.0
2018_01_14_S27 01/15/2018 06:00:00 0.0
2018_01_14_S27 01/15/2018 06:05:00 0.0
2018_01_14_S27 01/15/2018 06:10:00 0.0
2018_01_14_S27 01/15/2018 06:15:00 0.0
2018_01_14_S27 01/15/2018 06:20:00 0.0
2018_01_14_S27 01/15/2018 06:25:00 0.0
2018_01_14_S27 01/15/2018 06:30:00 0.0
2018_01_14_S27 01/15/2018 06:35:00 0.0
2018_01_14_S27 01/15/2018 06:40:00 0.0
2018_01_14_S27 01/15/2018 06:45:00 0.0
2018_01_14_S27 01/15/2018 06:50:00 0.0
2018_01_14_S27 01/15/2018 06:55:00 0.0
2018_01_14_S27 01/15/2018 07:00:00 0.0049
2018_01_14_S27 01/15/2018 07:05:00 0.0
2018_01_14_S27 01/15/2018 07:10:00 0.0
2018_01_14_S27 01/15/2018 07:15:00 0.0166
2018_01_14_S27 01/15/2018 07:20:00 0.067
2018_01_14_S27 01/15/2018 07:25:00 0.1053
2018_01_14_S27 01/15/2018 07:30:00 0.0
2018_01_14_S27 01/15/2018 07:35:00 0.0
2018_01_14_S27 01/15/2018 07:40:00 0.0
2018_01_14_S27 01/15/2018 07:45:00 0.0
2018_01_14_S27 01/15/2018 07:50:00 0.0
2018_01_14_S27 01/15/2018 07:55:00 0.0
2018_01_14_S27 01/15/2018 08:00:00 0.0

2018_01_14_S28 01/13/2018 08:00:00 0.0
2018_01_14_S28 01/13/2018 08:05:00 0.0
2018_01_14_S28 01/13/2018 08:10:00 0.0
2018_01_14_S28 01/13/2018 08:15:00 0.0
2018_01_14_S28 01/13/2018 08:20:00 0.0
2018_01_14_S28 01/13/2018 08:25:00 0.0
2018_01_14_S28 01/13/2018 08:30:00 0.0
2018_01_14_S28 01/13/2018 08:35:00 0.0
2018_01_14_S28 01/13/2018 08:40:00 0.0
2018_01_14_S28 01/13/2018 08:45:00 0.0
2018_01_14_S28 01/13/2018 08:50:00 0.0
2018_01_14_S28 01/13/2018 08:55:00 0.0
2018_01_14_S28 01/13/2018 09:00:00 0.0
2018_01_14_S28 01/13/2018 09:05:00 0.0
2018_01_14_S28 01/13/2018 09:10:00 0.0
2018_01_14_S28 01/13/2018 09:15:00 0.0
2018_01_14_S28 01/13/2018 09:20:00 0.0
2018_01_14_S28 01/13/2018 09:25:00 0.0
2018_01_14_S28 01/13/2018 09:30:00 0.0
2018_01_14_S28 01/13/2018 09:35:00 0.0
2018_01_14_S28 01/13/2018 09:40:00 0.0
2018_01_14_S28 01/13/2018 09:45:00 0.0
2018_01_14_S28 01/13/2018 09:50:00 0.0
2018_01_14_S28 01/13/2018 09:55:00 0.0
2018_01_14_S28 01/13/2018 10:00:00 0.0
2018_01_14_S28 01/13/2018 10:05:00 0.0
2018_01_14_S28 01/13/2018 10:10:00 0.0
2018_01_14_S28 01/13/2018 10:15:00 0.0
2018_01_14_S28 01/13/2018 10:20:00 0.0
2018_01_14_S28 01/13/2018 10:25:00 0.0
2018_01_14_S28 01/13/2018 10:30:00 0.0
2018_01_14_S28 01/13/2018 10:35:00 0.0
2018_01_14_S28 01/13/2018 10:40:00 0.0
2018_01_14_S28 01/13/2018 10:45:00 0.0
2018_01_14_S28 01/13/2018 10:50:00 0.0
2018_01_14_S28 01/13/2018 10:55:00 0.0
2018_01_14_S28 01/13/2018 11:00:00 0.0
2018_01_14_S28 01/13/2018 11:05:00 0.0
2018_01_14_S28 01/13/2018 11:10:00 0.0
2018_01_14_S28 01/13/2018 11:15:00 0.0
2018_01_14_S28 01/13/2018 11:20:00 0.0
2018_01_14_S28 01/13/2018 11:25:00 0.0
2018_01_14_S28 01/13/2018 11:30:00 0.0
2018_01_14_S28 01/13/2018 11:35:00 0.0
2018_01_14_S28 01/13/2018 11:40:00 0.0
2018_01_14_S28 01/13/2018 11:45:00 0.0
2018_01_14_S28 01/13/2018 11:50:00 0.0
2018_01_14_S28 01/13/2018 11:55:00 0.0
2018_01_14_S28 01/13/2018 12:00:00 0.0
2018_01_14_S28 01/13/2018 12:05:00 0.0
2018_01_14_S28 01/13/2018 12:10:00 0.0
2018_01_14_S28 01/13/2018 12:15:00 0.0
2018_01_14_S28 01/13/2018 12:20:00 0.0
2018_01_14_S28 01/13/2018 12:25:00 0.0
2018_01_14_S28 01/13/2018 12:30:00 0.0
2018_01_14_S28 01/13/2018 12:35:00 0.0
2018_01_14_S28 01/13/2018 12:40:00 0.0
2018_01_14_S28 01/13/2018 12:45:00 0.0
2018_01_14_S28 01/13/2018 12:50:00 0.0
2018_01_14_S28 01/13/2018 12:55:00 0.0
2018_01_14_S28 01/13/2018 13:00:00 0.0
2018_01_14_S28 01/13/2018 13:05:00 0.0
2018_01_14_S28 01/13/2018 13:10:00 0.0
2018_01_14_S28 01/13/2018 13:15:00 0.0
2018_01_14_S28 01/13/2018 13:20:00 0.0
2018_01_14_S28 01/13/2018 13:25:00 0.0
2018_01_14_S28 01/13/2018 13:30:00 0.0
2018_01_14_S28 01/13/2018 13:35:00 0.0
2018_01_14_S28 01/13/2018 13:40:00 0.0
2018_01_14_S28 01/13/2018 13:45:00 0.0
2018_01_14_S28 01/13/2018 13:50:00 0.0
2018_01_14_S28 01/13/2018 13:55:00 0.0
2018_01_14_S28 01/13/2018 14:00:00 0.0
2018_01_14_S28 01/13/2018 14:05:00 0.0
2018_01_14_S28 01/13/2018 14:10:00 0.0
2018_01_14_S28 01/13/2018 14:15:00 0.0
2018_01_14_S28 01/13/2018 14:20:00 0.0
2018_01_14_S28 01/13/2018 14:25:00 0.0
2018_01_14_S28 01/13/2018 14:30:00 0.0
2018_01_14_S28 01/13/2018 14:35:00 0.0
2018_01_14_S28 01/13/2018 14:40:00 0.0
2018_01_14_S28 01/13/2018 14:45:00 0.0
2018_01_14_S28 01/13/2018 14:50:00 0.0
2018_01_14_S28 01/13/2018 14:55:00 0.0
2018_01_14_S28 01/13/2018 15:00:00 0.0
2018_01_14_S28 01/13/2018 15:05:00 0.0
2018_01_14_S28 01/13/2018 15:10:00 0.0
2018_01_14_S28 01/13/2018 15:15:00 0.0
2018_01_14_S28 01/13/2018 15:20:00 0.0
2018_01_14_S28 01/13/2018 15:25:00 0.0
2018_01_14_S28 01/13/2018 15:30:00 0.0
2018_01_14_S28 01/13/2018 15:35:00 0.0
2018_01_14_S28 01/13/2018 15:40:00 0.0
2018_01_14_S28 01/13/2018 15:45:00 0.0
2018_01_14_S28 01/13/2018 15:50:00 0.0
2018_01_14_S28 01/13/2018 15:55:00 0.0
2018_01_14_S28 01/13/2018 16:00:00 0.0
2018_01_14_S28 01/13/2018 16:05:00 0.0
2018_01_14_S28 01/13/2018 16:10:00 0.0
2018_01_14_S28 01/13/2018 16:15:00 0.0
2018_01_14_S28 01/13/2018 16:20:00 0.0
2018_01_14_S28 01/13/2018 16:25:00 0.0
2018_01_14_S28 01/13/2018 16:30:00 0.0
2018_01_14_S28 01/13/2018 16:35:00 0.0
2018_01_14_S28 01/13/2018 16:40:00 0.0
2018_01_14_S28 01/13/2018 16:45:00 0.0
2018_01_14_S28 01/13/2018 16:50:00 0.0
2018_01_14_S28 01/13/2018 16:55:00 0.0
2018_01_14_S28 01/13/2018 17:00:00 0.0
2018_01_14_S28 01/13/2018 17:05:00 0.0
2018_01_14_S28 01/13/2018 17:10:00 0.0
2018_01_14_S28 01/13/2018 17:15:00 0.0
2018_01_14_S28 01/13/2018 17:20:00 0.0
2018_01_14_S28 01/13/2018 17:25:00 0.0
2018_01_14_S28 01/13/2018 17:30:00 0.0
2018_01_14_S28 01/13/2018 17:35:00 0.0
2018_01_14_S28 01/13/2018 17:40:00 0.0
2018_01_14_S28 01/13/2018 17:45:00 0.0
2018_01_14_S28 01/13/2018 17:50:00 0.0
2018_01_14_S28 01/13/2018 17:55:00 0.0
2018_01_14_S28 01/13/2018 18:00:00 0.0
2018_01_14_S28 01/13/2018 18:05:00 0.0
2018_01_14_S28 01/13/2018 18:10:00 0.0
2018_01_14_S28 01/13/2018 18:15:00 0.0
2018_01_14_S28 01/13/2018 18:20:00 0.0
2018_01_14_S28 01/13/2018 18:25:00 0.0
2018_01_14_S28 01/13/2018 18:30:00 0.0
2018_01_14_S28 01/13/2018 18:35:00 0.0
2018_01_14_S28 01/13/2018 18:40:00 0.0
2018_01_14_S28 01/13/2018 18:45:00 0.0
2018_01_14_S28 01/13/2018 18:50:00 0.0
2018_01_14_S28 01/13/2018 18:55:00 0.0
2018_01_14_S28 01/13/2018 19:00:00 0.0
2018_01_14_S28 01/13/2018 19:05:00 0.0
2018_01_14_S28 01/13/2018 19:10:00 0.0
2018_01_14_S28 01/13/2018 19:15:00 0.0
2018_01_14_S28 01/13/2018 19:20:00 0.0
2018_01_14_S28 01/13/2018 19:25:00 0.0
2018_01_14_S28 01/13/2018 19:30:00 0.0
2018_01_14_S28 01/13/2018 19:35:00 0.0
2018_01_14_S28 01/13/2018 19:40:00 0.0
2018_01_14_S28 01/13/2018 19:45:00 0.0
2018_01_14_S28 01/13/2018 19:50:00 0.0
2018_01_14_S28 01/13/2018 19:55:00 0.0
2018_01_14_S28 01/13/2018 20:00:00 0.0
2018_01_14_S28 01/13/2018 20:05:00 0.0
2018_01_14_S28 01/13/2018 20:10:00 0.0
2018_01_14_S28 01/13/2018 20:15:00 0.0
2018_01_14_S28 01/13/2018 20:20:00 0.0
2018_01_14_S28 01/13/2018 20:25:00 0.0
2018_01_14_S28 01/13/2018 20:30:00 0.0
2018_01_14_S28 01/13/2018 20:35:00 0.0
2018_01_14_S28 01/13/2018 20:40:00 0.0
2018_01_14_S28 01/13/2018 20:45:00 0.0
2018_01_14_S28 01/13/2018 20:50:00 0.0
2018_01_14_S28 01/13/2018 20:55:00 0.0
2018_01_14_S28 01/13/2018 21:00:00 0.0
2018_01_14_S28 01/13/2018 21:05:00 0.0
2018_01_14_S28 01/13/2018 21:10:00 0.0
2018_01_14_S28 01/13/2018 21:15:00 0.0
2018_01_14_S28 01/13/2018 21:20:00 0.0
2018_01_14_S28 01/13/2018 21:25:00 0.0
2018_01_14_S28 01/13/2018 21:30:00 0.0
2018_01_14_S28 01/13/2018 21:35:00 0.0
2018_01_14_S28 01/13/2018 21:40:00 0.0
2018_01_14_S28 01/13/2018 21:45:00 0.0
2018_01_14_S28 01/13/2018 21:50:00 0.0
2018_01_14_S28 01/13/2018 21:55:00 0.0
2018_01_14_S28 01/13/2018 22:00:00 0.0
2018_01_14_S28 01/13/2018 22:05:00 0.0
2018_01_14_S28 01/13/2018 22:10:00 0.0
2018_01_14_S28 01/13/2018 22:15:00 0.0
2018_01_14_S28 01/13/2018 22:20:00 0.0
2018_01_14_S28 01/13/2018 22:25:00 0.0
2018_01_14_S28 01/13/2018 22:30:00 0.0
2018_01_14_S28 01/13/2018 22:35:00 0.0
2018_01_14_S28 01/13/2018 22:40:00 0.0
2018_01_14_S28 01/13/2018 22:45:00 0.0
2018_01_14_S28 01/13/2018 22:50:00 0.0
2018_01_14_S28 01/13/2018 22:55:00 0.0
2018_01_14_S28 01/13/2018 23:00:00 0.0
2018_01_14_S28 01/13/2018 23:05:00 0.0
2018_01_14_S28 01/13/2018 23:10:00 0.0
2018_01_14_S28 01/13/2018 23:15:00 0.0
2018_01_14_S28 01/13/2018 23:20:00 0.0
2018_01_14_S28 01/13/2018 23:25:00 0.0
2018_01_14_S28 01/13/2018 23:30:00 0.0
2018_01_14_S28 01/13/2018 23:35:00 0.0
2018_01_14_S28 01/13/2018 23:40:00 0.0
2018_01_14_S28 01/13/2018 23:45:00 0.0
2018_01_14_S28 01/13/2018 23:50:00 0.0
2018_01_14_S28 01/13/2018 23:55:00 0.0
2018_01_14_S28 01/14/2018 00:00:00 0.0
2018_01_14_S28 01/14/2018 00:05:00 0.0
2018_01_14_S28 01/14/2018 00:10:00 0.0
2018_01_14_S28 01/14/2018 00:15:00 0.0
2018_01_14_S28 01/14/2018 00:20:00 0.0
2018_01_14_S28 01/14/2018 00:25:00 0.0
2018_01_14_S28 01/14/2018 00:30:00 0.0
2018_01_14_S28 01/14/2018 00:35:00 0.0
2018_01_14_S28 01/14/2018 00:40:00 0.0
2018_01_14_S28 01/14/2018 00:45:00 0.0
2018_01_14_S28 01/14/2018 00:50:00 0.0
2018_01_14_S28 01/14/2018 00:55:00 0.0
2018_01_14_S28 01/14/2018 01:00:00 0.0
2018_01_14_S28 01/14/2018 01:05:00 0.0
2018_01_14_S28 01/14/2018 01:10:00 0.0
2018_01_14_S28 01/14/2018 01:15:00 0.0
2018_01_14_S28 01/14/2018 01:20:00 0.0
2018_01_14_S28 01/14/2018 01:25:00 0.0
2018_01_14_S28 01/14/2018 01:30:00 0.0
2018_01_14_S28 01/14/2018 01:35:00 0.0
2018_01_14_S28 01/14/2018 01:40:00 0.0
2018_01_14_S28 01/14/2018 01:45:00 0.0
2018_01_14_S28 01/14/2018 01:50:00 0.0
2018_01_14_S28 01/14/2018 01:55:00 0.0
2018_01_14_S28 01/14/2018 02:00:00 0.0
2018_01_14_S28 01/14/2018 02:05:00 0.0
2018_01_14_S28 01/14/2018 02:10:00 0.0
2018_01_14_S28 01/14/2018 02:15:00 0.0
2018_01_14_S28 01/14/2018 02:20:00 0.0
2018_01_14_S28 01/14/2018 02:25:00 0.0
2018_01_14_S28 01/14/2018 02:30:00 0.0
2018_01_14_S28 01/14/2018 02:35:00 0.0
2018_01_14_S28 01/14/2018 02:40:00 0.0
2018_01_14_S28 01/14/2018 02:45:00 0.0
2018_01_14_S28 01/14/2018 02:50:00 0.0
2018_01_14_S28 01/14/2018 02:55:00 0.0005
2018_01_14_S28 01/14/2018 03:00:00 0.0152
2018_01_14_S28 01/14/2018 03:05:00 0.0066
2018_01_14_S28 01/14/2018 03:10:00 0.0201
2018_01_14_S28 01/14/2018 03:15:00 0.0
2018_01_14_S28 01/14/2018 03:20:00 0.0
2018_01_14_S28 01/14/2018 03:25:00 0.0
2018_01_14_S28 01/14/2018 03:30:00 0.0
2018_01_14_S28 01/14/2018 03:35:00 0.0
2018_01_14_S28 01/14/2018 03:40:00 0.0
2018_01_14_S28 01/14/2018 03:45:00 0.0
2018_01_14_S28 01/14/2018 03:50:00 0.0
2018_01_14_S28 01/14/2018 03:55:00 0.0
2018_01_14_S28 01/14/2018 04:00:00 0.0
2018_01_14_S28 01/14/2018 04:05:00 0.0
2018_01_14_S28 01/14/2018 04:10:00 0.0
2018_01_14_S28 01/14/2018 04:15:00 0.0
2018_01_14_S28 01/14/2018 04:20:00 0.0
2018_01_14_S28 01/14/2018 04:25:00 0.0
2018_01_14_S28 01/14/2018 04:30:00 0.0
2018_01_14_S28 01/14/2018 04:35:00 0.0
2018_01_14_S28 01/14/2018 04:40:00 0.0
2018_01_14_S28 01/14/2018 04:45:00 0.0
2018_01_14_S28 01/14/2018 04:50:00 0.0
2018_01_14_S28 01/14/2018 04:55:00 0.0
2018_01_14_S28 01/14/2018 05:00:00 0.0
2018_01_14_S28 01/14/2018 05:05:00 0.0055
2018_01_14_S28 01/14/2018 05:10:00 0.2512
2018_01_14_S28 01/14/2018 05:15:00 0.0083
2018_01_14_S28 01/14/2018 05:20:00 0.0
2018_01_14_S28 01/14/2018 05:25:00 0.0
2018_01_14_S28 01/14/2018 05:30:00 0.0
2018_01_14_S28 01/14/2018 05:35:00 0.0
2018_01_14_S28 01/14/2018 05:40:00 0.0
2018_01_14_S28 01/14/2018 05:45:00 0.0
2018_01_14_S28 01/14/2018 05:50:00 0.0
2018_01_14_S28 01/14/2018 05:55:00 0.011
2018_01_14_S28 01/14/2018 06:00:00 5.3725
2018_01_14_S28 01/14/2018 06:05:00 0.0868
2018_01_14_S28 01/14/2018 06:10:00 0.3377
2018_01_14_S28 01/14/2018 06:15:00 0.0
2018_01_14_S28 01/14/2018 06:20:00 0.0018
2018_01_14_S28 01/14/2018 06:25:00 0.0459
2018_01_14_S28 01/14/2018 06:30:00 0.0
2018_01_14_S28 01/14/2018 06:35:00 0.0042
2018_01_14_S28 01/14/2018 06:40:00 0.0
2018_01_14_S28 01/14/2018 06:45:00 0.0
2018_01_14_S28 01/14/2018 06:50:00 0.0
2018_01_14_S28 01/14/2018 06:55:00 0.0
2018_01_14_S28 01/14/2018 07:00:00 0.0
2018_01_14_S28 01/14/2018 07:05:00 0.0
2018_01_14_S28 01/14/2018 07:10:00 0.0
2018_01_14_S28 01/14/2018 07:15:00 0.0
2018_01_14_S28 01/14/2018 07:20:00 0.0
2018_01_14_S28 01/14/2018 07:25:00 0.0
2018_01_14_S28 01/14/2018 07:30:00 0.0
2018_01_14_S28 01/14/2018 07:35:00 0.0
2018_01_14_S28 01/14/2018 07:40:00 0.0
2018_01_14_S28 01/14/2018 07:45:00 0.0
2018_01_14_S28 01/14/2018 07:50:00 0.0005
2018_01_14_S28 01/14/2018 07:55:00 0.0003
2018_01_14_S28 01/14/2018 08:00:00 0.0
2018_01_14_S28 01/14/2018 08:05:00 0.0
2018_01_14_S28 01/14/2018 08:10:00 0.0
2018_01_14_S28 01/14/2018 08:15:00 0.0
2018_01_14_S28 01/14/2018 08:20:00 0.0
2018_01_14_S28 01/14/2018 08:25:00 0.0
2018_01_14_S28 01/14/2018 08:30:00 0.0
2018_01_14_S28 01/14/2018 08:35:00 0.0
2018_01_14_S28 01/14/2018 08:40:00 0.0173
2018_01_14_S28 01/14/2018 08:45:00 0.0312
2018_01_14_S28 01/14/2018 08:50:00 0.0
2018_01_14_S28 01/14/2018 08:55:00 0.0
2018_01_14_S28 01/14/2018 09:00:00 0.0
2018_01_14_S28 01/14/2018 09:05:00 0.0
2018_01_14_S28 01/14/2018 09:10:00 0.0
2018_01_14_S28 01/14/2018 09:15:00 0.0
2018_01_14_S28 01/14/2018 09:20:00 0.0
2018_01_14_S28 01/14/2018 09:25:00 0.0
2018_01_14_S28 01/14/2018 09:30:00 0.0
2018_01_14_S28 01/14/2018 09:35:00 0.0
2018_01_14_S28 01/14/2018 09:40:00 0.0
2018_01_14_S28 01/14/2018 09:45:00 0.0
2018_01_14_S28 01/14/2018 09:50:00 0.0
2018_01_14_S28 01/14/2018 09:55:00 0.0
2018_01_14_S28 01/14/2018 10:00:00 0.0
2018_01_14_S28 01/14/2018 10:05:00 0.0
2018_01_14_S28 01/14/2018 10:10:00 0.0
2018_01_14_S28 01/14/2018 10:15:00 0.0
2018_01_14_S28 01/14/2018 10:20:00 0.0
2018_01_14_S28 01/14/2018 10:25:00 0.0
2018_01_14_S28 01/14/2018 10:30:00 0.0
2018_01_14_S28 01/14/2018 10:35:00 0.0
2018_01_14_S28 01/14/2018 10:40:00 0.0
2018_01_14_S28 01/14/2018 10:45:00 0.0
2018_01_14_S28 01/14/2018 10:50:00 0.0
2018_01_14_S28 01/14/2018 10:55:00 0.0
2018_01_14_S28 01/14/2018 11:00:00 0.0
2018_01_14_S28 01/14/2018 11:05:00 0.0
2018_01_14_S28 01/14/2018 11:10:00 0.0
2018_01_14_S28 01/14/2018 11:15:00 0.0
2018_01_14_S28 01/14/2018 11:20:00 0.0
2018_01_14_S28 01/14/2018 11:25:00 0.0
2018_01_14_S28 01/14/2018 11:30:00 0.0
2018_01_14_S28 01/14/2018 11:35:00 0.0
2018_01_14_S28 01/14/2018 11:40:00 0.0
2018_01_14_S28 01/14/2018 11:45:00 0.0
2018_01_14_S28 01/14/2018 11:50:00 0.0
2018_01_14_S28 01/14/2018 11:55:00 0.0
2018_01_14_S28 01/14/2018 12:00:00 0.0
2018_01_14_S28 01/14/2018 12:05:00 0.0
2018_01_14_S28 01/14/2018 12:10:00 0.0
2018_01_14_S28 01/14/2018 12:15:00 0.0
2018_01_14_S28 01/14/2018 12:20:00 0.0
2018_01_14_S28 01/14/2018 12:25:00 0.0
2018_01_14_S28 01/14/2018 12:30:00 0.0
2018_01_14_S28 01/14/2018 12:35:00 0.0
2018_01_14_S28 01/14/2018 12:40:00 0.0
2018_01_14_S28 01/14/2018 12:45:00 0.0
2018_01_14_S28 01/14/2018 12:50:00 0.0
2018_01_14_S28 01/14/2018 12:55:00 0.0
2018_01_14_S28 01/14/2018 13:00:00 0.0
2018_01_14_S28 01/14/2018 13:05:00 0.0
2018_01_14_S28 01/14/2018 13:10:00 0.0
2018_01_14_S28 01/14/2018 13:15:00 0.0
2018_01_14_S28 01/14/2018 13:20:00 0.0
2018_01_14_S28 01/14/2018 13:25:00 0.0
2018_01_14_S28 01/14/2018 13:30:00 0.0
2018_01_14_S28 01/14/2018 13:35:00 0.0
2018_01_14_S28 01/14/2018 13:40:00 0.0
2018_01_14_S28 01/14/2018 13:45:00 0.0
2018_01_14_S28 01/14/2018 13:50:00 0.0
2018_01_14_S28 01/14/2018 13:55:00 0.0
2018_01_14_S28 01/14/2018 14:00:00 0.0
2018_01_14_S28 01/14/2018 14:05:00 0.0
2018_01_14_S28 01/14/2018 14:10:00 0.0
2018_01_14_S28 01/14/2018 14:15:00 0.0
2018_01_14_S28 01/14/2018 14:20:00 0.0
2018_01_14_S28 01/14/2018 14:25:00 0.0
2018_01_14_S28 01/14/2018 14:30:00 0.0
2018_01_14_S28 01/14/2018 14:35:00 0.0
2018_01_14_S28 01/14/2018 14:40:00 0.0
2018_01_14_S28 01/14/2018 14:45:00 0.0
2018_01_14_S28 01/14/2018 14:50:00 0.0
2018_01_14_S28 01/14/2018 14:55:00 0.0
2018_01_14_S28 01/14/2018 15:00:00 0.0
2018_01_14_S28 01/14/2018 15:05:00 0.0
2018_01_14_S28 01/14/2018 15:10:00 0.0
2018_01_14_S28 01/14/2018 15:15:00 0.0
2018_01_14_S28 01/14/2018 15:20:00 0.0
2018_01_14_S28 01/14/2018 15:25:00 0.0
2018_01_14_S28 01/14/2018 15:30:00 0.0
2018_01_14_S28 01/14/2018 15:35:00 0.0
2018_01_14_S28 01/14/2018 15:40:00 0.0
2018_01_14_S28 01/14/2018 15:45:00 0.0
2018_01_14_S28 01/14/2018 15:50:00 0.0
2018_01_14_S28 01/14/2018 15:55:00 0.0
2018_01_14_S28 01/14/2018 16:00:00 0.0
2018_01_14_S28 01/14/2018 16:05:00 0.0
2018_01_14_S28 01/14/2018 16:10:00 0.0
2018_01_14_S28 01/14/2018 16:15:00 0.0
2018_01_14_S28 01/14/2018 16:20:00 0.0
2018_01_14_S28 01/14/2018 16:25:00 0.0058
2018_01_14_S28 01/14/2018 16:30:00 0.0
2018_01_14_S28 01/14/2018 16:35:00 0.0
2018_01_14_S28 01/14/2018 16:40:00 0.0084
2018_01_14_S28 01/14/2018 16:45:00 0.0005
2018_01_14_S28 01/14/2018 16:50:00 0.0919
2018_01_14_S28 01/14/2018 16:55:00 0.023
2018_01_14_S28 01/14/2018 17:00:00 0.0
2018_01_14_S28 01/14/2018 17:05:00 0.0134
2018_01_14_S28 01/14/2018 17:10:00 0.0647
2018_01_14_S28 01/14/2018 17:15:00 0.0041
2018_01_14_S28 01/14/2018 17:20:00 0.008
2018_01_14_S28 01/14/2018 17:25:00 0.0074
2018_01_14_S28 01/14/2018 17:30:00 0.0
2018_01_14_S28 01/14/2018 17:35:00 0.071
2018_01_14_S28 01/14/2018 17:40:00 0.2069
2018_01_14_S28 01/14/2018 17:45:00 0.5879
2018_01_14_S28 01/14/2018 17:50:00 0.1202
2018_01_14_S28 01/14/2018 17:55:00 0.1975
2018_01_14_S28 01/14/2018 18:00:00 0.9957
2018_01_14_S28 01/14/2018 18:05:00 2.784
2018_01_14_S28 01/14/2018 18:10:00 1.5027
2018_01_14_S28 01/14/2018 18:15:00 4.9652
2018_01_14_S28 01/14/2018 18:20:00 2.9646
2018_01_14_S28 01/14/2018 18:25:00 2.7877
2018_01_14_S28 01/14/2018 18:30:00 0.5207
2018_01_14_S28 01/14/2018 18:35:00 0.203
2018_01_14_S28 01/14/2018 18:40:00 0.0411
2018_01_14_S28 01/14/2018 18:45:00 0.748
2018_01_14_S28 01/14/2018 18:50:00 0.6798
2018_01_14_S28 01/14/2018 18:55:00 0.0158
2018_01_14_S28 01/14/2018 19:00:00 0.0315
2018_01_14_S28 01/14/2018 19:05:00 0.0
2018_01_14_S28 01/14/2018 19:10:00 0.0
2018_01_14_S28 01/14/2018 19:15:00 0.0
2018_01_14_S28 01/14/2018 19:20:00 0.0
2018_01_14_S28 01/14/2018 19:25:00 0.0
2018_01_14_S28 01/14/2018 19:30:00 0.0
2018_01_14_S28 01/14/2018 19:35:00 0.0
2018_01_14_S28 01/14/2018 19:40:00 0.0
2018_01_14_S28 01/14/2018 19:45:00 0.0
2018_01_14_S28 01/14/2018 19:50:00 0.0
2018_01_14_S28 01/14/2018 19:55:00 0.0
2018_01_14_S28 01/14/2018 20:00:00 0.0
2018_01_14_S28 01/14/2018 20:05:00 0.0
2018_01_14_S28 01/14/2018 20:10:00 0.0
2018_01_14_S28 01/14/2018 20:15:00 0.0
2018_01_14_S28 01/14/2018 20:20:00 0.0
2018_01_14_S28 01/14/2018 20:25:00 0.0
2018_01_14_S28 01/14/2018 20:30:00 0.0
2018_01_14_S28 01/14/2018 20:35:00 0.0
2018_01_14_S28 01/14/2018 20:40:00 0.0
2018_01_14_S28 01/14/2018 20:45:00 0.0
2018_01_14_S28 01/14/2018 20:50:00 0.0
2018_01_14_S28 01/14/2018 20:55:00 0.0
2018_01_14_S28 01/14/2018 21:00:00 0.0
2018_01_14_S28 01/14/2018 21:05:00 0.0
2018_01_14_S28 01/14/2018 21:10:00 0.0
2018_01_14_S28 01/14/2018 21:15:00 0.0
2018_01_14_S28 01/14/2018 21:20:00 0.0
2018_01_14_S28 01/14/2018 21:25:00 0.0
2018_01_14_S28 01/14/2018 21:30:00 0.0
2018_01_14_S28 01/14/2018 21:35:00 0.0
2018_01_14_S28 01/14/2018 21:40:00 0.0
2018_01_14_S28 01/14/2018 21:45:00 0.0
2018_01_14_S28 01/14/2018 21:50:00 0.0
2018_01_14_S28 01/14/2018 21:55:00 0.0
2018_01_14_S28 01/14/2018 22:00:00 0.0
2018_01_14_S28 01/14/2018 22:05:00 0.0
2018_01_14_S28 01/14/2018 22:10:00 0.0
2018_01_14_S28 01/14/2018 22:15:00 0.0
2018_01_14_S28 01/14/2018 22:20:00 0.0
2018_01_14_S28 01/14/2018 22:25:00 0.0
2018_01_14_S28 01/14/2018 22:30:00 0.0
2018_01_14_S28 01/14/2018 22:35:00 0.0
2018_01_14_S28 01/14/2018 22:40:00 0.0
2018_01_14_S28 01/14/2018 22:45:00 0.0
2018_01_14_S28 01/14/2018 22:50:00 0.0
2018_01_14_S28 01/14/2018 22:55:00 0.0
2018_01_14_S28 01/14/2018 23:00:00 0.01
2018_01_14_S28 01/14/2018 23:05:00 0.0054
2018_01_14_S28 01/14/2018 23:10:00 0.0
2018_01_14_S28 01/14/2018 23:15:00 0.0004
2018_01_14_S28 01/14/2018 23:20:00 0.0
2018_01_14_S28 01/14/2018 23:25:00 0.0
2018_01_14_S28 01/14/2018 23:30:00 0.0
2018_01_14_S28 01/14/2018 23:35:00 0.0
2018_01_14_S28 01/14/2018 23:40:00 0.0
2018_01_14_S28 01/14/2018 23:45:00 0.0
2018_01_14_S28 01/14/2018 23:50:00 0.0
2018_01_14_S28 01/14/2018 23:55:00 0.0
2018_01_14_S28 01/15/2018 00:00:00 0.0
2018_01_14_S28 01/15/2018 00:05:00 0.0
2018_01_14_S28 01/15/2018 00:10:00 0.0
2018_01_14_S28 01/15/2018 00:15:00 0.0
2018_01_14_S28 01/15/2018 00:20:00 0.0
2018_01_14_S28 01/15/2018 00:25:00 0.0
2018_01_14_S28 01/15/2018 00:30:00 0.0
2018_01_14_S28 01/15/2018 00:35:00 0.0
2018_01_14_S28 01/15/2018 00:40:00 0.0
2018_01_14_S28 01/15/2018 00:45:00 0.0
2018_01_14_S28 01/15/2018 00:50:00 0.0
2018_01_14_S28 01/15/2018 00:55:00 0.0
2018_01_14_S28 01/15/2018 01:00:00 0.0
2018_01_14_S28 01/15/2018 01:05:00 0.0
2018_01_14_S28 01/15/2018 01:10:00 0.0
2018_01_14_S28 01/15/2018 01:15:00 0.0
2018_01_14_S28 01/15/2018 01:20:00 0.0
2018_01_14_S28 01/15/2018 01:25:00 0.0
2018_01_14_S28 01/15/2018 01:30:00 0.0
2018_01_14_S28 01/15/2018 01:35:00 0.0
2018_01_14_S28 01/15/2018 01:40:00 0.0
2018_01_14_S28 01/15/2018 01:45:00 0.0
2018_01_14_S28 01/15/2018 01:50:00 0.0
2018_01_14_S28 01/15/2018 01:55:00 0.0
2018_01_14_S28 01/15/2018 02:00:00 0.0
2018_01_14_S28 01/15/2018 02:05:00 0.0
2018_01_14_S28 01/15/2018 02:10:00 0.0
2018_01_14_S28 01/15/2018 02:15:00 0.0
2018_01_14_S28 01/15/2018 02:20:00 0.0
2018_01_14_S28 01/15/2018 02:25:00 0.0
2018_01_14_S28 01/15/2018 02:30:00 0.0
2018_01_14_S28 01/15/2018 02:35:00 0.0
2018_01_14_S28 01/15/2018 02:40:00 0.0994
2018_01_14_S28 01/15/2018 02:45:00 0.1407
2018_01_14_S28 01/15/2018 02:50:00 0.0659
2018_01_14_S28 01/15/2018 02:55:00 0.3987
2018_01_14_S28 01/15/2018 03:00:00 0.0408
2018_01_14_S28 01/15/2018 03:05:00 0.2159
2018_01_14_S28 01/15/2018 03:10:00 0.0061
2018_01_14_S28 01/15/2018 03:15:00 0.0
2018_01_14_S28 01/15/2018 03:20:00 0.0
2018_01_14_S28 01/15/2018 03:25:00 0.0
2018_01_14_S28 01/15/2018 03:30:00 0.0
2018_01_14_S28 01/15/2018 03:35:00 0.0
2018_01_14_S28 01/15/2018 03:40:00 0.0
2018_01_14_S28 01/15/2018 03:45:00 0.0
2018_01_14_S28 01/15/2018 03:50:00 0.0
2018_01_14_S28 01/15/2018 03:55:00 0.0
2018_01_14_S28 01/15/2018 04:00:00 0.0
2018_01_14_S28 01/15/2018 04:05:00 0.0
2018_01_14_S28 01/15/2018 04:10:00 0.0
2018_01_14_S28 01/15/2018 04:15:00 0.0
2018_01_14_S28 01/15/2018 04:20:00 0.0
2018_01_14_S28 01/15/2018 04:25:00 0.0
2018_01_14_S28 01/15/2018 04:30:00 0.0
2018_01_14_S28 01/15/2018 04:35:00 0.0
2018_01_14_S28 01/15/2018 04:40:00 0.0
2018_01_14_S28 01/15/2018 04:45:00 0.0
2018_01_14_S28 01/15/2018 04:50:00 0.0
2018_01_14_S28 01/15/2018 04:55:00 0.0
2018_01_14_S28 01/15/2018 05:00:00 0.0
2018_01_14_S28 01/15/2018 05:05:00 0.0
2018_01_14_S28 01/15/2018 05:10:00 0.0
2018_01_14_S28 01/15/2018 05:15:00 0.0
2018_01_14_S28 01/15/2018 05:20:00 0.0
2018_01_14_S28 01/15/2018 05:25:00 0.0
2018_01_14_S28 01/15/2018 05:30:00 0.0
2018_01_14_S28 01/15/2018 05:35:00 0.0
2018_01_14_S28 01/15/2018 05:40:00 0.0
2018_01_14_S28 01/15/2018 05:45:00 0.0
2018_01_14_S28 01/15/2018 05:50:00 0.0
2018_01_14_S28 01/15/2018 05:55:00 0.0
2018_01_14_S28 01/15/2018 06:00:00 0.0
2018_01_14_S28 01/15/2018 06:05:00 0.0
2018_01_14_S28 01/15/2018 06:10:00 0.0
2018_01_14_S28 01/15/2018 06:15:00 0.0
2018_01_14_S28 01/15/2018 06:20:00 0.0
2018_01_14_S28 01/15/2018 06:25:00 0.0
2018_01_14_S28 01/15/2018 06:30:00 0.0
2018_01_14_S28 01/15/2018 06:35:00 0.0
2018_01_14_S28 01/15/2018 06:40:00 0.0
2018_01_14_S28 01/15/2018 06:45:00 0.0
2018_01_14_S28 01/15/2018 06:50:00 0.0
2018_01_14_S28 01/15/2018 06:55:00 0.0
2018_01_14_S28 01/15/2018 07:00:00 0.0006
2018_01_14_S28 01/15/2018 07:05:00 0.0
2018_01_14_S28 01/15/2018 07:10:00 0.0
2018_01_14_S28 01/15/2018 07:15:00 0.028
2018_01_14_S28 01/15/2018 07:20:00 0.0328
2018_01_14_S28 01/15/2018 07:25:00 0.0224
2018_01_14_S28 01/15/2018 07:30:00 0.0
2018_01_14_S28 01/15/2018 07:35:00 0.0
2018_01_14_S28 01/15/2018 07:40:00 0.0
2018_01_14_S28 01/15/2018 07:45:00 0.0
2018_01_14_S28 01/15/2018 07:50:00 0.0
2018_01_14_S28 01/15/2018 07:55:00 0.0
2018_01_14_S28 01/15/2018 08:00:00 0.0

;;____________________________________________________________________________________________________
[REPORT]
;;Reporting Options
SUBCATCHMENTS ALL
NODES ALL
LINKS ALL

;;____________________________________________________________________________________________________
[MAP]
DIMENSIONS 185865.396 673350.000 190772.001 679332.930
Units      Meters

;;____________________________________________________________________________________________________
[COORDINATES]
;;Node           X-Coord            Y-Coord           
;;-------------- ------------------ ------------------
J1               188416.573         678864.133        
J10              187876.949         676421.351        
J11              187771.585         676118.430        
J12              187745.244         675971.909        
J13              187705.733         675874.777        
J14              187172.330         676006.482        
J15              186808.496         675525.760        
J16              187588.852         675315.403        
J17              187325.287         674633.430        
J18              186976.064         674336.920        
J2               188485.717         678548.042        
J20              188922.377         677824.394        
J21              189159.110         677387.020        
J22              189116.281         676672.101        
J23              188928.977         676213.404        
J24              188829.655         675802.338        
J25              188998.163         675748.871        
J26              189650.485         676542.859        
J3               188483.151         678441.702        
J4               188316.513         677812.480        
J5               188232.551         677631.386        
J6               188137.065         677425.598        
J7               188104.139         677267.552        
J8               188018.531         676976.156        
J9               187918.106         676592.567        
O1               188423.158         679007.361

;;____________________________________________________________________________________________________
[VERTICES]
;;Link           X-Coord            Y-Coord           
;;-------------- ------------------ ------------------
C2               188487.548         678593.979        
C2               188403.586         678740.501        
C21              189211.773         677639.351        
C21              189047.045         677701.947        
C21              189037.161         677797.490        
C22              189218.362         677049.625        
C22              189093.169         677092.455        
C23              188968.026         676309.700        
C23              189040.506         676306.405        
C4               188383.830         677872.897        
C4               188365.721         677925.579        
C4               188360.782         678067.161        
C4               188415.110         678221.914        
C4               188480.962         678429.349        
C5               188251.288         677708.747

;;____________________________________________________________________________________________________
[POLYGONS]
;;Subcatchment   X-Coord            Y-Coord           
;;-------------- ------------------ ------------------
S01              187279.862         678858.156        
S01              187414.939         678805.443        
S01              187494.009         678798.854        
S01              187622.496         678838.389        
S01              187675.209         678818.621        
S01              187790.519         678812.032        
S01              187823.464         678848.272        
S01              187866.293         678854.861        
S01              187899.239         678868.040        
S01              187981.603         678802.148        
S01              188027.727         678798.854        
S01              188077.145         678805.443        
S01              188123.269         678821.916        
S01              188162.804         678844.978        
S01              188205.633         678861.450        
S01              188281.408         678874.629        
S01              188337.415         678910.869        
S01              188390.128         678950.403        
S01              188406.601         678999.822        
S01              188446.135         679009.705        
S01              188446.135         678980.054        
S01              188423.073         678854.861        
S01              188416.484         678756.025        
S01              188495.554         678591.297        
S01              188067.261         678535.289        
S01              187734.511         678525.406        
S01              187095.367         678528.700        
S01              187194.204         678607.770        
S01              187167.848         678634.126        
S01              187164.553         678680.250        
S01              187276.568         678841.683        
S02              188311.826         678562.991        
S02              188093.122         678531.748        
S02              187825.817         678517.862        
S02              187121.103         678531.748        
S02              187034.315         678455.375        
S02              186964.886         678427.603        
S02              187003.072         678170.712        
S02              186968.357         678125.583        
S02              186933.642         678021.438        
S02              186874.627         677899.935        
S02              186982.243         677882.578        
S02              187207.890         677858.277        
S02              187277.320         677872.163        
S02              187659.185         677872.163        
S02              188023.692         677865.220        
S02              188318.769         677851.334        
S02              188322.241         677934.650        
S02              188339.598         678087.396        
S02              188402.085         678212.370        
S02              188412.500         678292.215        
S02              188468.044         678431.074        
S02              188464.572         678583.820        
S03              186866.088         677850.375        
S03              186852.202         677826.075        
S03              186855.674         677753.174        
S03              186914.689         677610.842        
S03              186994.534         677586.542        
S03              187067.435         677558.770        
S03              187109.093         677503.226        
S03              187154.222         677492.811        
S03              187244.481         677524.055        
S03              187383.341         677562.241        
S03              187466.657         677576.127        
S03              187570.802         677534.469        
S03              187855.465         677503.226        
S03              187987.382         677548.355        
S03              188126.241         677635.143        
S03              188188.728         677697.630        
S03              188240.801         677718.459        
S03              188285.930         677774.003        
S03              188320.645         677843.432        
S03              187740.905         677857.318        
S03              187185.466         677846.904        
S03              186886.917         677878.147        
S04              187214.648         677432.470        
S04              187264.984         677411.641        
S04              187275.399         677323.118        
S04              187509.725         677234.595        
S04              187551.383         677357.833        
S04              187709.336         677323.118        
S04              187735.372         677366.512        
S04              187898.533         677333.532        
S04              187919.361         677422.056        
S04              188125.916         677369.983        
S04              188223.117         677611.252        
S04              188240.475         677727.547        
S04              188037.392         677592.159        
S04              187900.268         677515.786        
S04              187593.041         677538.351        
S04              187488.896         677571.330        
S04              187419.466         677571.330        
S04              187232.005         677514.050        
S05              187478.475         677233.098        
S05              187442.024         677106.389        
S05              187785.702         677003.980        
S05              187822.153         677102.917        
S05              187962.749         677075.145        
S05              187985.313         677113.332        
S05              188053.008         677106.389        
S05              188139.795         677359.808        
S05              187924.562         677406.673        
S05              187910.676         677325.093        
S05              187740.573         677354.601        
S05              187712.801         677323.357        
S05              187539.226         677342.450        
S05              187527.076         677264.342        
S05              187494.097         677220.948        
S06              186705.854         677552.926        
S06              186698.911         677467.875        
S06              186665.932         677434.896        
S06              186657.253         677073.860        
S06              186627.745         677021.788        
S06              186652.046         676938.472        
S06              187217.900         676783.990        
S06              187261.293         676910.700        
S06              187933.028         676740.596        
S06              188044.116         677108.575        
S06              187981.629         677118.989        
S06              187946.914         677089.482        
S06              187813.261         677125.932        
S06              187792.432         677009.637        
S06              187441.811         677108.575        
S06              187466.112         677242.228        
S06              187259.558         677320.336        
S06              187250.879         677412.331        
S06              187197.071         677408.859        
S06              187209.221         677500.854        
S06              187117.226         677493.911        
S06              187056.475         677565.077        
S06              186898.522         677613.678        
S06              186836.035         677537.305        
S06              186711.061         677559.869        
S07              186650.642         676928.193        
S07              186604.518         676855.713        
S07              186578.162         676763.466        
S07              186650.642         676608.621        
S07              186742.890         676457.072        
S07              186917.501         676407.654        
S07              186940.563         676473.545        
S07              187457.809         676331.879        
S07              187431.452         676256.104        
S07              187790.559         676147.384        
S07              187978.348         676727.226        
S07              187260.135         676921.604        
S07              187227.190         676786.528        
S07              186644.053         676931.488        
S08              186765.952         676443.894        
S08              186848.316         676364.824        
S08              186756.068         676249.515        
S08              186769.246         676239.631        
S08              187105.291         676134.205        
S08              187141.531         676018.896        
S08              187711.489         675864.052        
S08              187810.326         676144.089        
S08              187434.747         676236.337        
S08              187464.398         676331.879        
S08              186940.563         676476.839        
S08              186930.680         676407.654        
S08              186746.184         676453.777        
S09              186774.094         676232.497        
S09              187105.622         676117.938        
S09              187136.865         676013.793        
S09              187254.896         675973.871        
S09              187091.736         675496.540        
S09              186834.845         675557.291        
S09              186846.995         675678.794        
S09              186650.856         675720.452        
S09              186619.612         675847.161        
S09              186609.198         676031.151        
S09              186640.441         676112.731        
S09              186770.622         676249.855        
S10              186660.526         675669.673        
S10              186588.046         675623.549        
S10              186541.922         675534.596        
S10              186403.551         675514.829        
S10              186370.605         675465.410        
S10              186367.310         675386.341        
S10              186291.536         675359.985        
S10              186258.590         675294.094        
S10              186278.357         675261.148        
S10              186261.885         675211.730        
S10              186268.474         675089.831        
S10              186298.125         675116.188        
S10              186360.721         675053.591        
S10              186456.263         675040.413        
S10              186476.031         674967.932        
S10              186624.286         674911.925        
S10              186848.316         675053.591        
S10              186924.090         675231.497        
S10              186999.865         675521.418        
S10              186825.254         675551.069        
S10              186851.610         675676.262        
S10              186627.580         675722.386        
S11              186996.571         675488.472        
S11              186943.858         675290.799        
S11              186854.905         675066.769        
S11              186630.875         674921.809        
S11              186627.580         674625.299        
S11              186574.867         674526.462        
S11              186739.595         674302.432        
S11              186733.006         674167.355        
S11              187306.259         674061.929        
S11              187372.150         674028.984        
S11              187263.430         674529.756        
S11              187167.888         674533.051        
S11              187227.190         674895.452        
S11              187335.910         675228.202        
S11              187319.437         675310.566        
S11              187246.957         675392.930        
S11              187131.647         675491.767        
S11              186996.571         675514.829        
S12              186752.882         674155.010        
S12              187356.922         674047.394        
S12              187353.450         673849.518        
S12              187304.850         673898.119        
S12              187204.176         673918.948        
S12              187075.731         673936.306        
S12              187016.715         673842.575        
S12              186752.882         673832.161        
S12              186669.566         673905.062        
S12              186659.151         673932.834        
S12              186738.996         674016.150        
S12              186735.524         674144.595        
S13              187362.328         673864.932        
S13              187369.271         674069.750        
S13              187279.013         674527.988        
S13              187174.868         674538.402        
S13              187268.598         675059.126        
S13              187334.556         675257.002        
S13              187289.427         675357.675        
S13              187192.225         675434.048        
S13              187108.909         675472.235        
S13              187258.184         675968.659        
S13              187806.680         675833.270        
S13              187806.680         675753.426        
S13              188230.203         675645.809        
S13              188230.203         675562.493        
S13              188414.192         675562.493        
S13              188455.850         675007.054        
S13              188275.332         674850.837        
S13              188094.814         674753.635        
S13              188039.270         674538.402        
S13              187955.954         674462.029        
S13              187917.768         674267.625        
S13              187942.068         674205.138        
S13              187949.011         674062.807        
S13              187883.053         673996.849        
S13              187848.338         674000.320        
S13              187758.079         673962.134        
S13              187695.592         673812.859        
S13              187626.162         673764.258        
S13              187476.888         673788.559        
S13              187358.857         673864.932        
S14              187715.284         675871.166        
S14              187833.314         676235.673        
S14              188503.313         676062.098        
S14              188454.712         675905.881        
S14              188291.552         675912.824        
S14              188246.423         675659.404        
S14              187819.429         675756.606        
S14              187812.486         675857.280        
S14              187729.170         675874.637        
S15              188699.856         674898.747        
S15              188604.314         674846.034        
S15              188469.237         674987.700        
S15              188423.114         675570.836        
S15              188235.324         675560.953        
S15              188228.735         675643.317        
S15              188245.207         675705.913        
S15              188274.858         675722.386        
S15              188571.369         675643.317        
S15              188614.198         675794.866        
S15              189009.545         675705.913        
S15              189035.901         675788.277        
S15              189388.419         675323.745        
S15              189312.644         675336.923        
S15              189200.629         675307.272        
S15              189095.203         675191.962        
S15              189088.614         675014.056        
S15              188956.832         674974.522        
S15              188917.297         674872.390        
S15              188762.453         674859.212        
S15              188706.445         674905.336        
S16              189072.141         675738.859        
S16              189391.713         675310.566        
S16              189427.953         675336.923        
S16              189622.332         675336.923        
S16              189734.347         675373.163        
S16              189803.533         675313.861        
S16              189935.315         675458.821        
S16              189968.260         675633.433        
S16              189510.317         675653.200        
S16              189507.023         675808.044        
S16              189605.859         676018.896        
S16              189605.859         676068.314        
S16              189424.659         676078.198        
S16              189358.767         675775.099        
S16              189049.079         675775.099        
S17              188292.964         675915.061        
S17              188470.010         675880.346        
S17              188619.285         676414.957        
S17              188640.114         676418.428        
S17              189521.874         676165.009        
S17              189501.045         676078.221        
S17              189431.615         676071.278        
S17              189421.200         676046.978        
S17              189348.299         675779.673        
S17              189028.921         675793.559        
S17              189018.507         675724.129        
S17              188612.342         675803.973        
S17              188588.041         675661.642        
S17              188275.607         675734.543        
S17              188310.322         675911.590        
S18              187933.690         676600.013        
S18              187833.017         676245.920        
S18              188506.487         676075.817        
S18              188624.518         676422.967        
S18              187937.162         676596.541        
S19              188046.282         676980.558        
S19              188310.116         676883.356        
S19              188337.888         676956.257        
S19              188712.810         676865.998        
S19              188716.281         676848.641        
S19              188629.494         676588.278        
S19              188639.908         676439.004        
S19              187931.723         676602.164        
S19              188046.282         676977.086        
S20              188151.099         677391.191        
S20              188699.596         677300.932        
S20              188692.653         677186.373        
S20              188786.383         677148.186        
S20              188716.953         676839.223        
S20              188345.503         676960.726        
S20              188314.260         676898.239        
S20              188046.954         676967.669        
S20              188151.099         677384.248        
S21              188644.301         676422.695        
S21              188630.415         676474.768        
S21              188717.202         676811.503        
S21              188800.518         677141.295        
S21              189776.009         676901.762        
S21              189633.677         676290.778        
S21              189592.019         676075.545        
S21              189505.232         676072.074        
S21              189519.118         676186.633        
S21              188640.829         676433.110        
S22              189609.358         676094.851        
S22              189796.819         676879.409        
S22              189828.062         676993.969        
S22              189848.891         676948.839        
S22              189921.793         676855.109        
S22              189977.337         676827.337        
S22              190053.710         676733.606        
S22              190119.668         676695.420        
S22              190185.627         676695.420        
S22              190268.943         676636.404        
S22              190362.673         676660.705        
S22              190432.103         676594.746        
S22              190452.932         676521.845        
S22              190425.160         676476.716        
S22              190553.605         676386.457        
S22              190557.077         676303.141        
S22              190494.590         676202.467        
S22              190525.833         676060.136        
S22              190515.419         675955.991        
S22              190414.745         675865.732        
S22              190161.326         675667.857        
S22              190088.425         675695.629        
S22              189977.337         675640.085        
S22              189522.571         675647.028        
S22              189508.685         675792.831        
S22              189619.773         676063.608        
S23              188878.835         677825.274        
S23              188944.793         677832.217        
S23              189187.798         677755.844        
S23              189392.616         677717.657        
S23              189691.165         677696.828        
S23              189684.222         677578.797        
S23              189760.595         677540.611        
S23              189750.181         677429.523        
S23              189718.937         677349.679        
S23              189791.838         677269.834        
S23              189798.781         677040.716        
S23              189777.953         676922.685        
S23              188944.793         677134.446        
S23              188965.622         677262.891        
S23              188913.550         677262.891        
S23              188930.907         677495.482        
S23              188885.778         677498.953        
S23              188861.477         677825.274        
S24              188340.468         677855.197        
S24              188784.820         677851.726        
S24              188868.135         677834.368        
S24              188864.664         677511.519        
S24              188923.679         677490.690        
S24              188902.850         677261.571        
S24              188951.451         677258.100        
S24              188947.980         677140.069        
S24              188916.736         677140.069        
S24              188708.447         677209.499        
S24              188684.146         677615.664        
S24              188267.567         677671.208        
S24              188333.525         677855.197        
S25              188250.451         677657.676        
S25              188691.331         677605.603        
S25              188691.331         677588.246        
S25              188698.274         677463.272        
S25              188712.160         677400.785        
S25              188705.217         677310.526        
S25              188160.192         677386.899        
S25              188246.979         677654.204        
S26              188709.123         678042.797        
S26              188719.538         677869.222        
S26              188820.211         677876.165        
S26              188861.869         677844.922        
S26              189007.672         677820.621        
S26              189299.278         677747.720        
S26              189688.085         677681.761        
S26              189698.500         677713.005        
S26              189681.142         677855.336        
S26              189629.070         677980.310        
S26              189483.267         678126.113        
S26              189313.163         678122.641        
S26              189268.034         678146.942        
S26              189014.615         678136.527        
S26              189004.200         678098.341        
S26              188702.180         678042.797        
S27              188509.779         678591.953        
S27              188617.395         678623.196        
S27              188929.830         678640.554        
S27              188884.700         679064.076        
S27              188981.902         679039.776        
S27              189207.550         679022.419        
S27              189259.622         678970.346        
S27              189419.311         678959.932        
S27              189467.912         678932.160        
S27              189471.383         678817.600        
S27              189433.197         678758.585        
S27              189502.627         678720.398        
S27              189572.057         678682.212        
S27              189596.357         678598.896        
S27              189565.114         678581.538        
S27              189526.927         678539.881        
S27              189509.570         678456.565        
S27              189471.383         678383.663        
S27              189471.383         678144.130        
S27              189308.223         678123.301        
S27              189290.866         678161.487        
S27              189006.203         678147.601        
S27              189009.674         678105.943        
S27              188714.597         678050.400        
S27              188718.069         677883.768        
S27              188363.976         677855.996        
S27              188363.976         677883.768        
S27              188377.862         678060.814        
S27              188409.105         678137.187        
S27              188475.064         678376.720        
S27              188506.307         678598.896        
S28              188431.500         678929.384        
S28              188415.027         678744.888        
S28              188474.329         678599.928        
S28              188569.871         678616.401        
S28              188747.777         678636.168        
S28              188849.908         678639.463        
S28              188909.210         678622.990        
S28              188912.505         678688.881        
S28              188892.738         678850.314        
S28              188863.087         679061.166        
S28              188635.762         679067.755        
S28              188606.111         679051.282        
S28              188507.274         678988.686        
S28              188434.794         678988.686

;;____________________________________________________________________________________________________
[SYMBOLS]
;;Gage           X-Coord            Y-Coord           
;;-------------- ------------------ ------------------

;;____________________________________________________________________________________________________
[BACKDROP]
FILE       "raanana_24subcatchments.png"
DIMENSIONS 185865.396 673350.000 190728.391 679250.737